NAME           n370a
ROWS
 N  COST    
 E  A0
 E  A1
 E  A2
 E  A3
 E  A4
 E  A5
 E  A6
 E  A7
 E  A8
 E  A9
 E  A10
 E  A11
 E  A12
 E  A13
 E  A14
 E  A15
 E  A16
 E  A17
 E  A18
 E  A19
 E  A20
 E  A21
 E  A22
 E  A23
 E  A24
 E  A25
 E  A26
 E  A27
 E  A28
 E  A29
 E  A30
 E  A31
 E  A32
 E  A33
 E  A34
 E  A35
 E  A36
 E  A37
 E  A38
 E  A39
 E  A40
 E  A41
 E  A42
 E  A43
 E  A44
 E  A45
 E  A46
 E  A47
 E  A48
 E  A49
 E  B0
 E  B1
 E  B2
 E  B3
 E  B4
 E  B5
 E  B6
 E  B7
 E  B8
 E  B9
 E  B10
 E  B11
 E  B12
 E  B13
 E  B14
 E  B15
 E  B16
 E  B17
 E  B18
 E  B19
 E  B20
 E  B21
 E  B22
 E  B23
 E  B24
 E  B25
 E  B26
 E  B27
 E  B28
 E  B29
 E  B30
 E  B31
 E  B32
 E  B33
 E  B34
 E  B35
 E  B36
 E  B37
 E  B38
 E  B39
 E  B40
 E  B41
 E  B42
 E  B43
 E  B44
 E  B45
 E  B46
 E  B47
 E  B48
 E  B49
 E  B50
 E  B51
 E  B52
 E  B53
 E  B54
 E  B55
 E  B56
 E  B57
 E  B58
 E  B59
 E  B60
 E  B61
 E  B62
 E  B63
 E  B64
 E  B65
 E  B66
 E  B67
 E  B68
 E  B69
 E  B70
 E  B71
 E  B72
 E  B73
 E  B74
 E  B75
 E  B76
 E  B77
 E  B78
 E  B79
 E  B80
 E  B81
 E  B82
 E  B83
 E  B84
 E  B85
 E  B86
 E  B87
 E  B88
 E  B89
 E  B90
 E  B91
 E  B92
 E  B93
 E  B94
 E  B95
 E  B96
 E  B97
 E  B98
 E  B99
 L  G0
 L  G1
 L  G2
 L  G3
 L  G4
 L  G5
 L  G6
 L  G7
 L  G8
 L  G9
 L  G10
 L  G11
 L  G12
 L  G13
 L  G14
 L  G15
 L  G16
 L  G17
 L  G18
 L  G19
 L  G20
 L  G21
 L  G22
 L  G23
 L  G24
 L  G25
 L  G26
 L  G27
 L  G28
 L  G29
 L  G30
 L  G31
 L  G32
 L  G33
 L  G34
 L  G35
 L  G36
 L  G37
 L  G38
 L  G39
 L  G40
 L  G41
 L  G42
 L  G43
 L  G44
 L  G45
 L  G46
 L  G47
 L  G48
 L  G49
 L  G50
 L  G51
 L  G52
 L  G53
 L  G54
 L  G55
 L  G56
 L  G57
 L  G58
 L  G59
 L  G60
 L  G61
 L  G62
 L  G63
 L  G64
 L  G65
 L  G66
 L  G67
 L  G68
 L  G69
 L  G70
 L  G71
 L  G72
 L  G73
 L  G74
 L  G75
 L  G76
 L  G77
 L  G78
 L  G79
 L  G80
 L  G81
 L  G82
 L  G83
 L  G84
 L  G85
 L  G86
 L  G87
 L  G88
 L  G89
 L  G90
 L  G91
 L  G92
 L  G93
 L  G94
 L  G95
 L  G96
 L  G97
 L  G98
 L  G99
 L  G100
 L  G101
 L  G102
 L  G103
 L  G104
 L  G105
 L  G106
 L  G107
 L  G108
 L  G109
 L  G110
 L  G111
 L  G112
 L  G113
 L  G114
 L  G115
 L  G116
 L  G117
 L  G118
 L  G119
 L  G120
 L  G121
 L  G122
 L  G123
 L  G124
 L  G125
 L  G126
 L  G127
 L  G128
 L  G129
 L  G130
 L  G131
 L  G132
 L  G133
 L  G134
 L  G135
 L  G136
 L  G137
 L  G138
 L  G139
 L  G140
 L  G141
 L  G142
 L  G143
 L  G144
 L  G145
 L  G146
 L  G147
 L  G148
 L  G149
 L  G150
 L  G151
 L  G152
 L  G153
 L  G154
 L  G155
 L  G156
 L  G157
 L  G158
 L  G159
 L  G160
 L  G161
 L  G162
 L  G163
 L  G164
 L  G165
 L  G166
 L  G167
 L  G168
 L  G169
 L  G170
 L  G171
 L  G172
 L  G173
 L  G174
 L  G175
 L  G176
 L  G177
 L  G178
 L  G179
 L  G180
 L  G181
 L  G182
 L  G183
 L  G184
 L  G185
 L  G186
 L  G187
 L  G188
 L  G189
 L  G190
 L  G191
 L  G192
 L  G193
 L  G194
 L  G195
 L  G196
 L  G197
 L  G198
 L  G199
 L  G200
 L  G201
 L  G202
 L  G203
 L  G204
 L  G205
 L  G206
 L  G207
 L  G208
 L  G209
 L  G210
 L  G211
 L  G212
 L  G213
 L  G214
 L  G215
 L  G216
 L  G217
 L  G218
 L  G219
 L  G220
 L  G221
 L  G222
 L  G223
 L  G224
 L  G225
 L  G226
 L  G227
 L  G228
 L  G229
 L  G230
 L  G231
 L  G232
 L  G233
 L  G234
 L  G235
 L  G236
 L  G237
 L  G238
 L  G239
 L  G240
 L  G241
 L  G242
 L  G243
 L  G244
 L  G245
 L  G246
 L  G247
 L  G248
 L  G249
 L  G250
 L  G251
 L  G252
 L  G253
 L  G254
 L  G255
 L  G256
 L  G257
 L  G258
 L  G259
 L  G260
 L  G261
 L  G262
 L  G263
 L  G264
 L  G265
 L  G266
 L  G267
 L  G268
 L  G269
 L  G270
 L  G271
 L  G272
 L  G273
 L  G274
 L  G275
 L  G276
 L  G277
 L  G278
 L  G279
 L  G280
 L  G281
 L  G282
 L  G283
 L  G284
 L  G285
 L  G286
 L  G287
 L  G288
 L  G289
 L  G290
 L  G291
 L  G292
 L  G293
 L  G294
 L  G295
 L  G296
 L  G297
 L  G298
 L  G299
 L  G300
 L  G301
 L  G302
 L  G303
 L  G304
 L  G305
 L  G306
 L  G307
 L  G308
 L  G309
 L  G310
 L  G311
 L  G312
 L  G313
 L  G314
 L  G315
 L  G316
 L  G317
 L  G318
 L  G319
 L  G320
 L  G321
 L  G322
 L  G323
 L  G324
 L  G325
 L  G326
 L  G327
 L  G328
 L  G329
 L  G330
 L  G331
 L  G332
 L  G333
 L  G334
 L  G335
 L  G336
 L  G337
 L  G338
 L  G339
 L  G340
 L  G341
 L  G342
 L  G343
 L  G344
 L  G345
 L  G346
 L  G347
 L  G348
 L  G349
 L  G350
 L  G351
 L  G352
 L  G353
 L  G354
 L  G355
 L  G356
 L  G357
 L  G358
 L  G359
 L  G360
 L  G361
 L  G362
 L  G363
 L  G364
 L  G365
 L  G366
 L  G367
 L  G368
 L  G369
 L  G370
 L  G371
 L  G372
 L  G373
 L  G374
 L  G375
 L  G376
 L  G377
 L  G378
 L  G379
 L  G380
 L  G381
 L  G382
 L  G383
 L  G384
 L  G385
 L  G386
 L  G387
 L  G388
 L  G389
 L  G390
 L  G391
 L  G392
 L  G393
 L  G394
 L  G395
 L  G396
 L  G397
 L  G398
 L  G399
 L  G400
 L  G401
 L  G402
 L  G403
 L  G404
 L  G405
 L  G406
 L  G407
 L  G408
 L  G409
 L  G410
 L  G411
 L  G412
 L  G413
 L  G414
 L  G415
 L  G416
 L  G417
 L  G418
 L  G419
 L  G420
 L  G421
 L  G422
 L  G423
 L  G424
 L  G425
 L  G426
 L  G427
 L  G428
 L  G429
 L  G430
 L  G431
 L  G432
 L  G433
 L  G434
 L  G435
 L  G436
 L  G437
 L  G438
 L  G439
 L  G440
 L  G441
 L  G442
 L  G443
 L  G444
 L  G445
 L  G446
 L  G447
 L  G448
 L  G449
 L  G450
 L  G451
 L  G452
 L  G453
 L  G454
 L  G455
 L  G456
 L  G457
 L  G458
 L  G459
 L  G460
 L  G461
 L  G462
 L  G463
 L  G464
 L  G465
 L  G466
 L  G467
 L  G468
 L  G469
 L  G470
 L  G471
 L  G472
 L  G473
 L  G474
 L  G475
 L  G476
 L  G477
 L  G478
 L  G479
 L  G480
 L  G481
 L  G482
 L  G483
 L  G484
 L  G485
 L  G486
 L  G487
 L  G488
 L  G489
 L  G490
 L  G491
 L  G492
 L  G493
 L  G494
 L  G495
 L  G496
 L  G497
 L  G498
 L  G499
 L  G500
 L  G501
 L  G502
 L  G503
 L  G504
 L  G505
 L  G506
 L  G507
 L  G508
 L  G509
 L  G510
 L  G511
 L  G512
 L  G513
 L  G514
 L  G515
 L  G516
 L  G517
 L  G518
 L  G519
 L  G520
 L  G521
 L  G522
 L  G523
 L  G524
 L  G525
 L  G526
 L  G527
 L  G528
 L  G529
 L  G530
 L  G531
 L  G532
 L  G533
 L  G534
 L  G535
 L  G536
 L  G537
 L  G538
 L  G539
 L  G540
 L  G541
 L  G542
 L  G543
 L  G544
 L  G545
 L  G546
 L  G547
 L  G548
 L  G549
 L  G550
 L  G551
 L  G552
 L  G553
 L  G554
 L  G555
 L  G556
 L  G557
 L  G558
 L  G559
 L  G560
 L  G561
 L  G562
 L  G563
 L  G564
 L  G565
 L  G566
 L  G567
 L  G568
 L  G569
 L  G570
 L  G571
 L  G572
 L  G573
 L  G574
 L  G575
 L  G576
 L  G577
 L  G578
 L  G579
 L  G580
 L  G581
 L  G582
 L  G583
 L  G584
 L  G585
 L  G586
 L  G587
 L  G588
 L  G589
 L  G590
 L  G591
 L  G592
 L  G593
 L  G594
 L  G595
 L  G596
 L  G597
 L  G598
 L  G599
 L  G600
 L  G601
 L  G602
 L  G603
 L  G604
 L  G605
 L  G606
 L  G607
 L  G608
 L  G609
 L  G610
 L  G611
 L  G612
 L  G613
 L  G614
 L  G615
 L  G616
 L  G617
 L  G618
 L  G619
 L  G620
 L  G621
 L  G622
 L  G623
 L  G624
 L  G625
 L  G626
 L  G627
 L  G628
 L  G629
 L  G630
 L  G631
 L  G632
 L  G633
 L  G634
 L  G635
 L  G636
 L  G637
 L  G638
 L  G639
 L  G640
 L  G641
 L  G642
 L  G643
 L  G644
 L  G645
 L  G646
 L  G647
 L  G648
 L  G649
 L  G650
 L  G651
 L  G652
 L  G653
 L  G654
 L  G655
 L  G656
 L  G657
 L  G658
 L  G659
 L  G660
 L  G661
 L  G662
 L  G663
 L  G664
 L  G665
 L  G666
 L  G667
 L  G668
 L  G669
 L  G670
 L  G671
 L  G672
 L  G673
 L  G674
 L  G675
 L  G676
 L  G677
 L  G678
 L  G679
 L  G680
 L  G681
 L  G682
 L  G683
 L  G684
 L  G685
 L  G686
 L  G687
 L  G688
 L  G689
 L  G690
 L  G691
 L  G692
 L  G693
 L  G694
 L  G695
 L  G696
 L  G697
 L  G698
 L  G699
 L  G700
 L  G701
 L  G702
 L  G703
 L  G704
 L  G705
 L  G706
 L  G707
 L  G708
 L  G709
 L  G710
 L  G711
 L  G712
 L  G713
 L  G714
 L  G715
 L  G716
 L  G717
 L  G718
 L  G719
 L  G720
 L  G721
 L  G722
 L  G723
 L  G724
 L  G725
 L  G726
 L  G727
 L  G728
 L  G729
 L  G730
 L  G731
 L  G732
 L  G733
 L  G734
 L  G735
 L  G736
 L  G737
 L  G738
 L  G739
 L  G740
 L  G741
 L  G742
 L  G743
 L  G744
 L  G745
 L  G746
 L  G747
 L  G748
 L  G749
 L  G750
 L  G751
 L  G752
 L  G753
 L  G754
 L  G755
 L  G756
 L  G757
 L  G758
 L  G759
 L  G760
 L  G761
 L  G762
 L  G763
 L  G764
 L  G765
 L  G766
 L  G767
 L  G768
 L  G769
 L  G770
 L  G771
 L  G772
 L  G773
 L  G774
 L  G775
 L  G776
 L  G777
 L  G778
 L  G779
 L  G780
 L  G781
 L  G782
 L  G783
 L  G784
 L  G785
 L  G786
 L  G787
 L  G788
 L  G789
 L  G790
 L  G791
 L  G792
 L  G793
 L  G794
 L  G795
 L  G796
 L  G797
 L  G798
 L  G799
 L  G800
 L  G801
 L  G802
 L  G803
 L  G804
 L  G805
 L  G806
 L  G807
 L  G808
 L  G809
 L  G810
 L  G811
 L  G812
 L  G813
 L  G814
 L  G815
 L  G816
 L  G817
 L  G818
 L  G819
 L  G820
 L  G821
 L  G822
 L  G823
 L  G824
 L  G825
 L  G826
 L  G827
 L  G828
 L  G829
 L  G830
 L  G831
 L  G832
 L  G833
 L  G834
 L  G835
 L  G836
 L  G837
 L  G838
 L  G839
 L  G840
 L  G841
 L  G842
 L  G843
 L  G844
 L  G845
 L  G846
 L  G847
 L  G848
 L  G849
 L  G850
 L  G851
 L  G852
 L  G853
 L  G854
 L  G855
 L  G856
 L  G857
 L  G858
 L  G859
 L  G860
 L  G861
 L  G862
 L  G863
 L  G864
 L  G865
 L  G866
 L  G867
 L  G868
 L  G869
 L  G870
 L  G871
 L  G872
 L  G873
 L  G874
 L  G875
 L  G876
 L  G877
 L  G878
 L  G879
 L  G880
 L  G881
 L  G882
 L  G883
 L  G884
 L  G885
 L  G886
 L  G887
 L  G888
 L  G889
 L  G890
 L  G891
 L  G892
 L  G893
 L  G894
 L  G895
 L  G896
 L  G897
 L  G898
 L  G899
 L  G900
 L  G901
 L  G902
 L  G903
 L  G904
 L  G905
 L  G906
 L  G907
 L  G908
 L  G909
 L  G910
 L  G911
 L  G912
 L  G913
 L  G914
 L  G915
 L  G916
 L  G917
 L  G918
 L  G919
 L  G920
 L  G921
 L  G922
 L  G923
 L  G924
 L  G925
 L  G926
 L  G927
 L  G928
 L  G929
 L  G930
 L  G931
 L  G932
 L  G933
 L  G934
 L  G935
 L  G936
 L  G937
 L  G938
 L  G939
 L  G940
 L  G941
 L  G942
 L  G943
 L  G944
 L  G945
 L  G946
 L  G947
 L  G948
 L  G949
 L  G950
 L  G951
 L  G952
 L  G953
 L  G954
 L  G955
 L  G956
 L  G957
 L  G958
 L  G959
 L  G960
 L  G961
 L  G962
 L  G963
 L  G964
 L  G965
 L  G966
 L  G967
 L  G968
 L  G969
 L  G970
 L  G971
 L  G972
 L  G973
 L  G974
 L  G975
 L  G976
 L  G977
 L  G978
 L  G979
 L  G980
 L  G981
 L  G982
 L  G983
 L  G984
 L  G985
 L  G986
 L  G987
 L  G988
 L  G989
 L  G990
 L  G991
 L  G992
 L  G993
 L  G994
 L  G995
 L  G996
 L  G997
 L  G998
 L  G999
 L  G1000
 L  G1001
 L  G1002
 L  G1003
 L  G1004
 L  G1005
 L  G1006
 L  G1007
 L  G1008
 L  G1009
 L  G1010
 L  G1011
 L  G1012
 L  G1013
 L  G1014
 L  G1015
 L  G1016
 L  G1017
 L  G1018
 L  G1019
 L  G1020
 L  G1021
 L  G1022
 L  G1023
 L  G1024
 L  G1025
 L  G1026
 L  G1027
 L  G1028
 L  G1029
 L  G1030
 L  G1031
 L  G1032
 L  G1033
 L  G1034
 L  G1035
 L  G1036
 L  G1037
 L  G1038
 L  G1039
 L  G1040
 L  G1041
 L  G1042
 L  G1043
 L  G1044
 L  G1045
 L  G1046
 L  G1047
 L  G1048
 L  G1049
 L  G1050
 L  G1051
 L  G1052
 L  G1053
 L  G1054
 L  G1055
 L  G1056
 L  G1057
 L  G1058
 L  G1059
 L  G1060
 L  G1061
 L  G1062
 L  G1063
 L  G1064
 L  G1065
 L  G1066
 L  G1067
 L  G1068
 L  G1069
 L  G1070
 L  G1071
 L  G1072
 L  G1073
 L  G1074
 L  G1075
 L  G1076
 L  G1077
 L  G1078
 L  G1079
 L  G1080
 L  G1081
 L  G1082
 L  G1083
 L  G1084
 L  G1085
 L  G1086
 L  G1087
 L  G1088
 L  G1089
 L  G1090
 L  G1091
 L  G1092
 L  G1093
 L  G1094
 L  G1095
 L  G1096
 L  G1097
 L  G1098
 L  G1099
 L  G1100
 L  G1101
 L  G1102
 L  G1103
 L  G1104
 L  G1105
 L  G1106
 L  G1107
 L  G1108
 L  G1109
 L  G1110
 L  G1111
 L  G1112
 L  G1113
 L  G1114
 L  G1115
 L  G1116
 L  G1117
 L  G1118
 L  G1119
 L  G1120
 L  G1121
 L  G1122
 L  G1123
 L  G1124
 L  G1125
 L  G1126
 L  G1127
 L  G1128
 L  G1129
 L  G1130
 L  G1131
 L  G1132
 L  G1133
 L  G1134
 L  G1135
 L  G1136
 L  G1137
 L  G1138
 L  G1139
 L  G1140
 L  G1141
 L  G1142
 L  G1143
 L  G1144
 L  G1145
 L  G1146
 L  G1147
 L  G1148
 L  G1149
 L  G1150
 L  G1151
 L  G1152
 L  G1153
 L  G1154
 L  G1155
 L  G1156
 L  G1157
 L  G1158
 L  G1159
 L  G1160
 L  G1161
 L  G1162
 L  G1163
 L  G1164
 L  G1165
 L  G1166
 L  G1167
 L  G1168
 L  G1169
 L  G1170
 L  G1171
 L  G1172
 L  G1173
 L  G1174
 L  G1175
 L  G1176
 L  G1177
 L  G1178
 L  G1179
 L  G1180
 L  G1181
 L  G1182
 L  G1183
 L  G1184
 L  G1185
 L  G1186
 L  G1187
 L  G1188
 L  G1189
 L  G1190
 L  G1191
 L  G1192
 L  G1193
 L  G1194
 L  G1195
 L  G1196
 L  G1197
 L  G1198
 L  G1199
 L  G1200
 L  G1201
 L  G1202
 L  G1203
 L  G1204
 L  G1205
 L  G1206
 L  G1207
 L  G1208
 L  G1209
 L  G1210
 L  G1211
 L  G1212
 L  G1213
 L  G1214
 L  G1215
 L  G1216
 L  G1217
 L  G1218
 L  G1219
 L  G1220
 L  G1221
 L  G1222
 L  G1223
 L  G1224
 L  G1225
 L  G1226
 L  G1227
 L  G1228
 L  G1229
 L  G1230
 L  G1231
 L  G1232
 L  G1233
 L  G1234
 L  G1235
 L  G1236
 L  G1237
 L  G1238
 L  G1239
 L  G1240
 L  G1241
 L  G1242
 L  G1243
 L  G1244
 L  G1245
 L  G1246
 L  G1247
 L  G1248
 L  G1249
 L  G1250
 L  G1251
 L  G1252
 L  G1253
 L  G1254
 L  G1255
 L  G1256
 L  G1257
 L  G1258
 L  G1259
 L  G1260
 L  G1261
 L  G1262
 L  G1263
 L  G1264
 L  G1265
 L  G1266
 L  G1267
 L  G1268
 L  G1269
 L  G1270
 L  G1271
 L  G1272
 L  G1273
 L  G1274
 L  G1275
 L  G1276
 L  G1277
 L  G1278
 L  G1279
 L  G1280
 L  G1281
 L  G1282
 L  G1283
 L  G1284
 L  G1285
 L  G1286
 L  G1287
 L  G1288
 L  G1289
 L  G1290
 L  G1291
 L  G1292
 L  G1293
 L  G1294
 L  G1295
 L  G1296
 L  G1297
 L  G1298
 L  G1299
 L  G1300
 L  G1301
 L  G1302
 L  G1303
 L  G1304
 L  G1305
 L  G1306
 L  G1307
 L  G1308
 L  G1309
 L  G1310
 L  G1311
 L  G1312
 L  G1313
 L  G1314
 L  G1315
 L  G1316
 L  G1317
 L  G1318
 L  G1319
 L  G1320
 L  G1321
 L  G1322
 L  G1323
 L  G1324
 L  G1325
 L  G1326
 L  G1327
 L  G1328
 L  G1329
 L  G1330
 L  G1331
 L  G1332
 L  G1333
 L  G1334
 L  G1335
 L  G1336
 L  G1337
 L  G1338
 L  G1339
 L  G1340
 L  G1341
 L  G1342
 L  G1343
 L  G1344
 L  G1345
 L  G1346
 L  G1347
 L  G1348
 L  G1349
 L  G1350
 L  G1351
 L  G1352
 L  G1353
 L  G1354
 L  G1355
 L  G1356
 L  G1357
 L  G1358
 L  G1359
 L  G1360
 L  G1361
 L  G1362
 L  G1363
 L  G1364
 L  G1365
 L  G1366
 L  G1367
 L  G1368
 L  G1369
 L  G1370
 L  G1371
 L  G1372
 L  G1373
 L  G1374
 L  G1375
 L  G1376
 L  G1377
 L  G1378
 L  G1379
 L  G1380
 L  G1381
 L  G1382
 L  G1383
 L  G1384
 L  G1385
 L  G1386
 L  G1387
 L  G1388
 L  G1389
 L  G1390
 L  G1391
 L  G1392
 L  G1393
 L  G1394
 L  G1395
 L  G1396
 L  G1397
 L  G1398
 L  G1399
 L  G1400
 L  G1401
 L  G1402
 L  G1403
 L  G1404
 L  G1405
 L  G1406
 L  G1407
 L  G1408
 L  G1409
 L  G1410
 L  G1411
 L  G1412
 L  G1413
 L  G1414
 L  G1415
 L  G1416
 L  G1417
 L  G1418
 L  G1419
 L  G1420
 L  G1421
 L  G1422
 L  G1423
 L  G1424
 L  G1425
 L  G1426
 L  G1427
 L  G1428
 L  G1429
 L  G1430
 L  G1431
 L  G1432
 L  G1433
 L  G1434
 L  G1435
 L  G1436
 L  G1437
 L  G1438
 L  G1439
 L  G1440
 L  G1441
 L  G1442
 L  G1443
 L  G1444
 L  G1445
 L  G1446
 L  G1447
 L  G1448
 L  G1449
 L  G1450
 L  G1451
 L  G1452
 L  G1453
 L  G1454
 L  G1455
 L  G1456
 L  G1457
 L  G1458
 L  G1459
 L  G1460
 L  G1461
 L  G1462
 L  G1463
 L  G1464
 L  G1465
 L  G1466
 L  G1467
 L  G1468
 L  G1469
 L  G1470
 L  G1471
 L  G1472
 L  G1473
 L  G1474
 L  G1475
 L  G1476
 L  G1477
 L  G1478
 L  G1479
 L  G1480
 L  G1481
 L  G1482
 L  G1483
 L  G1484
 L  G1485
 L  G1486
 L  G1487
 L  G1488
 L  G1489
 L  G1490
 L  G1491
 L  G1492
 L  G1493
 L  G1494
 L  G1495
 L  G1496
 L  G1497
 L  G1498
 L  G1499
 L  G1500
 L  G1501
 L  G1502
 L  G1503
 L  G1504
 L  G1505
 L  G1506
 L  G1507
 L  G1508
 L  G1509
 L  G1510
 L  G1511
 L  G1512
 L  G1513
 L  G1514
 L  G1515
 L  G1516
 L  G1517
 L  G1518
 L  G1519
 L  G1520
 L  G1521
 L  G1522
 L  G1523
 L  G1524
 L  G1525
 L  G1526
 L  G1527
 L  G1528
 L  G1529
 L  G1530
 L  G1531
 L  G1532
 L  G1533
 L  G1534
 L  G1535
 L  G1536
 L  G1537
 L  G1538
 L  G1539
 L  G1540
 L  G1541
 L  G1542
 L  G1543
 L  G1544
 L  G1545
 L  G1546
 L  G1547
 L  G1548
 L  G1549
 L  G1550
 L  G1551
 L  G1552
 L  G1553
 L  G1554
 L  G1555
 L  G1556
 L  G1557
 L  G1558
 L  G1559
 L  G1560
 L  G1561
 L  G1562
 L  G1563
 L  G1564
 L  G1565
 L  G1566
 L  G1567
 L  G1568
 L  G1569
 L  G1570
 L  G1571
 L  G1572
 L  G1573
 L  G1574
 L  G1575
 L  G1576
 L  G1577
 L  G1578
 L  G1579
 L  G1580
 L  G1581
 L  G1582
 L  G1583
 L  G1584
 L  G1585
 L  G1586
 L  G1587
 L  G1588
 L  G1589
 L  G1590
 L  G1591
 L  G1592
 L  G1593
 L  G1594
 L  G1595
 L  G1596
 L  G1597
 L  G1598
 L  G1599
 L  G1600
 L  G1601
 L  G1602
 L  G1603
 L  G1604
 L  G1605
 L  G1606
 L  G1607
 L  G1608
 L  G1609
 L  G1610
 L  G1611
 L  G1612
 L  G1613
 L  G1614
 L  G1615
 L  G1616
 L  G1617
 L  G1618
 L  G1619
 L  G1620
 L  G1621
 L  G1622
 L  G1623
 L  G1624
 L  G1625
 L  G1626
 L  G1627
 L  G1628
 L  G1629
 L  G1630
 L  G1631
 L  G1632
 L  G1633
 L  G1634
 L  G1635
 L  G1636
 L  G1637
 L  G1638
 L  G1639
 L  G1640
 L  G1641
 L  G1642
 L  G1643
 L  G1644
 L  G1645
 L  G1646
 L  G1647
 L  G1648
 L  G1649
 L  G1650
 L  G1651
 L  G1652
 L  G1653
 L  G1654
 L  G1655
 L  G1656
 L  G1657
 L  G1658
 L  G1659
 L  G1660
 L  G1661
 L  G1662
 L  G1663
 L  G1664
 L  G1665
 L  G1666
 L  G1667
 L  G1668
 L  G1669
 L  G1670
 L  G1671
 L  G1672
 L  G1673
 L  G1674
 L  G1675
 L  G1676
 L  G1677
 L  G1678
 L  G1679
 L  G1680
 L  G1681
 L  G1682
 L  G1683
 L  G1684
 L  G1685
 L  G1686
 L  G1687
 L  G1688
 L  G1689
 L  G1690
 L  G1691
 L  G1692
 L  G1693
 L  G1694
 L  G1695
 L  G1696
 L  G1697
 L  G1698
 L  G1699
 L  G1700
 L  G1701
 L  G1702
 L  G1703
 L  G1704
 L  G1705
 L  G1706
 L  G1707
 L  G1708
 L  G1709
 L  G1710
 L  G1711
 L  G1712
 L  G1713
 L  G1714
 L  G1715
 L  G1716
 L  G1717
 L  G1718
 L  G1719
 L  G1720
 L  G1721
 L  G1722
 L  G1723
 L  G1724
 L  G1725
 L  G1726
 L  G1727
 L  G1728
 L  G1729
 L  G1730
 L  G1731
 L  G1732
 L  G1733
 L  G1734
 L  G1735
 L  G1736
 L  G1737
 L  G1738
 L  G1739
 L  G1740
 L  G1741
 L  G1742
 L  G1743
 L  G1744
 L  G1745
 L  G1746
 L  G1747
 L  G1748
 L  G1749
 L  G1750
 L  G1751
 L  G1752
 L  G1753
 L  G1754
 L  G1755
 L  G1756
 L  G1757
 L  G1758
 L  G1759
 L  G1760
 L  G1761
 L  G1762
 L  G1763
 L  G1764
 L  G1765
 L  G1766
 L  G1767
 L  G1768
 L  G1769
 L  G1770
 L  G1771
 L  G1772
 L  G1773
 L  G1774
 L  G1775
 L  G1776
 L  G1777
 L  G1778
 L  G1779
 L  G1780
 L  G1781
 L  G1782
 L  G1783
 L  G1784
 L  G1785
 L  G1786
 L  G1787
 L  G1788
 L  G1789
 L  G1790
 L  G1791
 L  G1792
 L  G1793
 L  G1794
 L  G1795
 L  G1796
 L  G1797
 L  G1798
 L  G1799
 L  G1800
 L  G1801
 L  G1802
 L  G1803
 L  G1804
 L  G1805
 L  G1806
 L  G1807
 L  G1808
 L  G1809
 L  G1810
 L  G1811
 L  G1812
 L  G1813
 L  G1814
 L  G1815
 L  G1816
 L  G1817
 L  G1818
 L  G1819
 L  G1820
 L  G1821
 L  G1822
 L  G1823
 L  G1824
 L  G1825
 L  G1826
 L  G1827
 L  G1828
 L  G1829
 L  G1830
 L  G1831
 L  G1832
 L  G1833
 L  G1834
 L  G1835
 L  G1836
 L  G1837
 L  G1838
 L  G1839
 L  G1840
 L  G1841
 L  G1842
 L  G1843
 L  G1844
 L  G1845
 L  G1846
 L  G1847
 L  G1848
 L  G1849
 L  G1850
 L  G1851
 L  G1852
 L  G1853
 L  G1854
 L  G1855
 L  G1856
 L  G1857
 L  G1858
 L  G1859
 L  G1860
 L  G1861
 L  G1862
 L  G1863
 L  G1864
 L  G1865
 L  G1866
 L  G1867
 L  G1868
 L  G1869
 L  G1870
 L  G1871
 L  G1872
 L  G1873
 L  G1874
 L  G1875
 L  G1876
 L  G1877
 L  G1878
 L  G1879
 L  G1880
 L  G1881
 L  G1882
 L  G1883
 L  G1884
 L  G1885
 L  G1886
 L  G1887
 L  G1888
 L  G1889
 L  G1890
 L  G1891
 L  G1892
 L  G1893
 L  G1894
 L  G1895
 L  G1896
 L  G1897
 L  G1898
 L  G1899
 L  G1900
 L  G1901
 L  G1902
 L  G1903
 L  G1904
 L  G1905
 L  G1906
 L  G1907
 L  G1908
 L  G1909
 L  G1910
 L  G1911
 L  G1912
 L  G1913
 L  G1914
 L  G1915
 L  G1916
 L  G1917
 L  G1918
 L  G1919
 L  G1920
 L  G1921
 L  G1922
 L  G1923
 L  G1924
 L  G1925
 L  G1926
 L  G1927
 L  G1928
 L  G1929
 L  G1930
 L  G1931
 L  G1932
 L  G1933
 L  G1934
 L  G1935
 L  G1936
 L  G1937
 L  G1938
 L  G1939
 L  G1940
 L  G1941
 L  G1942
 L  G1943
 L  G1944
 L  G1945
 L  G1946
 L  G1947
 L  G1948
 L  G1949
 L  G1950
 L  G1951
 L  G1952
 L  G1953
 L  G1954
 L  G1955
 L  G1956
 L  G1957
 L  G1958
 L  G1959
 L  G1960
 L  G1961
 L  G1962
 L  G1963
 L  G1964
 L  G1965
 L  G1966
 L  G1967
 L  G1968
 L  G1969
 L  G1970
 L  G1971
 L  G1972
 L  G1973
 L  G1974
 L  G1975
 L  G1976
 L  G1977
 L  G1978
 L  G1979
 L  G1980
 L  G1981
 L  G1982
 L  G1983
 L  G1984
 L  G1985
 L  G1986
 L  G1987
 L  G1988
 L  G1989
 L  G1990
 L  G1991
 L  G1992
 L  G1993
 L  G1994
 L  G1995
 L  G1996
 L  G1997
 L  G1998
 L  G1999
 L  G2000
 L  G2001
 L  G2002
 L  G2003
 L  G2004
 L  G2005
 L  G2006
 L  G2007
 L  G2008
 L  G2009
 L  G2010
 L  G2011
 L  G2012
 L  G2013
 L  G2014
 L  G2015
 L  G2016
 L  G2017
 L  G2018
 L  G2019
 L  G2020
 L  G2021
 L  G2022
 L  G2023
 L  G2024
 L  G2025
 L  G2026
 L  G2027
 L  G2028
 L  G2029
 L  G2030
 L  G2031
 L  G2032
 L  G2033
 L  G2034
 L  G2035
 L  G2036
 L  G2037
 L  G2038
 L  G2039
 L  G2040
 L  G2041
 L  G2042
 L  G2043
 L  G2044
 L  G2045
 L  G2046
 L  G2047
 L  G2048
 L  G2049
 L  G2050
 L  G2051
 L  G2052
 L  G2053
 L  G2054
 L  G2055
 L  G2056
 L  G2057
 L  G2058
 L  G2059
 L  G2060
 L  G2061
 L  G2062
 L  G2063
 L  G2064
 L  G2065
 L  G2066
 L  G2067
 L  G2068
 L  G2069
 L  G2070
 L  G2071
 L  G2072
 L  G2073
 L  G2074
 L  G2075
 L  G2076
 L  G2077
 L  G2078
 L  G2079
 L  G2080
 L  G2081
 L  G2082
 L  G2083
 L  G2084
 L  G2085
 L  G2086
 L  G2087
 L  G2088
 L  G2089
 L  G2090
 L  G2091
 L  G2092
 L  G2093
 L  G2094
 L  G2095
 L  G2096
 L  G2097
 L  G2098
 L  G2099
 L  G2100
 L  G2101
 L  G2102
 L  G2103
 L  G2104
 L  G2105
 L  G2106
 L  G2107
 L  G2108
 L  G2109
 L  G2110
 L  G2111
 L  G2112
 L  G2113
 L  G2114
 L  G2115
 L  G2116
 L  G2117
 L  G2118
 L  G2119
 L  G2120
 L  G2121
 L  G2122
 L  G2123
 L  G2124
 L  G2125
 L  G2126
 L  G2127
 L  G2128
 L  G2129
 L  G2130
 L  G2131
 L  G2132
 L  G2133
 L  G2134
 L  G2135
 L  G2136
 L  G2137
 L  G2138
 L  G2139
 L  G2140
 L  G2141
 L  G2142
 L  G2143
 L  G2144
 L  G2145
 L  G2146
 L  G2147
 L  G2148
 L  G2149
 L  G2150
 L  G2151
 L  G2152
 L  G2153
 L  G2154
 L  G2155
 L  G2156
 L  G2157
 L  G2158
 L  G2159
 L  G2160
 L  G2161
 L  G2162
 L  G2163
 L  G2164
 L  G2165
 L  G2166
 L  G2167
 L  G2168
 L  G2169
 L  G2170
 L  G2171
 L  G2172
 L  G2173
 L  G2174
 L  G2175
 L  G2176
 L  G2177
 L  G2178
 L  G2179
 L  G2180
 L  G2181
 L  G2182
 L  G2183
 L  G2184
 L  G2185
 L  G2186
 L  G2187
 L  G2188
 L  G2189
 L  G2190
 L  G2191
 L  G2192
 L  G2193
 L  G2194
 L  G2195
 L  G2196
 L  G2197
 L  G2198
 L  G2199
 L  G2200
 L  G2201
 L  G2202
 L  G2203
 L  G2204
 L  G2205
 L  G2206
 L  G2207
 L  G2208
 L  G2209
 L  G2210
 L  G2211
 L  G2212
 L  G2213
 L  G2214
 L  G2215
 L  G2216
 L  G2217
 L  G2218
 L  G2219
 L  G2220
 L  G2221
 L  G2222
 L  G2223
 L  G2224
 L  G2225
 L  G2226
 L  G2227
 L  G2228
 L  G2229
 L  G2230
 L  G2231
 L  G2232
 L  G2233
 L  G2234
 L  G2235
 L  G2236
 L  G2237
 L  G2238
 L  G2239
 L  G2240
 L  G2241
 L  G2242
 L  G2243
 L  G2244
 L  G2245
 L  G2246
 L  G2247
 L  G2248
 L  G2249
 L  G2250
 L  G2251
 L  G2252
 L  G2253
 L  G2254
 L  G2255
 L  G2256
 L  G2257
 L  G2258
 L  G2259
 L  G2260
 L  G2261
 L  G2262
 L  G2263
 L  G2264
 L  G2265
 L  G2266
 L  G2267
 L  G2268
 L  G2269
 L  G2270
 L  G2271
 L  G2272
 L  G2273
 L  G2274
 L  G2275
 L  G2276
 L  G2277
 L  G2278
 L  G2279
 L  G2280
 L  G2281
 L  G2282
 L  G2283
 L  G2284
 L  G2285
 L  G2286
 L  G2287
 L  G2288
 L  G2289
 L  G2290
 L  G2291
 L  G2292
 L  G2293
 L  G2294
 L  G2295
 L  G2296
 L  G2297
 L  G2298
 L  G2299
 L  G2300
 L  G2301
 L  G2302
 L  G2303
 L  G2304
 L  G2305
 L  G2306
 L  G2307
 L  G2308
 L  G2309
 L  G2310
 L  G2311
 L  G2312
 L  G2313
 L  G2314
 L  G2315
 L  G2316
 L  G2317
 L  G2318
 L  G2319
 L  G2320
 L  G2321
 L  G2322
 L  G2323
 L  G2324
 L  G2325
 L  G2326
 L  G2327
 L  G2328
 L  G2329
 L  G2330
 L  G2331
 L  G2332
 L  G2333
 L  G2334
 L  G2335
 L  G2336
 L  G2337
 L  G2338
 L  G2339
 L  G2340
 L  G2341
 L  G2342
 L  G2343
 L  G2344
 L  G2345
 L  G2346
 L  G2347
 L  G2348
 L  G2349
 L  G2350
 L  G2351
 L  G2352
 L  G2353
 L  G2354
 L  G2355
 L  G2356
 L  G2357
 L  G2358
 L  G2359
 L  G2360
 L  G2361
 L  G2362
 L  G2363
 L  G2364
 L  G2365
 L  G2366
 L  G2367
 L  G2368
 L  G2369
 L  G2370
 L  G2371
 L  G2372
 L  G2373
 L  G2374
 L  G2375
 L  G2376
 L  G2377
 L  G2378
 L  G2379
 L  G2380
 L  G2381
 L  G2382
 L  G2383
 L  G2384
 L  G2385
 L  G2386
 L  G2387
 L  G2388
 L  G2389
 L  G2390
 L  G2391
 L  G2392
 L  G2393
 L  G2394
 L  G2395
 L  G2396
 L  G2397
 L  G2398
 L  G2399
 L  G2400
 L  G2401
 L  G2402
 L  G2403
 L  G2404
 L  G2405
 L  G2406
 L  G2407
 L  G2408
 L  G2409
 L  G2410
 L  G2411
 L  G2412
 L  G2413
 L  G2414
 L  G2415
 L  G2416
 L  G2417
 L  G2418
 L  G2419
 L  G2420
 L  G2421
 L  G2422
 L  G2423
 L  G2424
 L  G2425
 L  G2426
 L  G2427
 L  G2428
 L  G2429
 L  G2430
 L  G2431
 L  G2432
 L  G2433
 L  G2434
 L  G2435
 L  G2436
 L  G2437
 L  G2438
 L  G2439
 L  G2440
 L  G2441
 L  G2442
 L  G2443
 L  G2444
 L  G2445
 L  G2446
 L  G2447
 L  G2448
 L  G2449
 L  G2450
 L  G2451
 L  G2452
 L  G2453
 L  G2454
 L  G2455
 L  G2456
 L  G2457
 L  G2458
 L  G2459
 L  G2460
 L  G2461
 L  G2462
 L  G2463
 L  G2464
 L  G2465
 L  G2466
 L  G2467
 L  G2468
 L  G2469
 L  G2470
 L  G2471
 L  G2472
 L  G2473
 L  G2474
 L  G2475
 L  G2476
 L  G2477
 L  G2478
 L  G2479
 L  G2480
 L  G2481
 L  G2482
 L  G2483
 L  G2484
 L  G2485
 L  G2486
 L  G2487
 L  G2488
 L  G2489
 L  G2490
 L  G2491
 L  G2492
 L  G2493
 L  G2494
 L  G2495
 L  G2496
 L  G2497
 L  G2498
 L  G2499
 L  G2500
 L  G2501
 L  G2502
 L  G2503
 L  G2504
 L  G2505
 L  G2506
 L  G2507
 L  G2508
 L  G2509
 L  G2510
 L  G2511
 L  G2512
 L  G2513
 L  G2514
 L  G2515
 L  G2516
 L  G2517
 L  G2518
 L  G2519
 L  G2520
 L  G2521
 L  G2522
 L  G2523
 L  G2524
 L  G2525
 L  G2526
 L  G2527
 L  G2528
 L  G2529
 L  G2530
 L  G2531
 L  G2532
 L  G2533
 L  G2534
 L  G2535
 L  G2536
 L  G2537
 L  G2538
 L  G2539
 L  G2540
 L  G2541
 L  G2542
 L  G2543
 L  G2544
 L  G2545
 L  G2546
 L  G2547
 L  G2548
 L  G2549
 L  G2550
 L  G2551
 L  G2552
 L  G2553
 L  G2554
 L  G2555
 L  G2556
 L  G2557
 L  G2558
 L  G2559
 L  G2560
 L  G2561
 L  G2562
 L  G2563
 L  G2564
 L  G2565
 L  G2566
 L  G2567
 L  G2568
 L  G2569
 L  G2570
 L  G2571
 L  G2572
 L  G2573
 L  G2574
 L  G2575
 L  G2576
 L  G2577
 L  G2578
 L  G2579
 L  G2580
 L  G2581
 L  G2582
 L  G2583
 L  G2584
 L  G2585
 L  G2586
 L  G2587
 L  G2588
 L  G2589
 L  G2590
 L  G2591
 L  G2592
 L  G2593
 L  G2594
 L  G2595
 L  G2596
 L  G2597
 L  G2598
 L  G2599
 L  G2600
 L  G2601
 L  G2602
 L  G2603
 L  G2604
 L  G2605
 L  G2606
 L  G2607
 L  G2608
 L  G2609
 L  G2610
 L  G2611
 L  G2612
 L  G2613
 L  G2614
 L  G2615
 L  G2616
 L  G2617
 L  G2618
 L  G2619
 L  G2620
 L  G2621
 L  G2622
 L  G2623
 L  G2624
 L  G2625
 L  G2626
 L  G2627
 L  G2628
 L  G2629
 L  G2630
 L  G2631
 L  G2632
 L  G2633
 L  G2634
 L  G2635
 L  G2636
 L  G2637
 L  G2638
 L  G2639
 L  G2640
 L  G2641
 L  G2642
 L  G2643
 L  G2644
 L  G2645
 L  G2646
 L  G2647
 L  G2648
 L  G2649
 L  G2650
 L  G2651
 L  G2652
 L  G2653
 L  G2654
 L  G2655
 L  G2656
 L  G2657
 L  G2658
 L  G2659
 L  G2660
 L  G2661
 L  G2662
 L  G2663
 L  G2664
 L  G2665
 L  G2666
 L  G2667
 L  G2668
 L  G2669
 L  G2670
 L  G2671
 L  G2672
 L  G2673
 L  G2674
 L  G2675
 L  G2676
 L  G2677
 L  G2678
 L  G2679
 L  G2680
 L  G2681
 L  G2682
 L  G2683
 L  G2684
 L  G2685
 L  G2686
 L  G2687
 L  G2688
 L  G2689
 L  G2690
 L  G2691
 L  G2692
 L  G2693
 L  G2694
 L  G2695
 L  G2696
 L  G2697
 L  G2698
 L  G2699
 L  G2700
 L  G2701
 L  G2702
 L  G2703
 L  G2704
 L  G2705
 L  G2706
 L  G2707
 L  G2708
 L  G2709
 L  G2710
 L  G2711
 L  G2712
 L  G2713
 L  G2714
 L  G2715
 L  G2716
 L  G2717
 L  G2718
 L  G2719
 L  G2720
 L  G2721
 L  G2722
 L  G2723
 L  G2724
 L  G2725
 L  G2726
 L  G2727
 L  G2728
 L  G2729
 L  G2730
 L  G2731
 L  G2732
 L  G2733
 L  G2734
 L  G2735
 L  G2736
 L  G2737
 L  G2738
 L  G2739
 L  G2740
 L  G2741
 L  G2742
 L  G2743
 L  G2744
 L  G2745
 L  G2746
 L  G2747
 L  G2748
 L  G2749
 L  G2750
 L  G2751
 L  G2752
 L  G2753
 L  G2754
 L  G2755
 L  G2756
 L  G2757
 L  G2758
 L  G2759
 L  G2760
 L  G2761
 L  G2762
 L  G2763
 L  G2764
 L  G2765
 L  G2766
 L  G2767
 L  G2768
 L  G2769
 L  G2770
 L  G2771
 L  G2772
 L  G2773
 L  G2774
 L  G2775
 L  G2776
 L  G2777
 L  G2778
 L  G2779
 L  G2780
 L  G2781
 L  G2782
 L  G2783
 L  G2784
 L  G2785
 L  G2786
 L  G2787
 L  G2788
 L  G2789
 L  G2790
 L  G2791
 L  G2792
 L  G2793
 L  G2794
 L  G2795
 L  G2796
 L  G2797
 L  G2798
 L  G2799
 L  G2800
 L  G2801
 L  G2802
 L  G2803
 L  G2804
 L  G2805
 L  G2806
 L  G2807
 L  G2808
 L  G2809
 L  G2810
 L  G2811
 L  G2812
 L  G2813
 L  G2814
 L  G2815
 L  G2816
 L  G2817
 L  G2818
 L  G2819
 L  G2820
 L  G2821
 L  G2822
 L  G2823
 L  G2824
 L  G2825
 L  G2826
 L  G2827
 L  G2828
 L  G2829
 L  G2830
 L  G2831
 L  G2832
 L  G2833
 L  G2834
 L  G2835
 L  G2836
 L  G2837
 L  G2838
 L  G2839
 L  G2840
 L  G2841
 L  G2842
 L  G2843
 L  G2844
 L  G2845
 L  G2846
 L  G2847
 L  G2848
 L  G2849
 L  G2850
 L  G2851
 L  G2852
 L  G2853
 L  G2854
 L  G2855
 L  G2856
 L  G2857
 L  G2858
 L  G2859
 L  G2860
 L  G2861
 L  G2862
 L  G2863
 L  G2864
 L  G2865
 L  G2866
 L  G2867
 L  G2868
 L  G2869
 L  G2870
 L  G2871
 L  G2872
 L  G2873
 L  G2874
 L  G2875
 L  G2876
 L  G2877
 L  G2878
 L  G2879
 L  G2880
 L  G2881
 L  G2882
 L  G2883
 L  G2884
 L  G2885
 L  G2886
 L  G2887
 L  G2888
 L  G2889
 L  G2890
 L  G2891
 L  G2892
 L  G2893
 L  G2894
 L  G2895
 L  G2896
 L  G2897
 L  G2898
 L  G2899
 L  G2900
 L  G2901
 L  G2902
 L  G2903
 L  G2904
 L  G2905
 L  G2906
 L  G2907
 L  G2908
 L  G2909
 L  G2910
 L  G2911
 L  G2912
 L  G2913
 L  G2914
 L  G2915
 L  G2916
 L  G2917
 L  G2918
 L  G2919
 L  G2920
 L  G2921
 L  G2922
 L  G2923
 L  G2924
 L  G2925
 L  G2926
 L  G2927
 L  G2928
 L  G2929
 L  G2930
 L  G2931
 L  G2932
 L  G2933
 L  G2934
 L  G2935
 L  G2936
 L  G2937
 L  G2938
 L  G2939
 L  G2940
 L  G2941
 L  G2942
 L  G2943
 L  G2944
 L  G2945
 L  G2946
 L  G2947
 L  G2948
 L  G2949
 L  G2950
 L  G2951
 L  G2952
 L  G2953
 L  G2954
 L  G2955
 L  G2956
 L  G2957
 L  G2958
 L  G2959
 L  G2960
 L  G2961
 L  G2962
 L  G2963
 L  G2964
 L  G2965
 L  G2966
 L  G2967
 L  G2968
 L  G2969
 L  G2970
 L  G2971
 L  G2972
 L  G2973
 L  G2974
 L  G2975
 L  G2976
 L  G2977
 L  G2978
 L  G2979
 L  G2980
 L  G2981
 L  G2982
 L  G2983
 L  G2984
 L  G2985
 L  G2986
 L  G2987
 L  G2988
 L  G2989
 L  G2990
 L  G2991
 L  G2992
 L  G2993
 L  G2994
 L  G2995
 L  G2996
 L  G2997
 L  G2998
 L  G2999
 L  G3000
 L  G3001
 L  G3002
 L  G3003
 L  G3004
 L  G3005
 L  G3006
 L  G3007
 L  G3008
 L  G3009
 L  G3010
 L  G3011
 L  G3012
 L  G3013
 L  G3014
 L  G3015
 L  G3016
 L  G3017
 L  G3018
 L  G3019
 L  G3020
 L  G3021
 L  G3022
 L  G3023
 L  G3024
 L  G3025
 L  G3026
 L  G3027
 L  G3028
 L  G3029
 L  G3030
 L  G3031
 L  G3032
 L  G3033
 L  G3034
 L  G3035
 L  G3036
 L  G3037
 L  G3038
 L  G3039
 L  G3040
 L  G3041
 L  G3042
 L  G3043
 L  G3044
 L  G3045
 L  G3046
 L  G3047
 L  G3048
 L  G3049
 L  G3050
 L  G3051
 L  G3052
 L  G3053
 L  G3054
 L  G3055
 L  G3056
 L  G3057
 L  G3058
 L  G3059
 L  G3060
 L  G3061
 L  G3062
 L  G3063
 L  G3064
 L  G3065
 L  G3066
 L  G3067
 L  G3068
 L  G3069
 L  G3070
 L  G3071
 L  G3072
 L  G3073
 L  G3074
 L  G3075
 L  G3076
 L  G3077
 L  G3078
 L  G3079
 L  G3080
 L  G3081
 L  G3082
 L  G3083
 L  G3084
 L  G3085
 L  G3086
 L  G3087
 L  G3088
 L  G3089
 L  G3090
 L  G3091
 L  G3092
 L  G3093
 L  G3094
 L  G3095
 L  G3096
 L  G3097
 L  G3098
 L  G3099
 L  G3100
 L  G3101
 L  G3102
 L  G3103
 L  G3104
 L  G3105
 L  G3106
 L  G3107
 L  G3108
 L  G3109
 L  G3110
 L  G3111
 L  G3112
 L  G3113
 L  G3114
 L  G3115
 L  G3116
 L  G3117
 L  G3118
 L  G3119
 L  G3120
 L  G3121
 L  G3122
 L  G3123
 L  G3124
 L  G3125
 L  G3126
 L  G3127
 L  G3128
 L  G3129
 L  G3130
 L  G3131
 L  G3132
 L  G3133
 L  G3134
 L  G3135
 L  G3136
 L  G3137
 L  G3138
 L  G3139
 L  G3140
 L  G3141
 L  G3142
 L  G3143
 L  G3144
 L  G3145
 L  G3146
 L  G3147
 L  G3148
 L  G3149
 L  G3150
 L  G3151
 L  G3152
 L  G3153
 L  G3154
 L  G3155
 L  G3156
 L  G3157
 L  G3158
 L  G3159
 L  G3160
 L  G3161
 L  G3162
 L  G3163
 L  G3164
 L  G3165
 L  G3166
 L  G3167
 L  G3168
 L  G3169
 L  G3170
 L  G3171
 L  G3172
 L  G3173
 L  G3174
 L  G3175
 L  G3176
 L  G3177
 L  G3178
 L  G3179
 L  G3180
 L  G3181
 L  G3182
 L  G3183
 L  G3184
 L  G3185
 L  G3186
 L  G3187
 L  G3188
 L  G3189
 L  G3190
 L  G3191
 L  G3192
 L  G3193
 L  G3194
 L  G3195
 L  G3196
 L  G3197
 L  G3198
 L  G3199
 L  G3200
 L  G3201
 L  G3202
 L  G3203
 L  G3204
 L  G3205
 L  G3206
 L  G3207
 L  G3208
 L  G3209
 L  G3210
 L  G3211
 L  G3212
 L  G3213
 L  G3214
 L  G3215
 L  G3216
 L  G3217
 L  G3218
 L  G3219
 L  G3220
 L  G3221
 L  G3222
 L  G3223
 L  G3224
 L  G3225
 L  G3226
 L  G3227
 L  G3228
 L  G3229
 L  G3230
 L  G3231
 L  G3232
 L  G3233
 L  G3234
 L  G3235
 L  G3236
 L  G3237
 L  G3238
 L  G3239
 L  G3240
 L  G3241
 L  G3242
 L  G3243
 L  G3244
 L  G3245
 L  G3246
 L  G3247
 L  G3248
 L  G3249
 L  G3250
 L  G3251
 L  G3252
 L  G3253
 L  G3254
 L  G3255
 L  G3256
 L  G3257
 L  G3258
 L  G3259
 L  G3260
 L  G3261
 L  G3262
 L  G3263
 L  G3264
 L  G3265
 L  G3266
 L  G3267
 L  G3268
 L  G3269
 L  G3270
 L  G3271
 L  G3272
 L  G3273
 L  G3274
 L  G3275
 L  G3276
 L  G3277
 L  G3278
 L  G3279
 L  G3280
 L  G3281
 L  G3282
 L  G3283
 L  G3284
 L  G3285
 L  G3286
 L  G3287
 L  G3288
 L  G3289
 L  G3290
 L  G3291
 L  G3292
 L  G3293
 L  G3294
 L  G3295
 L  G3296
 L  G3297
 L  G3298
 L  G3299
 L  G3300
 L  G3301
 L  G3302
 L  G3303
 L  G3304
 L  G3305
 L  G3306
 L  G3307
 L  G3308
 L  G3309
 L  G3310
 L  G3311
 L  G3312
 L  G3313
 L  G3314
 L  G3315
 L  G3316
 L  G3317
 L  G3318
 L  G3319
 L  G3320
 L  G3321
 L  G3322
 L  G3323
 L  G3324
 L  G3325
 L  G3326
 L  G3327
 L  G3328
 L  G3329
 L  G3330
 L  G3331
 L  G3332
 L  G3333
 L  G3334
 L  G3335
 L  G3336
 L  G3337
 L  G3338
 L  G3339
 L  G3340
 L  G3341
 L  G3342
 L  G3343
 L  G3344
 L  G3345
 L  G3346
 L  G3347
 L  G3348
 L  G3349
 L  G3350
 L  G3351
 L  G3352
 L  G3353
 L  G3354
 L  G3355
 L  G3356
 L  G3357
 L  G3358
 L  G3359
 L  G3360
 L  G3361
 L  G3362
 L  G3363
 L  G3364
 L  G3365
 L  G3366
 L  G3367
 L  G3368
 L  G3369
 L  G3370
 L  G3371
 L  G3372
 L  G3373
 L  G3374
 L  G3375
 L  G3376
 L  G3377
 L  G3378
 L  G3379
 L  G3380
 L  G3381
 L  G3382
 L  G3383
 L  G3384
 L  G3385
 L  G3386
 L  G3387
 L  G3388
 L  G3389
 L  G3390
 L  G3391
 L  G3392
 L  G3393
 L  G3394
 L  G3395
 L  G3396
 L  G3397
 L  G3398
 L  G3399
 L  G3400
 L  G3401
 L  G3402
 L  G3403
 L  G3404
 L  G3405
 L  G3406
 L  G3407
 L  G3408
 L  G3409
 L  G3410
 L  G3411
 L  G3412
 L  G3413
 L  G3414
 L  G3415
 L  G3416
 L  G3417
 L  G3418
 L  G3419
 L  G3420
 L  G3421
 L  G3422
 L  G3423
 L  G3424
 L  G3425
 L  G3426
 L  G3427
 L  G3428
 L  G3429
 L  G3430
 L  G3431
 L  G3432
 L  G3433
 L  G3434
 L  G3435
 L  G3436
 L  G3437
 L  G3438
 L  G3439
 L  G3440
 L  G3441
 L  G3442
 L  G3443
 L  G3444
 L  G3445
 L  G3446
 L  G3447
 L  G3448
 L  G3449
 L  G3450
 L  G3451
 L  G3452
 L  G3453
 L  G3454
 L  G3455
 L  G3456
 L  G3457
 L  G3458
 L  G3459
 L  G3460
 L  G3461
 L  G3462
 L  G3463
 L  G3464
 L  G3465
 L  G3466
 L  G3467
 L  G3468
 L  G3469
 L  G3470
 L  G3471
 L  G3472
 L  G3473
 L  G3474
 L  G3475
 L  G3476
 L  G3477
 L  G3478
 L  G3479
 L  G3480
 L  G3481
 L  G3482
 L  G3483
 L  G3484
 L  G3485
 L  G3486
 L  G3487
 L  G3488
 L  G3489
 L  G3490
 L  G3491
 L  G3492
 L  G3493
 L  G3494
 L  G3495
 L  G3496
 L  G3497
 L  G3498
 L  G3499
 L  G3500
 L  G3501
 L  G3502
 L  G3503
 L  G3504
 L  G3505
 L  G3506
 L  G3507
 L  G3508
 L  G3509
 L  G3510
 L  G3511
 L  G3512
 L  G3513
 L  G3514
 L  G3515
 L  G3516
 L  G3517
 L  G3518
 L  G3519
 L  G3520
 L  G3521
 L  G3522
 L  G3523
 L  G3524
 L  G3525
 L  G3526
 L  G3527
 L  G3528
 L  G3529
 L  G3530
 L  G3531
 L  G3532
 L  G3533
 L  G3534
 L  G3535
 L  G3536
 L  G3537
 L  G3538
 L  G3539
 L  G3540
 L  G3541
 L  G3542
 L  G3543
 L  G3544
 L  G3545
 L  G3546
 L  G3547
 L  G3548
 L  G3549
 L  G3550
 L  G3551
 L  G3552
 L  G3553
 L  G3554
 L  G3555
 L  G3556
 L  G3557
 L  G3558
 L  G3559
 L  G3560
 L  G3561
 L  G3562
 L  G3563
 L  G3564
 L  G3565
 L  G3566
 L  G3567
 L  G3568
 L  G3569
 L  G3570
 L  G3571
 L  G3572
 L  G3573
 L  G3574
 L  G3575
 L  G3576
 L  G3577
 L  G3578
 L  G3579
 L  G3580
 L  G3581
 L  G3582
 L  G3583
 L  G3584
 L  G3585
 L  G3586
 L  G3587
 L  G3588
 L  G3589
 L  G3590
 L  G3591
 L  G3592
 L  G3593
 L  G3594
 L  G3595
 L  G3596
 L  G3597
 L  G3598
 L  G3599
 L  G3600
 L  G3601
 L  G3602
 L  G3603
 L  G3604
 L  G3605
 L  G3606
 L  G3607
 L  G3608
 L  G3609
 L  G3610
 L  G3611
 L  G3612
 L  G3613
 L  G3614
 L  G3615
 L  G3616
 L  G3617
 L  G3618
 L  G3619
 L  G3620
 L  G3621
 L  G3622
 L  G3623
 L  G3624
 L  G3625
 L  G3626
 L  G3627
 L  G3628
 L  G3629
 L  G3630
 L  G3631
 L  G3632
 L  G3633
 L  G3634
 L  G3635
 L  G3636
 L  G3637
 L  G3638
 L  G3639
 L  G3640
 L  G3641
 L  G3642
 L  G3643
 L  G3644
 L  G3645
 L  G3646
 L  G3647
 L  G3648
 L  G3649
 L  G3650
 L  G3651
 L  G3652
 L  G3653
 L  G3654
 L  G3655
 L  G3656
 L  G3657
 L  G3658
 L  G3659
 L  G3660
 L  G3661
 L  G3662
 L  G3663
 L  G3664
 L  G3665
 L  G3666
 L  G3667
 L  G3668
 L  G3669
 L  G3670
 L  G3671
 L  G3672
 L  G3673
 L  G3674
 L  G3675
 L  G3676
 L  G3677
 L  G3678
 L  G3679
 L  G3680
 L  G3681
 L  G3682
 L  G3683
 L  G3684
 L  G3685
 L  G3686
 L  G3687
 L  G3688
 L  G3689
 L  G3690
 L  G3691
 L  G3692
 L  G3693
 L  G3694
 L  G3695
 L  G3696
 L  G3697
 L  G3698
 L  G3699
 L  G3700
 L  G3701
 L  G3702
 L  G3703
 L  G3704
 L  G3705
 L  G3706
 L  G3707
 L  G3708
 L  G3709
 L  G3710
 L  G3711
 L  G3712
 L  G3713
 L  G3714
 L  G3715
 L  G3716
 L  G3717
 L  G3718
 L  G3719
 L  G3720
 L  G3721
 L  G3722
 L  G3723
 L  G3724
 L  G3725
 L  G3726
 L  G3727
 L  G3728
 L  G3729
 L  G3730
 L  G3731
 L  G3732
 L  G3733
 L  G3734
 L  G3735
 L  G3736
 L  G3737
 L  G3738
 L  G3739
 L  G3740
 L  G3741
 L  G3742
 L  G3743
 L  G3744
 L  G3745
 L  G3746
 L  G3747
 L  G3748
 L  G3749
 L  G3750
 L  G3751
 L  G3752
 L  G3753
 L  G3754
 L  G3755
 L  G3756
 L  G3757
 L  G3758
 L  G3759
 L  G3760
 L  G3761
 L  G3762
 L  G3763
 L  G3764
 L  G3765
 L  G3766
 L  G3767
 L  G3768
 L  G3769
 L  G3770
 L  G3771
 L  G3772
 L  G3773
 L  G3774
 L  G3775
 L  G3776
 L  G3777
 L  G3778
 L  G3779
 L  G3780
 L  G3781
 L  G3782
 L  G3783
 L  G3784
 L  G3785
 L  G3786
 L  G3787
 L  G3788
 L  G3789
 L  G3790
 L  G3791
 L  G3792
 L  G3793
 L  G3794
 L  G3795
 L  G3796
 L  G3797
 L  G3798
 L  G3799
 L  G3800
 L  G3801
 L  G3802
 L  G3803
 L  G3804
 L  G3805
 L  G3806
 L  G3807
 L  G3808
 L  G3809
 L  G3810
 L  G3811
 L  G3812
 L  G3813
 L  G3814
 L  G3815
 L  G3816
 L  G3817
 L  G3818
 L  G3819
 L  G3820
 L  G3821
 L  G3822
 L  G3823
 L  G3824
 L  G3825
 L  G3826
 L  G3827
 L  G3828
 L  G3829
 L  G3830
 L  G3831
 L  G3832
 L  G3833
 L  G3834
 L  G3835
 L  G3836
 L  G3837
 L  G3838
 L  G3839
 L  G3840
 L  G3841
 L  G3842
 L  G3843
 L  G3844
 L  G3845
 L  G3846
 L  G3847
 L  G3848
 L  G3849
 L  G3850
 L  G3851
 L  G3852
 L  G3853
 L  G3854
 L  G3855
 L  G3856
 L  G3857
 L  G3858
 L  G3859
 L  G3860
 L  G3861
 L  G3862
 L  G3863
 L  G3864
 L  G3865
 L  G3866
 L  G3867
 L  G3868
 L  G3869
 L  G3870
 L  G3871
 L  G3872
 L  G3873
 L  G3874
 L  G3875
 L  G3876
 L  G3877
 L  G3878
 L  G3879
 L  G3880
 L  G3881
 L  G3882
 L  G3883
 L  G3884
 L  G3885
 L  G3886
 L  G3887
 L  G3888
 L  G3889
 L  G3890
 L  G3891
 L  G3892
 L  G3893
 L  G3894
 L  G3895
 L  G3896
 L  G3897
 L  G3898
 L  G3899
 L  G3900
 L  G3901
 L  G3902
 L  G3903
 L  G3904
 L  G3905
 L  G3906
 L  G3907
 L  G3908
 L  G3909
 L  G3910
 L  G3911
 L  G3912
 L  G3913
 L  G3914
 L  G3915
 L  G3916
 L  G3917
 L  G3918
 L  G3919
 L  G3920
 L  G3921
 L  G3922
 L  G3923
 L  G3924
 L  G3925
 L  G3926
 L  G3927
 L  G3928
 L  G3929
 L  G3930
 L  G3931
 L  G3932
 L  G3933
 L  G3934
 L  G3935
 L  G3936
 L  G3937
 L  G3938
 L  G3939
 L  G3940
 L  G3941
 L  G3942
 L  G3943
 L  G3944
 L  G3945
 L  G3946
 L  G3947
 L  G3948
 L  G3949
 L  G3950
 L  G3951
 L  G3952
 L  G3953
 L  G3954
 L  G3955
 L  G3956
 L  G3957
 L  G3958
 L  G3959
 L  G3960
 L  G3961
 L  G3962
 L  G3963
 L  G3964
 L  G3965
 L  G3966
 L  G3967
 L  G3968
 L  G3969
 L  G3970
 L  G3971
 L  G3972
 L  G3973
 L  G3974
 L  G3975
 L  G3976
 L  G3977
 L  G3978
 L  G3979
 L  G3980
 L  G3981
 L  G3982
 L  G3983
 L  G3984
 L  G3985
 L  G3986
 L  G3987
 L  G3988
 L  G3989
 L  G3990
 L  G3991
 L  G3992
 L  G3993
 L  G3994
 L  G3995
 L  G3996
 L  G3997
 L  G3998
 L  G3999
 L  G4000
 L  G4001
 L  G4002
 L  G4003
 L  G4004
 L  G4005
 L  G4006
 L  G4007
 L  G4008
 L  G4009
 L  G4010
 L  G4011
 L  G4012
 L  G4013
 L  G4014
 L  G4015
 L  G4016
 L  G4017
 L  G4018
 L  G4019
 L  G4020
 L  G4021
 L  G4022
 L  G4023
 L  G4024
 L  G4025
 L  G4026
 L  G4027
 L  G4028
 L  G4029
 L  G4030
 L  G4031
 L  G4032
 L  G4033
 L  G4034
 L  G4035
 L  G4036
 L  G4037
 L  G4038
 L  G4039
 L  G4040
 L  G4041
 L  G4042
 L  G4043
 L  G4044
 L  G4045
 L  G4046
 L  G4047
 L  G4048
 L  G4049
 L  G4050
 L  G4051
 L  G4052
 L  G4053
 L  G4054
 L  G4055
 L  G4056
 L  G4057
 L  G4058
 L  G4059
 L  G4060
 L  G4061
 L  G4062
 L  G4063
 L  G4064
 L  G4065
 L  G4066
 L  G4067
 L  G4068
 L  G4069
 L  G4070
 L  G4071
 L  G4072
 L  G4073
 L  G4074
 L  G4075
 L  G4076
 L  G4077
 L  G4078
 L  G4079
 L  G4080
 L  G4081
 L  G4082
 L  G4083
 L  G4084
 L  G4085
 L  G4086
 L  G4087
 L  G4088
 L  G4089
 L  G4090
 L  G4091
 L  G4092
 L  G4093
 L  G4094
 L  G4095
 L  G4096
 L  G4097
 L  G4098
 L  G4099
 L  G4100
 L  G4101
 L  G4102
 L  G4103
 L  G4104
 L  G4105
 L  G4106
 L  G4107
 L  G4108
 L  G4109
 L  G4110
 L  G4111
 L  G4112
 L  G4113
 L  G4114
 L  G4115
 L  G4116
 L  G4117
 L  G4118
 L  G4119
 L  G4120
 L  G4121
 L  G4122
 L  G4123
 L  G4124
 L  G4125
 L  G4126
 L  G4127
 L  G4128
 L  G4129
 L  G4130
 L  G4131
 L  G4132
 L  G4133
 L  G4134
 L  G4135
 L  G4136
 L  G4137
 L  G4138
 L  G4139
 L  G4140
 L  G4141
 L  G4142
 L  G4143
 L  G4144
 L  G4145
 L  G4146
 L  G4147
 L  G4148
 L  G4149
 L  G4150
 L  G4151
 L  G4152
 L  G4153
 L  G4154
 L  G4155
 L  G4156
 L  G4157
 L  G4158
 L  G4159
 L  G4160
 L  G4161
 L  G4162
 L  G4163
 L  G4164
 L  G4165
 L  G4166
 L  G4167
 L  G4168
 L  G4169
 L  G4170
 L  G4171
 L  G4172
 L  G4173
 L  G4174
 L  G4175
 L  G4176
 L  G4177
 L  G4178
 L  G4179
 L  G4180
 L  G4181
 L  G4182
 L  G4183
 L  G4184
 L  G4185
 L  G4186
 L  G4187
 L  G4188
 L  G4189
 L  G4190
 L  G4191
 L  G4192
 L  G4193
 L  G4194
 L  G4195
 L  G4196
 L  G4197
 L  G4198
 L  G4199
 L  G4200
 L  G4201
 L  G4202
 L  G4203
 L  G4204
 L  G4205
 L  G4206
 L  G4207
 L  G4208
 L  G4209
 L  G4210
 L  G4211
 L  G4212
 L  G4213
 L  G4214
 L  G4215
 L  G4216
 L  G4217
 L  G4218
 L  G4219
 L  G4220
 L  G4221
 L  G4222
 L  G4223
 L  G4224
 L  G4225
 L  G4226
 L  G4227
 L  G4228
 L  G4229
 L  G4230
 L  G4231
 L  G4232
 L  G4233
 L  G4234
 L  G4235
 L  G4236
 L  G4237
 L  G4238
 L  G4239
 L  G4240
 L  G4241
 L  G4242
 L  G4243
 L  G4244
 L  G4245
 L  G4246
 L  G4247
 L  G4248
 L  G4249
 L  G4250
 L  G4251
 L  G4252
 L  G4253
 L  G4254
 L  G4255
 L  G4256
 L  G4257
 L  G4258
 L  G4259
 L  G4260
 L  G4261
 L  G4262
 L  G4263
 L  G4264
 L  G4265
 L  G4266
 L  G4267
 L  G4268
 L  G4269
 L  G4270
 L  G4271
 L  G4272
 L  G4273
 L  G4274
 L  G4275
 L  G4276
 L  G4277
 L  G4278
 L  G4279
 L  G4280
 L  G4281
 L  G4282
 L  G4283
 L  G4284
 L  G4285
 L  G4286
 L  G4287
 L  G4288
 L  G4289
 L  G4290
 L  G4291
 L  G4292
 L  G4293
 L  G4294
 L  G4295
 L  G4296
 L  G4297
 L  G4298
 L  G4299
 L  G4300
 L  G4301
 L  G4302
 L  G4303
 L  G4304
 L  G4305
 L  G4306
 L  G4307
 L  G4308
 L  G4309
 L  G4310
 L  G4311
 L  G4312
 L  G4313
 L  G4314
 L  G4315
 L  G4316
 L  G4317
 L  G4318
 L  G4319
 L  G4320
 L  G4321
 L  G4322
 L  G4323
 L  G4324
 L  G4325
 L  G4326
 L  G4327
 L  G4328
 L  G4329
 L  G4330
 L  G4331
 L  G4332
 L  G4333
 L  G4334
 L  G4335
 L  G4336
 L  G4337
 L  G4338
 L  G4339
 L  G4340
 L  G4341
 L  G4342
 L  G4343
 L  G4344
 L  G4345
 L  G4346
 L  G4347
 L  G4348
 L  G4349
 L  G4350
 L  G4351
 L  G4352
 L  G4353
 L  G4354
 L  G4355
 L  G4356
 L  G4357
 L  G4358
 L  G4359
 L  G4360
 L  G4361
 L  G4362
 L  G4363
 L  G4364
 L  G4365
 L  G4366
 L  G4367
 L  G4368
 L  G4369
 L  G4370
 L  G4371
 L  G4372
 L  G4373
 L  G4374
 L  G4375
 L  G4376
 L  G4377
 L  G4378
 L  G4379
 L  G4380
 L  G4381
 L  G4382
 L  G4383
 L  G4384
 L  G4385
 L  G4386
 L  G4387
 L  G4388
 L  G4389
 L  G4390
 L  G4391
 L  G4392
 L  G4393
 L  G4394
 L  G4395
 L  G4396
 L  G4397
 L  G4398
 L  G4399
 L  G4400
 L  G4401
 L  G4402
 L  G4403
 L  G4404
 L  G4405
 L  G4406
 L  G4407
 L  G4408
 L  G4409
 L  G4410
 L  G4411
 L  G4412
 L  G4413
 L  G4414
 L  G4415
 L  G4416
 L  G4417
 L  G4418
 L  G4419
 L  G4420
 L  G4421
 L  G4422
 L  G4423
 L  G4424
 L  G4425
 L  G4426
 L  G4427
 L  G4428
 L  G4429
 L  G4430
 L  G4431
 L  G4432
 L  G4433
 L  G4434
 L  G4435
 L  G4436
 L  G4437
 L  G4438
 L  G4439
 L  G4440
 L  G4441
 L  G4442
 L  G4443
 L  G4444
 L  G4445
 L  G4446
 L  G4447
 L  G4448
 L  G4449
 L  G4450
 L  G4451
 L  G4452
 L  G4453
 L  G4454
 L  G4455
 L  G4456
 L  G4457
 L  G4458
 L  G4459
 L  G4460
 L  G4461
 L  G4462
 L  G4463
 L  G4464
 L  G4465
 L  G4466
 L  G4467
 L  G4468
 L  G4469
 L  G4470
 L  G4471
 L  G4472
 L  G4473
 L  G4474
 L  G4475
 L  G4476
 L  G4477
 L  G4478
 L  G4479
 L  G4480
 L  G4481
 L  G4482
 L  G4483
 L  G4484
 L  G4485
 L  G4486
 L  G4487
 L  G4488
 L  G4489
 L  G4490
 L  G4491
 L  G4492
 L  G4493
 L  G4494
 L  G4495
 L  G4496
 L  G4497
 L  G4498
 L  G4499
 L  G4500
 L  G4501
 L  G4502
 L  G4503
 L  G4504
 L  G4505
 L  G4506
 L  G4507
 L  G4508
 L  G4509
 L  G4510
 L  G4511
 L  G4512
 L  G4513
 L  G4514
 L  G4515
 L  G4516
 L  G4517
 L  G4518
 L  G4519
 L  G4520
 L  G4521
 L  G4522
 L  G4523
 L  G4524
 L  G4525
 L  G4526
 L  G4527
 L  G4528
 L  G4529
 L  G4530
 L  G4531
 L  G4532
 L  G4533
 L  G4534
 L  G4535
 L  G4536
 L  G4537
 L  G4538
 L  G4539
 L  G4540
 L  G4541
 L  G4542
 L  G4543
 L  G4544
 L  G4545
 L  G4546
 L  G4547
 L  G4548
 L  G4549
 L  G4550
 L  G4551
 L  G4552
 L  G4553
 L  G4554
 L  G4555
 L  G4556
 L  G4557
 L  G4558
 L  G4559
 L  G4560
 L  G4561
 L  G4562
 L  G4563
 L  G4564
 L  G4565
 L  G4566
 L  G4567
 L  G4568
 L  G4569
 L  G4570
 L  G4571
 L  G4572
 L  G4573
 L  G4574
 L  G4575
 L  G4576
 L  G4577
 L  G4578
 L  G4579
 L  G4580
 L  G4581
 L  G4582
 L  G4583
 L  G4584
 L  G4585
 L  G4586
 L  G4587
 L  G4588
 L  G4589
 L  G4590
 L  G4591
 L  G4592
 L  G4593
 L  G4594
 L  G4595
 L  G4596
 L  G4597
 L  G4598
 L  G4599
 L  G4600
 L  G4601
 L  G4602
 L  G4603
 L  G4604
 L  G4605
 L  G4606
 L  G4607
 L  G4608
 L  G4609
 L  G4610
 L  G4611
 L  G4612
 L  G4613
 L  G4614
 L  G4615
 L  G4616
 L  G4617
 L  G4618
 L  G4619
 L  G4620
 L  G4621
 L  G4622
 L  G4623
 L  G4624
 L  G4625
 L  G4626
 L  G4627
 L  G4628
 L  G4629
 L  G4630
 L  G4631
 L  G4632
 L  G4633
 L  G4634
 L  G4635
 L  G4636
 L  G4637
 L  G4638
 L  G4639
 L  G4640
 L  G4641
 L  G4642
 L  G4643
 L  G4644
 L  G4645
 L  G4646
 L  G4647
 L  G4648
 L  G4649
 L  G4650
 L  G4651
 L  G4652
 L  G4653
 L  G4654
 L  G4655
 L  G4656
 L  G4657
 L  G4658
 L  G4659
 L  G4660
 L  G4661
 L  G4662
 L  G4663
 L  G4664
 L  G4665
 L  G4666
 L  G4667
 L  G4668
 L  G4669
 L  G4670
 L  G4671
 L  G4672
 L  G4673
 L  G4674
 L  G4675
 L  G4676
 L  G4677
 L  G4678
 L  G4679
 L  G4680
 L  G4681
 L  G4682
 L  G4683
 L  G4684
 L  G4685
 L  G4686
 L  G4687
 L  G4688
 L  G4689
 L  G4690
 L  G4691
 L  G4692
 L  G4693
 L  G4694
 L  G4695
 L  G4696
 L  G4697
 L  G4698
 L  G4699
 L  G4700
 L  G4701
 L  G4702
 L  G4703
 L  G4704
 L  G4705
 L  G4706
 L  G4707
 L  G4708
 L  G4709
 L  G4710
 L  G4711
 L  G4712
 L  G4713
 L  G4714
 L  G4715
 L  G4716
 L  G4717
 L  G4718
 L  G4719
 L  G4720
 L  G4721
 L  G4722
 L  G4723
 L  G4724
 L  G4725
 L  G4726
 L  G4727
 L  G4728
 L  G4729
 L  G4730
 L  G4731
 L  G4732
 L  G4733
 L  G4734
 L  G4735
 L  G4736
 L  G4737
 L  G4738
 L  G4739
 L  G4740
 L  G4741
 L  G4742
 L  G4743
 L  G4744
 L  G4745
 L  G4746
 L  G4747
 L  G4748
 L  G4749
 L  G4750
 L  G4751
 L  G4752
 L  G4753
 L  G4754
 L  G4755
 L  G4756
 L  G4757
 L  G4758
 L  G4759
 L  G4760
 L  G4761
 L  G4762
 L  G4763
 L  G4764
 L  G4765
 L  G4766
 L  G4767
 L  G4768
 L  G4769
 L  G4770
 L  G4771
 L  G4772
 L  G4773
 L  G4774
 L  G4775
 L  G4776
 L  G4777
 L  G4778
 L  G4779
 L  G4780
 L  G4781
 L  G4782
 L  G4783
 L  G4784
 L  G4785
 L  G4786
 L  G4787
 L  G4788
 L  G4789
 L  G4790
 L  G4791
 L  G4792
 L  G4793
 L  G4794
 L  G4795
 L  G4796
 L  G4797
 L  G4798
 L  G4799
 L  G4800
 L  G4801
 L  G4802
 L  G4803
 L  G4804
 L  G4805
 L  G4806
 L  G4807
 L  G4808
 L  G4809
 L  G4810
 L  G4811
 L  G4812
 L  G4813
 L  G4814
 L  G4815
 L  G4816
 L  G4817
 L  G4818
 L  G4819
 L  G4820
 L  G4821
 L  G4822
 L  G4823
 L  G4824
 L  G4825
 L  G4826
 L  G4827
 L  G4828
 L  G4829
 L  G4830
 L  G4831
 L  G4832
 L  G4833
 L  G4834
 L  G4835
 L  G4836
 L  G4837
 L  G4838
 L  G4839
 L  G4840
 L  G4841
 L  G4842
 L  G4843
 L  G4844
 L  G4845
 L  G4846
 L  G4847
 L  G4848
 L  G4849
 L  G4850
 L  G4851
 L  G4852
 L  G4853
 L  G4854
 L  G4855
 L  G4856
 L  G4857
 L  G4858
 L  G4859
 L  G4860
 L  G4861
 L  G4862
 L  G4863
 L  G4864
 L  G4865
 L  G4866
 L  G4867
 L  G4868
 L  G4869
 L  G4870
 L  G4871
 L  G4872
 L  G4873
 L  G4874
 L  G4875
 L  G4876
 L  G4877
 L  G4878
 L  G4879
 L  G4880
 L  G4881
 L  G4882
 L  G4883
 L  G4884
 L  G4885
 L  G4886
 L  G4887
 L  G4888
 L  G4889
 L  G4890
 L  G4891
 L  G4892
 L  G4893
 L  G4894
 L  G4895
 L  G4896
 L  G4897
 L  G4898
 L  G4899
 L  G4900
 L  G4901
 L  G4902
 L  G4903
 L  G4904
 L  G4905
 L  G4906
 L  G4907
 L  G4908
 L  G4909
 L  G4910
 L  G4911
 L  G4912
 L  G4913
 L  G4914
 L  G4915
 L  G4916
 L  G4917
 L  G4918
 L  G4919
 L  G4920
 L  G4921
 L  G4922
 L  G4923
 L  G4924
 L  G4925
 L  G4926
 L  G4927
 L  G4928
 L  G4929
 L  G4930
 L  G4931
 L  G4932
 L  G4933
 L  G4934
 L  G4935
 L  G4936
 L  G4937
 L  G4938
 L  G4939
 L  G4940
 L  G4941
 L  G4942
 L  G4943
 L  G4944
 L  G4945
 L  G4946
 L  G4947
 L  G4948
 L  G4949
 L  G4950
 L  G4951
 L  G4952
 L  G4953
 L  G4954
 L  G4955
 L  G4956
 L  G4957
 L  G4958
 L  G4959
 L  G4960
 L  G4961
 L  G4962
 L  G4963
 L  G4964
 L  G4965
 L  G4966
 L  G4967
 L  G4968
 L  G4969
 L  G4970
 L  G4971
 L  G4972
 L  G4973
 L  G4974
 L  G4975
 L  G4976
 L  G4977
 L  G4978
 L  G4979
 L  G4980
 L  G4981
 L  G4982
 L  G4983
 L  G4984
 L  G4985
 L  G4986
 L  G4987
 L  G4988
 L  G4989
 L  G4990
 L  G4991
 L  G4992
 L  G4993
 L  G4994
 L  G4995
 L  G4996
 L  G4997
 L  G4998
 L  G4999
COLUMNS
    X0        COST       8
    X0        A0         1
    X0        G0         1
    X0        B0         1
    X1        COST       7
    X1        A0         1
    X1        G1         1
    X1        B1         1
    X2        COST       5
    X2        A0         1
    X2        G2         1
    X2        B2         1
    X3        COST       5
    X3        A0         1
    X3        G3         1
    X3        B3         1
    X4        COST       5
    X4        A0         1
    X4        G4         1
    X4        B4         1
    X5        COST       3
    X5        A0         1
    X5        G5         1
    X5        B5         1
    X6        COST       4
    X6        A0         1
    X6        G6         1
    X6        B6         1
    X7        COST       5
    X7        A0         1
    X7        G7         1
    X7        B7         1
    X8        COST       4
    X8        A0         1
    X8        G8         1
    X8        B8         1
    X9        COST       3
    X9        A0         1
    X9        G9         1
    X9        B9         1
    X10       COST       5
    X10       A0         1
    X10       G10        1
    X10       B10        1
    X11       COST       3
    X11       A0         1
    X11       G11        1
    X11       B11        1
    X12       COST       8
    X12       A0         1
    X12       G12        1
    X12       B12        1
    X13       COST       4
    X13       A0         1
    X13       G13        1
    X13       B13        1
    X14       COST       8
    X14       A0         1
    X14       G14        1
    X14       B14        1
    X15       COST       8
    X15       A0         1
    X15       G15        1
    X15       B15        1
    X16       COST       8
    X16       A0         1
    X16       G16        1
    X16       B16        1
    X17       COST       3
    X17       A0         1
    X17       G17        1
    X17       B17        1
    X18       COST       3
    X18       A0         1
    X18       G18        1
    X18       B18        1
    X19       COST       3
    X19       A0         1
    X19       G19        1
    X19       B19        1
    X20       COST       3
    X20       A0         1
    X20       G20        1
    X20       B20        1
    X21       COST       3
    X21       A0         1
    X21       G21        1
    X21       B21        1
    X22       COST       7
    X22       A0         1
    X22       G22        1
    X22       B22        1
    X23       COST       7
    X23       A0         1
    X23       G23        1
    X23       B23        1
    X24       COST       7
    X24       A0         1
    X24       G24        1
    X24       B24        1
    X25       COST       6
    X25       A0         1
    X25       G25        1
    X25       B25        1
    X26       COST       8
    X26       A0         1
    X26       G26        1
    X26       B26        1
    X27       COST       7
    X27       A0         1
    X27       G27        1
    X27       B27        1
    X28       COST       4
    X28       A0         1
    X28       G28        1
    X28       B28        1
    X29       COST       7
    X29       A0         1
    X29       G29        1
    X29       B29        1
    X30       COST       8
    X30       A0         1
    X30       G30        1
    X30       B30        1
    X31       COST       7
    X31       A0         1
    X31       G31        1
    X31       B31        1
    X32       COST       7
    X32       A0         1
    X32       G32        1
    X32       B32        1
    X33       COST       7
    X33       A0         1
    X33       G33        1
    X33       B33        1
    X34       COST       4
    X34       A0         1
    X34       G34        1
    X34       B34        1
    X35       COST       7
    X35       A0         1
    X35       G35        1
    X35       B35        1
    X36       COST       6
    X36       A0         1
    X36       G36        1
    X36       B36        1
    X37       COST       7
    X37       A0         1
    X37       G37        1
    X37       B37        1
    X38       COST       7
    X38       A0         1
    X38       G38        1
    X38       B38        1
    X39       COST       7
    X39       A0         1
    X39       G39        1
    X39       B39        1
    X40       COST       3
    X40       A0         1
    X40       G40        1
    X40       B40        1
    X41       COST       8
    X41       A0         1
    X41       G41        1
    X41       B41        1
    X42       COST       6
    X42       A0         1
    X42       G42        1
    X42       B42        1
    X43       COST       7
    X43       A0         1
    X43       G43        1
    X43       B43        1
    X44       COST       7
    X44       A0         1
    X44       G44        1
    X44       B44        1
    X45       COST       8
    X45       A0         1
    X45       G45        1
    X45       B45        1
    X46       COST       3
    X46       A0         1
    X46       G46        1
    X46       B46        1
    X47       COST       6
    X47       A0         1
    X47       G47        1
    X47       B47        1
    X48       COST       3
    X48       A0         1
    X48       G48        1
    X48       B48        1
    X49       COST       7
    X49       A0         1
    X49       G49        1
    X49       B49        1
    X50       COST       6
    X50       A0         1
    X50       G50        1
    X50       B50        1
    X51       COST       7
    X51       A0         1
    X51       G51        1
    X51       B51        1
    X52       COST       6
    X52       A0         1
    X52       G52        1
    X52       B52        1
    X53       COST       5
    X53       A0         1
    X53       G53        1
    X53       B53        1
    X54       COST       3
    X54       A0         1
    X54       G54        1
    X54       B54        1
    X55       COST       6
    X55       A0         1
    X55       G55        1
    X55       B55        1
    X56       COST       6
    X56       A0         1
    X56       G56        1
    X56       B56        1
    X57       COST       3
    X57       A0         1
    X57       G57        1
    X57       B57        1
    X58       COST       3
    X58       A0         1
    X58       G58        1
    X58       B58        1
    X59       COST       8
    X59       A0         1
    X59       G59        1
    X59       B59        1
    X60       COST       7
    X60       A0         1
    X60       G60        1
    X60       B60        1
    X61       COST       3
    X61       A0         1
    X61       G61        1
    X61       B61        1
    X62       COST       4
    X62       A0         1
    X62       G62        1
    X62       B62        1
    X63       COST       4
    X63       A0         1
    X63       G63        1
    X63       B63        1
    X64       COST       4
    X64       A0         1
    X64       G64        1
    X64       B64        1
    X65       COST       6
    X65       A0         1
    X65       G65        1
    X65       B65        1
    X66       COST       5
    X66       A0         1
    X66       G66        1
    X66       B66        1
    X67       COST       5
    X67       A0         1
    X67       G67        1
    X67       B67        1
    X68       COST       5
    X68       A0         1
    X68       G68        1
    X68       B68        1
    X69       COST       5
    X69       A0         1
    X69       G69        1
    X69       B69        1
    X70       COST       6
    X70       A0         1
    X70       G70        1
    X70       B70        1
    X71       COST       8
    X71       A0         1
    X71       G71        1
    X71       B71        1
    X72       COST       6
    X72       A0         1
    X72       G72        1
    X72       B72        1
    X73       COST       6
    X73       A0         1
    X73       G73        1
    X73       B73        1
    X74       COST       5
    X74       A0         1
    X74       G74        1
    X74       B74        1
    X75       COST       3
    X75       A0         1
    X75       G75        1
    X75       B75        1
    X76       COST       5
    X76       A0         1
    X76       G76        1
    X76       B76        1
    X77       COST       6
    X77       A0         1
    X77       G77        1
    X77       B77        1
    X78       COST       5
    X78       A0         1
    X78       G78        1
    X78       B78        1
    X79       COST       7
    X79       A0         1
    X79       G79        1
    X79       B79        1
    X80       COST       5
    X80       A0         1
    X80       G80        1
    X80       B80        1
    X81       COST       5
    X81       A0         1
    X81       G81        1
    X81       B81        1
    X82       COST       5
    X82       A0         1
    X82       G82        1
    X82       B82        1
    X83       COST       6
    X83       A0         1
    X83       G83        1
    X83       B83        1
    X84       COST       5
    X84       A0         1
    X84       G84        1
    X84       B84        1
    X85       COST       6
    X85       A0         1
    X85       G85        1
    X85       B85        1
    X86       COST       4
    X86       A0         1
    X86       G86        1
    X86       B86        1
    X87       COST       7
    X87       A0         1
    X87       G87        1
    X87       B87        1
    X88       COST       6
    X88       A0         1
    X88       G88        1
    X88       B88        1
    X89       COST       7
    X89       A0         1
    X89       G89        1
    X89       B89        1
    X90       COST       4
    X90       A0         1
    X90       G90        1
    X90       B90        1
    X91       COST       6
    X91       A0         1
    X91       G91        1
    X91       B91        1
    X92       COST       4
    X92       A0         1
    X92       G92        1
    X92       B92        1
    X93       COST       5
    X93       A0         1
    X93       G93        1
    X93       B93        1
    X94       COST       4
    X94       A0         1
    X94       G94        1
    X94       B94        1
    X95       COST       4
    X95       A0         1
    X95       G95        1
    X95       B95        1
    X96       COST       6
    X96       A0         1
    X96       G96        1
    X96       B96        1
    X97       COST       5
    X97       A0         1
    X97       G97        1
    X97       B97        1
    X98       COST       7
    X98       A0         1
    X98       G98        1
    X98       B98        1
    X99       COST       5
    X99       A0         1
    X99       G99        1
    X99       B99        1
    X100      COST       7
    X100      A1         1
    X100      G100       1
    X100      B0         1
    X101      COST       3
    X101      A1         1
    X101      G101       1
    X101      B1         1
    X102      COST       7
    X102      A1         1
    X102      G102       1
    X102      B2         1
    X103      COST       6
    X103      A1         1
    X103      G103       1
    X103      B3         1
    X104      COST       5
    X104      A1         1
    X104      G104       1
    X104      B4         1
    X105      COST       7
    X105      A1         1
    X105      G105       1
    X105      B5         1
    X106      COST       4
    X106      A1         1
    X106      G106       1
    X106      B6         1
    X107      COST       7
    X107      A1         1
    X107      G107       1
    X107      B7         1
    X108      COST       7
    X108      A1         1
    X108      G108       1
    X108      B8         1
    X109      COST       3
    X109      A1         1
    X109      G109       1
    X109      B9         1
    X110      COST       6
    X110      A1         1
    X110      G110       1
    X110      B10        1
    X111      COST       7
    X111      A1         1
    X111      G111       1
    X111      B11        1
    X112      COST       3
    X112      A1         1
    X112      G112       1
    X112      B12        1
    X113      COST       6
    X113      A1         1
    X113      G113       1
    X113      B13        1
    X114      COST       8
    X114      A1         1
    X114      G114       1
    X114      B14        1
    X115      COST       4
    X115      A1         1
    X115      G115       1
    X115      B15        1
    X116      COST       8
    X116      A1         1
    X116      G116       1
    X116      B16        1
    X117      COST       3
    X117      A1         1
    X117      G117       1
    X117      B17        1
    X118      COST       8
    X118      A1         1
    X118      G118       1
    X118      B18        1
    X119      COST       5
    X119      A1         1
    X119      G119       1
    X119      B19        1
    X120      COST       8
    X120      A1         1
    X120      G120       1
    X120      B20        1
    X121      COST       3
    X121      A1         1
    X121      G121       1
    X121      B21        1
    X122      COST       8
    X122      A1         1
    X122      G122       1
    X122      B22        1
    X123      COST       6
    X123      A1         1
    X123      G123       1
    X123      B23        1
    X124      COST       4
    X124      A1         1
    X124      G124       1
    X124      B24        1
    X125      COST       8
    X125      A1         1
    X125      G125       1
    X125      B25        1
    X126      COST       8
    X126      A1         1
    X126      G126       1
    X126      B26        1
    X127      COST       6
    X127      A1         1
    X127      G127       1
    X127      B27        1
    X128      COST       7
    X128      A1         1
    X128      G128       1
    X128      B28        1
    X129      COST       3
    X129      A1         1
    X129      G129       1
    X129      B29        1
    X130      COST       4
    X130      A1         1
    X130      G130       1
    X130      B30        1
    X131      COST       4
    X131      A1         1
    X131      G131       1
    X131      B31        1
    X132      COST       8
    X132      A1         1
    X132      G132       1
    X132      B32        1
    X133      COST       4
    X133      A1         1
    X133      G133       1
    X133      B33        1
    X134      COST       3
    X134      A1         1
    X134      G134       1
    X134      B34        1
    X135      COST       7
    X135      A1         1
    X135      G135       1
    X135      B35        1
    X136      COST       8
    X136      A1         1
    X136      G136       1
    X136      B36        1
    X137      COST       3
    X137      A1         1
    X137      G137       1
    X137      B37        1
    X138      COST       7
    X138      A1         1
    X138      G138       1
    X138      B38        1
    X139      COST       3
    X139      A1         1
    X139      G139       1
    X139      B39        1
    X140      COST       8
    X140      A1         1
    X140      G140       1
    X140      B40        1
    X141      COST       3
    X141      A1         1
    X141      G141       1
    X141      B41        1
    X142      COST       4
    X142      A1         1
    X142      G142       1
    X142      B42        1
    X143      COST       4
    X143      A1         1
    X143      G143       1
    X143      B43        1
    X144      COST       4
    X144      A1         1
    X144      G144       1
    X144      B44        1
    X145      COST       3
    X145      A1         1
    X145      G145       1
    X145      B45        1
    X146      COST       7
    X146      A1         1
    X146      G146       1
    X146      B46        1
    X147      COST       7
    X147      A1         1
    X147      G147       1
    X147      B47        1
    X148      COST       3
    X148      A1         1
    X148      G148       1
    X148      B48        1
    X149      COST       4
    X149      A1         1
    X149      G149       1
    X149      B49        1
    X150      COST       5
    X150      A1         1
    X150      G150       1
    X150      B50        1
    X151      COST       5
    X151      A1         1
    X151      G151       1
    X151      B51        1
    X152      COST       6
    X152      A1         1
    X152      G152       1
    X152      B52        1
    X153      COST       7
    X153      A1         1
    X153      G153       1
    X153      B53        1
    X154      COST       5
    X154      A1         1
    X154      G154       1
    X154      B54        1
    X155      COST       6
    X155      A1         1
    X155      G155       1
    X155      B55        1
    X156      COST       6
    X156      A1         1
    X156      G156       1
    X156      B56        1
    X157      COST       4
    X157      A1         1
    X157      G157       1
    X157      B57        1
    X158      COST       3
    X158      A1         1
    X158      G158       1
    X158      B58        1
    X159      COST       7
    X159      A1         1
    X159      G159       1
    X159      B59        1
    X160      COST       7
    X160      A1         1
    X160      G160       1
    X160      B60        1
    X161      COST       7
    X161      A1         1
    X161      G161       1
    X161      B61        1
    X162      COST       5
    X162      A1         1
    X162      G162       1
    X162      B62        1
    X163      COST       8
    X163      A1         1
    X163      G163       1
    X163      B63        1
    X164      COST       5
    X164      A1         1
    X164      G164       1
    X164      B64        1
    X165      COST       7
    X165      A1         1
    X165      G165       1
    X165      B65        1
    X166      COST       6
    X166      A1         1
    X166      G166       1
    X166      B66        1
    X167      COST       8
    X167      A1         1
    X167      G167       1
    X167      B67        1
    X168      COST       5
    X168      A1         1
    X168      G168       1
    X168      B68        1
    X169      COST       5
    X169      A1         1
    X169      G169       1
    X169      B69        1
    X170      COST       8
    X170      A1         1
    X170      G170       1
    X170      B70        1
    X171      COST       6
    X171      A1         1
    X171      G171       1
    X171      B71        1
    X172      COST       3
    X172      A1         1
    X172      G172       1
    X172      B72        1
    X173      COST       6
    X173      A1         1
    X173      G173       1
    X173      B73        1
    X174      COST       6
    X174      A1         1
    X174      G174       1
    X174      B74        1
    X175      COST       7
    X175      A1         1
    X175      G175       1
    X175      B75        1
    X176      COST       7
    X176      A1         1
    X176      G176       1
    X176      B76        1
    X177      COST       7
    X177      A1         1
    X177      G177       1
    X177      B77        1
    X178      COST       6
    X178      A1         1
    X178      G178       1
    X178      B78        1
    X179      COST       5
    X179      A1         1
    X179      G179       1
    X179      B79        1
    X180      COST       4
    X180      A1         1
    X180      G180       1
    X180      B80        1
    X181      COST       4
    X181      A1         1
    X181      G181       1
    X181      B81        1
    X182      COST       7
    X182      A1         1
    X182      G182       1
    X182      B82        1
    X183      COST       5
    X183      A1         1
    X183      G183       1
    X183      B83        1
    X184      COST       4
    X184      A1         1
    X184      G184       1
    X184      B84        1
    X185      COST       5
    X185      A1         1
    X185      G185       1
    X185      B85        1
    X186      COST       5
    X186      A1         1
    X186      G186       1
    X186      B86        1
    X187      COST       4
    X187      A1         1
    X187      G187       1
    X187      B87        1
    X188      COST       4
    X188      A1         1
    X188      G188       1
    X188      B88        1
    X189      COST       6
    X189      A1         1
    X189      G189       1
    X189      B89        1
    X190      COST       4
    X190      A1         1
    X190      G190       1
    X190      B90        1
    X191      COST       7
    X191      A1         1
    X191      G191       1
    X191      B91        1
    X192      COST       6
    X192      A1         1
    X192      G192       1
    X192      B92        1
    X193      COST       6
    X193      A1         1
    X193      G193       1
    X193      B93        1
    X194      COST       7
    X194      A1         1
    X194      G194       1
    X194      B94        1
    X195      COST       7
    X195      A1         1
    X195      G195       1
    X195      B95        1
    X196      COST       4
    X196      A1         1
    X196      G196       1
    X196      B96        1
    X197      COST       4
    X197      A1         1
    X197      G197       1
    X197      B97        1
    X198      COST       5
    X198      A1         1
    X198      G198       1
    X198      B98        1
    X199      COST       4
    X199      A1         1
    X199      G199       1
    X199      B99        1
    X200      COST       6
    X200      A2         1
    X200      G200       1
    X200      B0         1
    X201      COST       6
    X201      A2         1
    X201      G201       1
    X201      B1         1
    X202      COST       3
    X202      A2         1
    X202      G202       1
    X202      B2         1
    X203      COST       8
    X203      A2         1
    X203      G203       1
    X203      B3         1
    X204      COST       3
    X204      A2         1
    X204      G204       1
    X204      B4         1
    X205      COST       3
    X205      A2         1
    X205      G205       1
    X205      B5         1
    X206      COST       6
    X206      A2         1
    X206      G206       1
    X206      B6         1
    X207      COST       8
    X207      A2         1
    X207      G207       1
    X207      B7         1
    X208      COST       7
    X208      A2         1
    X208      G208       1
    X208      B8         1
    X209      COST       4
    X209      A2         1
    X209      G209       1
    X209      B9         1
    X210      COST       3
    X210      A2         1
    X210      G210       1
    X210      B10        1
    X211      COST       3
    X211      A2         1
    X211      G211       1
    X211      B11        1
    X212      COST       6
    X212      A2         1
    X212      G212       1
    X212      B12        1
    X213      COST       6
    X213      A2         1
    X213      G213       1
    X213      B13        1
    X214      COST       6
    X214      A2         1
    X214      G214       1
    X214      B14        1
    X215      COST       3
    X215      A2         1
    X215      G215       1
    X215      B15        1
    X216      COST       6
    X216      A2         1
    X216      G216       1
    X216      B16        1
    X217      COST       6
    X217      A2         1
    X217      G217       1
    X217      B17        1
    X218      COST       6
    X218      A2         1
    X218      G218       1
    X218      B18        1
    X219      COST       3
    X219      A2         1
    X219      G219       1
    X219      B19        1
    X220      COST       6
    X220      A2         1
    X220      G220       1
    X220      B20        1
    X221      COST       8
    X221      A2         1
    X221      G221       1
    X221      B21        1
    X222      COST       3
    X222      A2         1
    X222      G222       1
    X222      B22        1
    X223      COST       4
    X223      A2         1
    X223      G223       1
    X223      B23        1
    X224      COST       6
    X224      A2         1
    X224      G224       1
    X224      B24        1
    X225      COST       8
    X225      A2         1
    X225      G225       1
    X225      B25        1
    X226      COST       8
    X226      A2         1
    X226      G226       1
    X226      B26        1
    X227      COST       4
    X227      A2         1
    X227      G227       1
    X227      B27        1
    X228      COST       4
    X228      A2         1
    X228      G228       1
    X228      B28        1
    X229      COST       4
    X229      A2         1
    X229      G229       1
    X229      B29        1
    X230      COST       8
    X230      A2         1
    X230      G230       1
    X230      B30        1
    X231      COST       7
    X231      A2         1
    X231      G231       1
    X231      B31        1
    X232      COST       3
    X232      A2         1
    X232      G232       1
    X232      B32        1
    X233      COST       8
    X233      A2         1
    X233      G233       1
    X233      B33        1
    X234      COST       8
    X234      A2         1
    X234      G234       1
    X234      B34        1
    X235      COST       3
    X235      A2         1
    X235      G235       1
    X235      B35        1
    X236      COST       4
    X236      A2         1
    X236      G236       1
    X236      B36        1
    X237      COST       5
    X237      A2         1
    X237      G237       1
    X237      B37        1
    X238      COST       4
    X238      A2         1
    X238      G238       1
    X238      B38        1
    X239      COST       7
    X239      A2         1
    X239      G239       1
    X239      B39        1
    X240      COST       3
    X240      A2         1
    X240      G240       1
    X240      B40        1
    X241      COST       7
    X241      A2         1
    X241      G241       1
    X241      B41        1
    X242      COST       5
    X242      A2         1
    X242      G242       1
    X242      B42        1
    X243      COST       7
    X243      A2         1
    X243      G243       1
    X243      B43        1
    X244      COST       6
    X244      A2         1
    X244      G244       1
    X244      B44        1
    X245      COST       3
    X245      A2         1
    X245      G245       1
    X245      B45        1
    X246      COST       6
    X246      A2         1
    X246      G246       1
    X246      B46        1
    X247      COST       4
    X247      A2         1
    X247      G247       1
    X247      B47        1
    X248      COST       8
    X248      A2         1
    X248      G248       1
    X248      B48        1
    X249      COST       4
    X249      A2         1
    X249      G249       1
    X249      B49        1
    X250      COST       4
    X250      A2         1
    X250      G250       1
    X250      B50        1
    X251      COST       5
    X251      A2         1
    X251      G251       1
    X251      B51        1
    X252      COST       8
    X252      A2         1
    X252      G252       1
    X252      B52        1
    X253      COST       5
    X253      A2         1
    X253      G253       1
    X253      B53        1
    X254      COST       5
    X254      A2         1
    X254      G254       1
    X254      B54        1
    X255      COST       6
    X255      A2         1
    X255      G255       1
    X255      B55        1
    X256      COST       3
    X256      A2         1
    X256      G256       1
    X256      B56        1
    X257      COST       4
    X257      A2         1
    X257      G257       1
    X257      B57        1
    X258      COST       7
    X258      A2         1
    X258      G258       1
    X258      B58        1
    X259      COST       4
    X259      A2         1
    X259      G259       1
    X259      B59        1
    X260      COST       8
    X260      A2         1
    X260      G260       1
    X260      B60        1
    X261      COST       5
    X261      A2         1
    X261      G261       1
    X261      B61        1
    X262      COST       8
    X262      A2         1
    X262      G262       1
    X262      B62        1
    X263      COST       6
    X263      A2         1
    X263      G263       1
    X263      B63        1
    X264      COST       6
    X264      A2         1
    X264      G264       1
    X264      B64        1
    X265      COST       3
    X265      A2         1
    X265      G265       1
    X265      B65        1
    X266      COST       8
    X266      A2         1
    X266      G266       1
    X266      B66        1
    X267      COST       6
    X267      A2         1
    X267      G267       1
    X267      B67        1
    X268      COST       3
    X268      A2         1
    X268      G268       1
    X268      B68        1
    X269      COST       8
    X269      A2         1
    X269      G269       1
    X269      B69        1
    X270      COST       6
    X270      A2         1
    X270      G270       1
    X270      B70        1
    X271      COST       6
    X271      A2         1
    X271      G271       1
    X271      B71        1
    X272      COST       3
    X272      A2         1
    X272      G272       1
    X272      B72        1
    X273      COST       7
    X273      A2         1
    X273      G273       1
    X273      B73        1
    X274      COST       7
    X274      A2         1
    X274      G274       1
    X274      B74        1
    X275      COST       4
    X275      A2         1
    X275      G275       1
    X275      B75        1
    X276      COST       6
    X276      A2         1
    X276      G276       1
    X276      B76        1
    X277      COST       4
    X277      A2         1
    X277      G277       1
    X277      B77        1
    X278      COST       7
    X278      A2         1
    X278      G278       1
    X278      B78        1
    X279      COST       4
    X279      A2         1
    X279      G279       1
    X279      B79        1
    X280      COST       5
    X280      A2         1
    X280      G280       1
    X280      B80        1
    X281      COST       4
    X281      A2         1
    X281      G281       1
    X281      B81        1
    X282      COST       4
    X282      A2         1
    X282      G282       1
    X282      B82        1
    X283      COST       7
    X283      A2         1
    X283      G283       1
    X283      B83        1
    X284      COST       7
    X284      A2         1
    X284      G284       1
    X284      B84        1
    X285      COST       6
    X285      A2         1
    X285      G285       1
    X285      B85        1
    X286      COST       5
    X286      A2         1
    X286      G286       1
    X286      B86        1
    X287      COST       6
    X287      A2         1
    X287      G287       1
    X287      B87        1
    X288      COST       4
    X288      A2         1
    X288      G288       1
    X288      B88        1
    X289      COST       7
    X289      A2         1
    X289      G289       1
    X289      B89        1
    X290      COST       8
    X290      A2         1
    X290      G290       1
    X290      B90        1
    X291      COST       4
    X291      A2         1
    X291      G291       1
    X291      B91        1
    X292      COST       5
    X292      A2         1
    X292      G292       1
    X292      B92        1
    X293      COST       6
    X293      A2         1
    X293      G293       1
    X293      B93        1
    X294      COST       4
    X294      A2         1
    X294      G294       1
    X294      B94        1
    X295      COST       6
    X295      A2         1
    X295      G295       1
    X295      B95        1
    X296      COST       4
    X296      A2         1
    X296      G296       1
    X296      B96        1
    X297      COST       5
    X297      A2         1
    X297      G297       1
    X297      B97        1
    X298      COST       6
    X298      A2         1
    X298      G298       1
    X298      B98        1
    X299      COST       4
    X299      A2         1
    X299      G299       1
    X299      B99        1
    X300      COST       8
    X300      A3         1
    X300      G300       1
    X300      B0         1
    X301      COST       7
    X301      A3         1
    X301      G301       1
    X301      B1         1
    X302      COST       6
    X302      A3         1
    X302      G302       1
    X302      B2         1
    X303      COST       6
    X303      A3         1
    X303      G303       1
    X303      B3         1
    X304      COST       5
    X304      A3         1
    X304      G304       1
    X304      B4         1
    X305      COST       4
    X305      A3         1
    X305      G305       1
    X305      B5         1
    X306      COST       5
    X306      A3         1
    X306      G306       1
    X306      B6         1
    X307      COST       7
    X307      A3         1
    X307      G307       1
    X307      B7         1
    X308      COST       3
    X308      A3         1
    X308      G308       1
    X308      B8         1
    X309      COST       6
    X309      A3         1
    X309      G309       1
    X309      B9         1
    X310      COST       3
    X310      A3         1
    X310      G310       1
    X310      B10        1
    X311      COST       6
    X311      A3         1
    X311      G311       1
    X311      B11        1
    X312      COST       5
    X312      A3         1
    X312      G312       1
    X312      B12        1
    X313      COST       6
    X313      A3         1
    X313      G313       1
    X313      B13        1
    X314      COST       5
    X314      A3         1
    X314      G314       1
    X314      B14        1
    X315      COST       8
    X315      A3         1
    X315      G315       1
    X315      B15        1
    X316      COST       7
    X316      A3         1
    X316      G316       1
    X316      B16        1
    X317      COST       8
    X317      A3         1
    X317      G317       1
    X317      B17        1
    X318      COST       4
    X318      A3         1
    X318      G318       1
    X318      B18        1
    X319      COST       8
    X319      A3         1
    X319      G319       1
    X319      B19        1
    X320      COST       6
    X320      A3         1
    X320      G320       1
    X320      B20        1
    X321      COST       8
    X321      A3         1
    X321      G321       1
    X321      B21        1
    X322      COST       5
    X322      A3         1
    X322      G322       1
    X322      B22        1
    X323      COST       6
    X323      A3         1
    X323      G323       1
    X323      B23        1
    X324      COST       5
    X324      A3         1
    X324      G324       1
    X324      B24        1
    X325      COST       4
    X325      A3         1
    X325      G325       1
    X325      B25        1
    X326      COST       8
    X326      A3         1
    X326      G326       1
    X326      B26        1
    X327      COST       8
    X327      A3         1
    X327      G327       1
    X327      B27        1
    X328      COST       3
    X328      A3         1
    X328      G328       1
    X328      B28        1
    X329      COST       8
    X329      A3         1
    X329      G329       1
    X329      B29        1
    X330      COST       3
    X330      A3         1
    X330      G330       1
    X330      B30        1
    X331      COST       8
    X331      A3         1
    X331      G331       1
    X331      B31        1
    X332      COST       8
    X332      A3         1
    X332      G332       1
    X332      B32        1
    X333      COST       7
    X333      A3         1
    X333      G333       1
    X333      B33        1
    X334      COST       3
    X334      A3         1
    X334      G334       1
    X334      B34        1
    X335      COST       4
    X335      A3         1
    X335      G335       1
    X335      B35        1
    X336      COST       7
    X336      A3         1
    X336      G336       1
    X336      B36        1
    X337      COST       7
    X337      A3         1
    X337      G337       1
    X337      B37        1
    X338      COST       4
    X338      A3         1
    X338      G338       1
    X338      B38        1
    X339      COST       3
    X339      A3         1
    X339      G339       1
    X339      B39        1
    X340      COST       8
    X340      A3         1
    X340      G340       1
    X340      B40        1
    X341      COST       4
    X341      A3         1
    X341      G341       1
    X341      B41        1
    X342      COST       7
    X342      A3         1
    X342      G342       1
    X342      B42        1
    X343      COST       8
    X343      A3         1
    X343      G343       1
    X343      B43        1
    X344      COST       3
    X344      A3         1
    X344      G344       1
    X344      B44        1
    X345      COST       5
    X345      A3         1
    X345      G345       1
    X345      B45        1
    X346      COST       3
    X346      A3         1
    X346      G346       1
    X346      B46        1
    X347      COST       3
    X347      A3         1
    X347      G347       1
    X347      B47        1
    X348      COST       3
    X348      A3         1
    X348      G348       1
    X348      B48        1
    X349      COST       8
    X349      A3         1
    X349      G349       1
    X349      B49        1
    X350      COST       4
    X350      A3         1
    X350      G350       1
    X350      B50        1
    X351      COST       3
    X351      A3         1
    X351      G351       1
    X351      B51        1
    X352      COST       4
    X352      A3         1
    X352      G352       1
    X352      B52        1
    X353      COST       6
    X353      A3         1
    X353      G353       1
    X353      B53        1
    X354      COST       6
    X354      A3         1
    X354      G354       1
    X354      B54        1
    X355      COST       6
    X355      A3         1
    X355      G355       1
    X355      B55        1
    X356      COST       5
    X356      A3         1
    X356      G356       1
    X356      B56        1
    X357      COST       8
    X357      A3         1
    X357      G357       1
    X357      B57        1
    X358      COST       7
    X358      A3         1
    X358      G358       1
    X358      B58        1
    X359      COST       5
    X359      A3         1
    X359      G359       1
    X359      B59        1
    X360      COST       8
    X360      A3         1
    X360      G360       1
    X360      B60        1
    X361      COST       5
    X361      A3         1
    X361      G361       1
    X361      B61        1
    X362      COST       6
    X362      A3         1
    X362      G362       1
    X362      B62        1
    X363      COST       8
    X363      A3         1
    X363      G363       1
    X363      B63        1
    X364      COST       6
    X364      A3         1
    X364      G364       1
    X364      B64        1
    X365      COST       3
    X365      A3         1
    X365      G365       1
    X365      B65        1
    X366      COST       3
    X366      A3         1
    X366      G366       1
    X366      B66        1
    X367      COST       8
    X367      A3         1
    X367      G367       1
    X367      B67        1
    X368      COST       5
    X368      A3         1
    X368      G368       1
    X368      B68        1
    X369      COST       6
    X369      A3         1
    X369      G369       1
    X369      B69        1
    X370      COST       7
    X370      A3         1
    X370      G370       1
    X370      B70        1
    X371      COST       6
    X371      A3         1
    X371      G371       1
    X371      B71        1
    X372      COST       7
    X372      A3         1
    X372      G372       1
    X372      B72        1
    X373      COST       4
    X373      A3         1
    X373      G373       1
    X373      B73        1
    X374      COST       7
    X374      A3         1
    X374      G374       1
    X374      B74        1
    X375      COST       7
    X375      A3         1
    X375      G375       1
    X375      B75        1
    X376      COST       7
    X376      A3         1
    X376      G376       1
    X376      B76        1
    X377      COST       5
    X377      A3         1
    X377      G377       1
    X377      B77        1
    X378      COST       7
    X378      A3         1
    X378      G378       1
    X378      B78        1
    X379      COST       7
    X379      A3         1
    X379      G379       1
    X379      B79        1
    X380      COST       6
    X380      A3         1
    X380      G380       1
    X380      B80        1
    X381      COST       7
    X381      A3         1
    X381      G381       1
    X381      B81        1
    X382      COST       6
    X382      A3         1
    X382      G382       1
    X382      B82        1
    X383      COST       6
    X383      A3         1
    X383      G383       1
    X383      B83        1
    X384      COST       6
    X384      A3         1
    X384      G384       1
    X384      B84        1
    X385      COST       7
    X385      A3         1
    X385      G385       1
    X385      B85        1
    X386      COST       7
    X386      A3         1
    X386      G386       1
    X386      B86        1
    X387      COST       7
    X387      A3         1
    X387      G387       1
    X387      B87        1
    X388      COST       4
    X388      A3         1
    X388      G388       1
    X388      B88        1
    X389      COST       4
    X389      A3         1
    X389      G389       1
    X389      B89        1
    X390      COST       7
    X390      A3         1
    X390      G390       1
    X390      B90        1
    X391      COST       5
    X391      A3         1
    X391      G391       1
    X391      B91        1
    X392      COST       4
    X392      A3         1
    X392      G392       1
    X392      B92        1
    X393      COST       4
    X393      A3         1
    X393      G393       1
    X393      B93        1
    X394      COST       6
    X394      A3         1
    X394      G394       1
    X394      B94        1
    X395      COST       4
    X395      A3         1
    X395      G395       1
    X395      B95        1
    X396      COST       6
    X396      A3         1
    X396      G396       1
    X396      B96        1
    X397      COST       6
    X397      A3         1
    X397      G397       1
    X397      B97        1
    X398      COST       7
    X398      A3         1
    X398      G398       1
    X398      B98        1
    X399      COST       6
    X399      A3         1
    X399      G399       1
    X399      B99        1
    X400      COST       3
    X400      A4         1
    X400      G400       1
    X400      B0         1
    X401      COST       4
    X401      A4         1
    X401      G401       1
    X401      B1         1
    X402      COST       5
    X402      A4         1
    X402      G402       1
    X402      B2         1
    X403      COST       3
    X403      A4         1
    X403      G403       1
    X403      B3         1
    X404      COST       5
    X404      A4         1
    X404      G404       1
    X404      B4         1
    X405      COST       3
    X405      A4         1
    X405      G405       1
    X405      B5         1
    X406      COST       3
    X406      A4         1
    X406      G406       1
    X406      B6         1
    X407      COST       5
    X407      A4         1
    X407      G407       1
    X407      B7         1
    X408      COST       3
    X408      A4         1
    X408      G408       1
    X408      B8         1
    X409      COST       4
    X409      A4         1
    X409      G409       1
    X409      B9         1
    X410      COST       6
    X410      A4         1
    X410      G410       1
    X410      B10        1
    X411      COST       4
    X411      A4         1
    X411      G411       1
    X411      B11        1
    X412      COST       5
    X412      A4         1
    X412      G412       1
    X412      B12        1
    X413      COST       3
    X413      A4         1
    X413      G413       1
    X413      B13        1
    X414      COST       6
    X414      A4         1
    X414      G414       1
    X414      B14        1
    X415      COST       6
    X415      A4         1
    X415      G415       1
    X415      B15        1
    X416      COST       6
    X416      A4         1
    X416      G416       1
    X416      B16        1
    X417      COST       7
    X417      A4         1
    X417      G417       1
    X417      B17        1
    X418      COST       8
    X418      A4         1
    X418      G418       1
    X418      B18        1
    X419      COST       5
    X419      A4         1
    X419      G419       1
    X419      B19        1
    X420      COST       3
    X420      A4         1
    X420      G420       1
    X420      B20        1
    X421      COST       6
    X421      A4         1
    X421      G421       1
    X421      B21        1
    X422      COST       5
    X422      A4         1
    X422      G422       1
    X422      B22        1
    X423      COST       8
    X423      A4         1
    X423      G423       1
    X423      B23        1
    X424      COST       3
    X424      A4         1
    X424      G424       1
    X424      B24        1
    X425      COST       4
    X425      A4         1
    X425      G425       1
    X425      B25        1
    X426      COST       3
    X426      A4         1
    X426      G426       1
    X426      B26        1
    X427      COST       8
    X427      A4         1
    X427      G427       1
    X427      B27        1
    X428      COST       4
    X428      A4         1
    X428      G428       1
    X428      B28        1
    X429      COST       8
    X429      A4         1
    X429      G429       1
    X429      B29        1
    X430      COST       3
    X430      A4         1
    X430      G430       1
    X430      B30        1
    X431      COST       3
    X431      A4         1
    X431      G431       1
    X431      B31        1
    X432      COST       8
    X432      A4         1
    X432      G432       1
    X432      B32        1
    X433      COST       7
    X433      A4         1
    X433      G433       1
    X433      B33        1
    X434      COST       7
    X434      A4         1
    X434      G434       1
    X434      B34        1
    X435      COST       8
    X435      A4         1
    X435      G435       1
    X435      B35        1
    X436      COST       7
    X436      A4         1
    X436      G436       1
    X436      B36        1
    X437      COST       3
    X437      A4         1
    X437      G437       1
    X437      B37        1
    X438      COST       3
    X438      A4         1
    X438      G438       1
    X438      B38        1
    X439      COST       3
    X439      A4         1
    X439      G439       1
    X439      B39        1
    X440      COST       7
    X440      A4         1
    X440      G440       1
    X440      B40        1
    X441      COST       7
    X441      A4         1
    X441      G441       1
    X441      B41        1
    X442      COST       3
    X442      A4         1
    X442      G442       1
    X442      B42        1
    X443      COST       7
    X443      A4         1
    X443      G443       1
    X443      B43        1
    X444      COST       3
    X444      A4         1
    X444      G444       1
    X444      B44        1
    X445      COST       3
    X445      A4         1
    X445      G445       1
    X445      B45        1
    X446      COST       3
    X446      A4         1
    X446      G446       1
    X446      B46        1
    X447      COST       7
    X447      A4         1
    X447      G447       1
    X447      B47        1
    X448      COST       4
    X448      A4         1
    X448      G448       1
    X448      B48        1
    X449      COST       5
    X449      A4         1
    X449      G449       1
    X449      B49        1
    X450      COST       6
    X450      A4         1
    X450      G450       1
    X450      B50        1
    X451      COST       7
    X451      A4         1
    X451      G451       1
    X451      B51        1
    X452      COST       3
    X452      A4         1
    X452      G452       1
    X452      B52        1
    X453      COST       6
    X453      A4         1
    X453      G453       1
    X453      B53        1
    X454      COST       8
    X454      A4         1
    X454      G454       1
    X454      B54        1
    X455      COST       5
    X455      A4         1
    X455      G455       1
    X455      B55        1
    X456      COST       4
    X456      A4         1
    X456      G456       1
    X456      B56        1
    X457      COST       6
    X457      A4         1
    X457      G457       1
    X457      B57        1
    X458      COST       5
    X458      A4         1
    X458      G458       1
    X458      B58        1
    X459      COST       3
    X459      A4         1
    X459      G459       1
    X459      B59        1
    X460      COST       6
    X460      A4         1
    X460      G460       1
    X460      B60        1
    X461      COST       4
    X461      A4         1
    X461      G461       1
    X461      B61        1
    X462      COST       6
    X462      A4         1
    X462      G462       1
    X462      B62        1
    X463      COST       3
    X463      A4         1
    X463      G463       1
    X463      B63        1
    X464      COST       5
    X464      A4         1
    X464      G464       1
    X464      B64        1
    X465      COST       8
    X465      A4         1
    X465      G465       1
    X465      B65        1
    X466      COST       5
    X466      A4         1
    X466      G466       1
    X466      B66        1
    X467      COST       6
    X467      A4         1
    X467      G467       1
    X467      B67        1
    X468      COST       6
    X468      A4         1
    X468      G468       1
    X468      B68        1
    X469      COST       5
    X469      A4         1
    X469      G469       1
    X469      B69        1
    X470      COST       5
    X470      A4         1
    X470      G470       1
    X470      B70        1
    X471      COST       3
    X471      A4         1
    X471      G471       1
    X471      B71        1
    X472      COST       8
    X472      A4         1
    X472      G472       1
    X472      B72        1
    X473      COST       6
    X473      A4         1
    X473      G473       1
    X473      B73        1
    X474      COST       8
    X474      A4         1
    X474      G474       1
    X474      B74        1
    X475      COST       6
    X475      A4         1
    X475      G475       1
    X475      B75        1
    X476      COST       6
    X476      A4         1
    X476      G476       1
    X476      B76        1
    X477      COST       6
    X477      A4         1
    X477      G477       1
    X477      B77        1
    X478      COST       4
    X478      A4         1
    X478      G478       1
    X478      B78        1
    X479      COST       7
    X479      A4         1
    X479      G479       1
    X479      B79        1
    X480      COST       6
    X480      A4         1
    X480      G480       1
    X480      B80        1
    X481      COST       7
    X481      A4         1
    X481      G481       1
    X481      B81        1
    X482      COST       6
    X482      A4         1
    X482      G482       1
    X482      B82        1
    X483      COST       4
    X483      A4         1
    X483      G483       1
    X483      B83        1
    X484      COST       4
    X484      A4         1
    X484      G484       1
    X484      B84        1
    X485      COST       6
    X485      A4         1
    X485      G485       1
    X485      B85        1
    X486      COST       5
    X486      A4         1
    X486      G486       1
    X486      B86        1
    X487      COST       5
    X487      A4         1
    X487      G487       1
    X487      B87        1
    X488      COST       4
    X488      A4         1
    X488      G488       1
    X488      B88        1
    X489      COST       6
    X489      A4         1
    X489      G489       1
    X489      B89        1
    X490      COST       6
    X490      A4         1
    X490      G490       1
    X490      B90        1
    X491      COST       6
    X491      A4         1
    X491      G491       1
    X491      B91        1
    X492      COST       6
    X492      A4         1
    X492      G492       1
    X492      B92        1
    X493      COST       6
    X493      A4         1
    X493      G493       1
    X493      B93        1
    X494      COST       7
    X494      A4         1
    X494      G494       1
    X494      B94        1
    X495      COST       5
    X495      A4         1
    X495      G495       1
    X495      B95        1
    X496      COST       5
    X496      A4         1
    X496      G496       1
    X496      B96        1
    X497      COST       5
    X497      A4         1
    X497      G497       1
    X497      B97        1
    X498      COST       5
    X498      A4         1
    X498      G498       1
    X498      B98        1
    X499      COST       5
    X499      A4         1
    X499      G499       1
    X499      B99        1
    X500      COST       8
    X500      A5         1
    X500      G500       1
    X500      B0         1
    X501      COST       4
    X501      A5         1
    X501      G501       1
    X501      B1         1
    X502      COST       8
    X502      A5         1
    X502      G502       1
    X502      B2         1
    X503      COST       8
    X503      A5         1
    X503      G503       1
    X503      B3         1
    X504      COST       5
    X504      A5         1
    X504      G504       1
    X504      B4         1
    X505      COST       3
    X505      A5         1
    X505      G505       1
    X505      B5         1
    X506      COST       6
    X506      A5         1
    X506      G506       1
    X506      B6         1
    X507      COST       3
    X507      A5         1
    X507      G507       1
    X507      B7         1
    X508      COST       4
    X508      A5         1
    X508      G508       1
    X508      B8         1
    X509      COST       8
    X509      A5         1
    X509      G509       1
    X509      B9         1
    X510      COST       7
    X510      A5         1
    X510      G510       1
    X510      B10        1
    X511      COST       7
    X511      A5         1
    X511      G511       1
    X511      B11        1
    X512      COST       5
    X512      A5         1
    X512      G512       1
    X512      B12        1
    X513      COST       3
    X513      A5         1
    X513      G513       1
    X513      B13        1
    X514      COST       7
    X514      A5         1
    X514      G514       1
    X514      B14        1
    X515      COST       8
    X515      A5         1
    X515      G515       1
    X515      B15        1
    X516      COST       8
    X516      A5         1
    X516      G516       1
    X516      B16        1
    X517      COST       8
    X517      A5         1
    X517      G517       1
    X517      B17        1
    X518      COST       3
    X518      A5         1
    X518      G518       1
    X518      B18        1
    X519      COST       5
    X519      A5         1
    X519      G519       1
    X519      B19        1
    X520      COST       6
    X520      A5         1
    X520      G520       1
    X520      B20        1
    X521      COST       3
    X521      A5         1
    X521      G521       1
    X521      B21        1
    X522      COST       8
    X522      A5         1
    X522      G522       1
    X522      B22        1
    X523      COST       4
    X523      A5         1
    X523      G523       1
    X523      B23        1
    X524      COST       4
    X524      A5         1
    X524      G524       1
    X524      B24        1
    X525      COST       7
    X525      A5         1
    X525      G525       1
    X525      B25        1
    X526      COST       8
    X526      A5         1
    X526      G526       1
    X526      B26        1
    X527      COST       8
    X527      A5         1
    X527      G527       1
    X527      B27        1
    X528      COST       7
    X528      A5         1
    X528      G528       1
    X528      B28        1
    X529      COST       8
    X529      A5         1
    X529      G529       1
    X529      B29        1
    X530      COST       4
    X530      A5         1
    X530      G530       1
    X530      B30        1
    X531      COST       7
    X531      A5         1
    X531      G531       1
    X531      B31        1
    X532      COST       3
    X532      A5         1
    X532      G532       1
    X532      B32        1
    X533      COST       8
    X533      A5         1
    X533      G533       1
    X533      B33        1
    X534      COST       8
    X534      A5         1
    X534      G534       1
    X534      B34        1
    X535      COST       7
    X535      A5         1
    X535      G535       1
    X535      B35        1
    X536      COST       8
    X536      A5         1
    X536      G536       1
    X536      B36        1
    X537      COST       6
    X537      A5         1
    X537      G537       1
    X537      B37        1
    X538      COST       5
    X538      A5         1
    X538      G538       1
    X538      B38        1
    X539      COST       7
    X539      A5         1
    X539      G539       1
    X539      B39        1
    X540      COST       4
    X540      A5         1
    X540      G540       1
    X540      B40        1
    X541      COST       8
    X541      A5         1
    X541      G541       1
    X541      B41        1
    X542      COST       5
    X542      A5         1
    X542      G542       1
    X542      B42        1
    X543      COST       6
    X543      A5         1
    X543      G543       1
    X543      B43        1
    X544      COST       7
    X544      A5         1
    X544      G544       1
    X544      B44        1
    X545      COST       8
    X545      A5         1
    X545      G545       1
    X545      B45        1
    X546      COST       6
    X546      A5         1
    X546      G546       1
    X546      B46        1
    X547      COST       5
    X547      A5         1
    X547      G547       1
    X547      B47        1
    X548      COST       5
    X548      A5         1
    X548      G548       1
    X548      B48        1
    X549      COST       8
    X549      A5         1
    X549      G549       1
    X549      B49        1
    X550      COST       8
    X550      A5         1
    X550      G550       1
    X550      B50        1
    X551      COST       6
    X551      A5         1
    X551      G551       1
    X551      B51        1
    X552      COST       3
    X552      A5         1
    X552      G552       1
    X552      B52        1
    X553      COST       7
    X553      A5         1
    X553      G553       1
    X553      B53        1
    X554      COST       4
    X554      A5         1
    X554      G554       1
    X554      B54        1
    X555      COST       5
    X555      A5         1
    X555      G555       1
    X555      B55        1
    X556      COST       8
    X556      A5         1
    X556      G556       1
    X556      B56        1
    X557      COST       6
    X557      A5         1
    X557      G557       1
    X557      B57        1
    X558      COST       6
    X558      A5         1
    X558      G558       1
    X558      B58        1
    X559      COST       6
    X559      A5         1
    X559      G559       1
    X559      B59        1
    X560      COST       3
    X560      A5         1
    X560      G560       1
    X560      B60        1
    X561      COST       5
    X561      A5         1
    X561      G561       1
    X561      B61        1
    X562      COST       3
    X562      A5         1
    X562      G562       1
    X562      B62        1
    X563      COST       5
    X563      A5         1
    X563      G563       1
    X563      B63        1
    X564      COST       3
    X564      A5         1
    X564      G564       1
    X564      B64        1
    X565      COST       3
    X565      A5         1
    X565      G565       1
    X565      B65        1
    X566      COST       5
    X566      A5         1
    X566      G566       1
    X566      B66        1
    X567      COST       8
    X567      A5         1
    X567      G567       1
    X567      B67        1
    X568      COST       6
    X568      A5         1
    X568      G568       1
    X568      B68        1
    X569      COST       6
    X569      A5         1
    X569      G569       1
    X569      B69        1
    X570      COST       5
    X570      A5         1
    X570      G570       1
    X570      B70        1
    X571      COST       8
    X571      A5         1
    X571      G571       1
    X571      B71        1
    X572      COST       8
    X572      A5         1
    X572      G572       1
    X572      B72        1
    X573      COST       5
    X573      A5         1
    X573      G573       1
    X573      B73        1
    X574      COST       6
    X574      A5         1
    X574      G574       1
    X574      B74        1
    X575      COST       6
    X575      A5         1
    X575      G575       1
    X575      B75        1
    X576      COST       4
    X576      A5         1
    X576      G576       1
    X576      B76        1
    X577      COST       6
    X577      A5         1
    X577      G577       1
    X577      B77        1
    X578      COST       5
    X578      A5         1
    X578      G578       1
    X578      B78        1
    X579      COST       5
    X579      A5         1
    X579      G579       1
    X579      B79        1
    X580      COST       6
    X580      A5         1
    X580      G580       1
    X580      B80        1
    X581      COST       7
    X581      A5         1
    X581      G581       1
    X581      B81        1
    X582      COST       7
    X582      A5         1
    X582      G582       1
    X582      B82        1
    X583      COST       5
    X583      A5         1
    X583      G583       1
    X583      B83        1
    X584      COST       5
    X584      A5         1
    X584      G584       1
    X584      B84        1
    X585      COST       4
    X585      A5         1
    X585      G585       1
    X585      B85        1
    X586      COST       7
    X586      A5         1
    X586      G586       1
    X586      B86        1
    X587      COST       6
    X587      A5         1
    X587      G587       1
    X587      B87        1
    X588      COST       7
    X588      A5         1
    X588      G588       1
    X588      B88        1
    X589      COST       6
    X589      A5         1
    X589      G589       1
    X589      B89        1
    X590      COST       4
    X590      A5         1
    X590      G590       1
    X590      B90        1
    X591      COST       6
    X591      A5         1
    X591      G591       1
    X591      B91        1
    X592      COST       4
    X592      A5         1
    X592      G592       1
    X592      B92        1
    X593      COST       7
    X593      A5         1
    X593      G593       1
    X593      B93        1
    X594      COST       6
    X594      A5         1
    X594      G594       1
    X594      B94        1
    X595      COST       4
    X595      A5         1
    X595      G595       1
    X595      B95        1
    X596      COST       4
    X596      A5         1
    X596      G596       1
    X596      B96        1
    X597      COST       7
    X597      A5         1
    X597      G597       1
    X597      B97        1
    X598      COST       4
    X598      A5         1
    X598      G598       1
    X598      B98        1
    X599      COST       5
    X599      A5         1
    X599      G599       1
    X599      B99        1
    X600      COST       5
    X600      A6         1
    X600      G600       1
    X600      B0         1
    X601      COST       3
    X601      A6         1
    X601      G601       1
    X601      B1         1
    X602      COST       7
    X602      A6         1
    X602      G602       1
    X602      B2         1
    X603      COST       3
    X603      A6         1
    X603      G603       1
    X603      B3         1
    X604      COST       5
    X604      A6         1
    X604      G604       1
    X604      B4         1
    X605      COST       3
    X605      A6         1
    X605      G605       1
    X605      B5         1
    X606      COST       7
    X606      A6         1
    X606      G606       1
    X606      B6         1
    X607      COST       7
    X607      A6         1
    X607      G607       1
    X607      B7         1
    X608      COST       8
    X608      A6         1
    X608      G608       1
    X608      B8         1
    X609      COST       8
    X609      A6         1
    X609      G609       1
    X609      B9         1
    X610      COST       7
    X610      A6         1
    X610      G610       1
    X610      B10        1
    X611      COST       3
    X611      A6         1
    X611      G611       1
    X611      B11        1
    X612      COST       3
    X612      A6         1
    X612      G612       1
    X612      B12        1
    X613      COST       7
    X613      A6         1
    X613      G613       1
    X613      B13        1
    X614      COST       3
    X614      A6         1
    X614      G614       1
    X614      B14        1
    X615      COST       5
    X615      A6         1
    X615      G615       1
    X615      B15        1
    X616      COST       8
    X616      A6         1
    X616      G616       1
    X616      B16        1
    X617      COST       6
    X617      A6         1
    X617      G617       1
    X617      B17        1
    X618      COST       5
    X618      A6         1
    X618      G618       1
    X618      B18        1
    X619      COST       8
    X619      A6         1
    X619      G619       1
    X619      B19        1
    X620      COST       6
    X620      A6         1
    X620      G620       1
    X620      B20        1
    X621      COST       6
    X621      A6         1
    X621      G621       1
    X621      B21        1
    X622      COST       3
    X622      A6         1
    X622      G622       1
    X622      B22        1
    X623      COST       3
    X623      A6         1
    X623      G623       1
    X623      B23        1
    X624      COST       8
    X624      A6         1
    X624      G624       1
    X624      B24        1
    X625      COST       5
    X625      A6         1
    X625      G625       1
    X625      B25        1
    X626      COST       5
    X626      A6         1
    X626      G626       1
    X626      B26        1
    X627      COST       5
    X627      A6         1
    X627      G627       1
    X627      B27        1
    X628      COST       4
    X628      A6         1
    X628      G628       1
    X628      B28        1
    X629      COST       4
    X629      A6         1
    X629      G629       1
    X629      B29        1
    X630      COST       8
    X630      A6         1
    X630      G630       1
    X630      B30        1
    X631      COST       8
    X631      A6         1
    X631      G631       1
    X631      B31        1
    X632      COST       6
    X632      A6         1
    X632      G632       1
    X632      B32        1
    X633      COST       6
    X633      A6         1
    X633      G633       1
    X633      B33        1
    X634      COST       8
    X634      A6         1
    X634      G634       1
    X634      B34        1
    X635      COST       6
    X635      A6         1
    X635      G635       1
    X635      B35        1
    X636      COST       4
    X636      A6         1
    X636      G636       1
    X636      B36        1
    X637      COST       4
    X637      A6         1
    X637      G637       1
    X637      B37        1
    X638      COST       7
    X638      A6         1
    X638      G638       1
    X638      B38        1
    X639      COST       5
    X639      A6         1
    X639      G639       1
    X639      B39        1
    X640      COST       7
    X640      A6         1
    X640      G640       1
    X640      B40        1
    X641      COST       8
    X641      A6         1
    X641      G641       1
    X641      B41        1
    X642      COST       7
    X642      A6         1
    X642      G642       1
    X642      B42        1
    X643      COST       8
    X643      A6         1
    X643      G643       1
    X643      B43        1
    X644      COST       7
    X644      A6         1
    X644      G644       1
    X644      B44        1
    X645      COST       7
    X645      A6         1
    X645      G645       1
    X645      B45        1
    X646      COST       3
    X646      A6         1
    X646      G646       1
    X646      B46        1
    X647      COST       8
    X647      A6         1
    X647      G647       1
    X647      B47        1
    X648      COST       8
    X648      A6         1
    X648      G648       1
    X648      B48        1
    X649      COST       8
    X649      A6         1
    X649      G649       1
    X649      B49        1
    X650      COST       4
    X650      A6         1
    X650      G650       1
    X650      B50        1
    X651      COST       4
    X651      A6         1
    X651      G651       1
    X651      B51        1
    X652      COST       8
    X652      A6         1
    X652      G652       1
    X652      B52        1
    X653      COST       8
    X653      A6         1
    X653      G653       1
    X653      B53        1
    X654      COST       8
    X654      A6         1
    X654      G654       1
    X654      B54        1
    X655      COST       7
    X655      A6         1
    X655      G655       1
    X655      B55        1
    X656      COST       3
    X656      A6         1
    X656      G656       1
    X656      B56        1
    X657      COST       5
    X657      A6         1
    X657      G657       1
    X657      B57        1
    X658      COST       7
    X658      A6         1
    X658      G658       1
    X658      B58        1
    X659      COST       3
    X659      A6         1
    X659      G659       1
    X659      B59        1
    X660      COST       6
    X660      A6         1
    X660      G660       1
    X660      B60        1
    X661      COST       5
    X661      A6         1
    X661      G661       1
    X661      B61        1
    X662      COST       6
    X662      A6         1
    X662      G662       1
    X662      B62        1
    X663      COST       7
    X663      A6         1
    X663      G663       1
    X663      B63        1
    X664      COST       3
    X664      A6         1
    X664      G664       1
    X664      B64        1
    X665      COST       3
    X665      A6         1
    X665      G665       1
    X665      B65        1
    X666      COST       7
    X666      A6         1
    X666      G666       1
    X666      B66        1
    X667      COST       7
    X667      A6         1
    X667      G667       1
    X667      B67        1
    X668      COST       6
    X668      A6         1
    X668      G668       1
    X668      B68        1
    X669      COST       4
    X669      A6         1
    X669      G669       1
    X669      B69        1
    X670      COST       6
    X670      A6         1
    X670      G670       1
    X670      B70        1
    X671      COST       8
    X671      A6         1
    X671      G671       1
    X671      B71        1
    X672      COST       8
    X672      A6         1
    X672      G672       1
    X672      B72        1
    X673      COST       6
    X673      A6         1
    X673      G673       1
    X673      B73        1
    X674      COST       6
    X674      A6         1
    X674      G674       1
    X674      B74        1
    X675      COST       5
    X675      A6         1
    X675      G675       1
    X675      B75        1
    X676      COST       7
    X676      A6         1
    X676      G676       1
    X676      B76        1
    X677      COST       4
    X677      A6         1
    X677      G677       1
    X677      B77        1
    X678      COST       5
    X678      A6         1
    X678      G678       1
    X678      B78        1
    X679      COST       6
    X679      A6         1
    X679      G679       1
    X679      B79        1
    X680      COST       4
    X680      A6         1
    X680      G680       1
    X680      B80        1
    X681      COST       4
    X681      A6         1
    X681      G681       1
    X681      B81        1
    X682      COST       4
    X682      A6         1
    X682      G682       1
    X682      B82        1
    X683      COST       4
    X683      A6         1
    X683      G683       1
    X683      B83        1
    X684      COST       7
    X684      A6         1
    X684      G684       1
    X684      B84        1
    X685      COST       4
    X685      A6         1
    X685      G685       1
    X685      B85        1
    X686      COST       5
    X686      A6         1
    X686      G686       1
    X686      B86        1
    X687      COST       5
    X687      A6         1
    X687      G687       1
    X687      B87        1
    X688      COST       5
    X688      A6         1
    X688      G688       1
    X688      B88        1
    X689      COST       4
    X689      A6         1
    X689      G689       1
    X689      B89        1
    X690      COST       5
    X690      A6         1
    X690      G690       1
    X690      B90        1
    X691      COST       7
    X691      A6         1
    X691      G691       1
    X691      B91        1
    X692      COST       6
    X692      A6         1
    X692      G692       1
    X692      B92        1
    X693      COST       3
    X693      A6         1
    X693      G693       1
    X693      B93        1
    X694      COST       7
    X694      A6         1
    X694      G694       1
    X694      B94        1
    X695      COST       6
    X695      A6         1
    X695      G695       1
    X695      B95        1
    X696      COST       7
    X696      A6         1
    X696      G696       1
    X696      B96        1
    X697      COST       6
    X697      A6         1
    X697      G697       1
    X697      B97        1
    X698      COST       7
    X698      A6         1
    X698      G698       1
    X698      B98        1
    X699      COST       6
    X699      A6         1
    X699      G699       1
    X699      B99        1
    X700      COST       3
    X700      A7         1
    X700      G700       1
    X700      B0         1
    X701      COST       8
    X701      A7         1
    X701      G701       1
    X701      B1         1
    X702      COST       4
    X702      A7         1
    X702      G702       1
    X702      B2         1
    X703      COST       8
    X703      A7         1
    X703      G703       1
    X703      B3         1
    X704      COST       7
    X704      A7         1
    X704      G704       1
    X704      B4         1
    X705      COST       8
    X705      A7         1
    X705      G705       1
    X705      B5         1
    X706      COST       3
    X706      A7         1
    X706      G706       1
    X706      B6         1
    X707      COST       3
    X707      A7         1
    X707      G707       1
    X707      B7         1
    X708      COST       3
    X708      A7         1
    X708      G708       1
    X708      B8         1
    X709      COST       3
    X709      A7         1
    X709      G709       1
    X709      B9         1
    X710      COST       8
    X710      A7         1
    X710      G710       1
    X710      B10        1
    X711      COST       3
    X711      A7         1
    X711      G711       1
    X711      B11        1
    X712      COST       5
    X712      A7         1
    X712      G712       1
    X712      B12        1
    X713      COST       3
    X713      A7         1
    X713      G713       1
    X713      B13        1
    X714      COST       3
    X714      A7         1
    X714      G714       1
    X714      B14        1
    X715      COST       4
    X715      A7         1
    X715      G715       1
    X715      B15        1
    X716      COST       6
    X716      A7         1
    X716      G716       1
    X716      B16        1
    X717      COST       3
    X717      A7         1
    X717      G717       1
    X717      B17        1
    X718      COST       3
    X718      A7         1
    X718      G718       1
    X718      B18        1
    X719      COST       4
    X719      A7         1
    X719      G719       1
    X719      B19        1
    X720      COST       3
    X720      A7         1
    X720      G720       1
    X720      B20        1
    X721      COST       8
    X721      A7         1
    X721      G721       1
    X721      B21        1
    X722      COST       8
    X722      A7         1
    X722      G722       1
    X722      B22        1
    X723      COST       7
    X723      A7         1
    X723      G723       1
    X723      B23        1
    X724      COST       3
    X724      A7         1
    X724      G724       1
    X724      B24        1
    X725      COST       4
    X725      A7         1
    X725      G725       1
    X725      B25        1
    X726      COST       8
    X726      A7         1
    X726      G726       1
    X726      B26        1
    X727      COST       7
    X727      A7         1
    X727      G727       1
    X727      B27        1
    X728      COST       4
    X728      A7         1
    X728      G728       1
    X728      B28        1
    X729      COST       3
    X729      A7         1
    X729      G729       1
    X729      B29        1
    X730      COST       8
    X730      A7         1
    X730      G730       1
    X730      B30        1
    X731      COST       7
    X731      A7         1
    X731      G731       1
    X731      B31        1
    X732      COST       8
    X732      A7         1
    X732      G732       1
    X732      B32        1
    X733      COST       7
    X733      A7         1
    X733      G733       1
    X733      B33        1
    X734      COST       8
    X734      A7         1
    X734      G734       1
    X734      B34        1
    X735      COST       8
    X735      A7         1
    X735      G735       1
    X735      B35        1
    X736      COST       3
    X736      A7         1
    X736      G736       1
    X736      B36        1
    X737      COST       3
    X737      A7         1
    X737      G737       1
    X737      B37        1
    X738      COST       4
    X738      A7         1
    X738      G738       1
    X738      B38        1
    X739      COST       4
    X739      A7         1
    X739      G739       1
    X739      B39        1
    X740      COST       7
    X740      A7         1
    X740      G740       1
    X740      B40        1
    X741      COST       4
    X741      A7         1
    X741      G741       1
    X741      B41        1
    X742      COST       4
    X742      A7         1
    X742      G742       1
    X742      B42        1
    X743      COST       7
    X743      A7         1
    X743      G743       1
    X743      B43        1
    X744      COST       3
    X744      A7         1
    X744      G744       1
    X744      B44        1
    X745      COST       5
    X745      A7         1
    X745      G745       1
    X745      B45        1
    X746      COST       8
    X746      A7         1
    X746      G746       1
    X746      B46        1
    X747      COST       8
    X747      A7         1
    X747      G747       1
    X747      B47        1
    X748      COST       6
    X748      A7         1
    X748      G748       1
    X748      B48        1
    X749      COST       6
    X749      A7         1
    X749      G749       1
    X749      B49        1
    X750      COST       7
    X750      A7         1
    X750      G750       1
    X750      B50        1
    X751      COST       5
    X751      A7         1
    X751      G751       1
    X751      B51        1
    X752      COST       7
    X752      A7         1
    X752      G752       1
    X752      B52        1
    X753      COST       4
    X753      A7         1
    X753      G753       1
    X753      B53        1
    X754      COST       5
    X754      A7         1
    X754      G754       1
    X754      B54        1
    X755      COST       6
    X755      A7         1
    X755      G755       1
    X755      B55        1
    X756      COST       6
    X756      A7         1
    X756      G756       1
    X756      B56        1
    X757      COST       4
    X757      A7         1
    X757      G757       1
    X757      B57        1
    X758      COST       6
    X758      A7         1
    X758      G758       1
    X758      B58        1
    X759      COST       5
    X759      A7         1
    X759      G759       1
    X759      B59        1
    X760      COST       8
    X760      A7         1
    X760      G760       1
    X760      B60        1
    X761      COST       8
    X761      A7         1
    X761      G761       1
    X761      B61        1
    X762      COST       6
    X762      A7         1
    X762      G762       1
    X762      B62        1
    X763      COST       3
    X763      A7         1
    X763      G763       1
    X763      B63        1
    X764      COST       4
    X764      A7         1
    X764      G764       1
    X764      B64        1
    X765      COST       5
    X765      A7         1
    X765      G765       1
    X765      B65        1
    X766      COST       7
    X766      A7         1
    X766      G766       1
    X766      B66        1
    X767      COST       6
    X767      A7         1
    X767      G767       1
    X767      B67        1
    X768      COST       6
    X768      A7         1
    X768      G768       1
    X768      B68        1
    X769      COST       6
    X769      A7         1
    X769      G769       1
    X769      B69        1
    X770      COST       5
    X770      A7         1
    X770      G770       1
    X770      B70        1
    X771      COST       6
    X771      A7         1
    X771      G771       1
    X771      B71        1
    X772      COST       5
    X772      A7         1
    X772      G772       1
    X772      B72        1
    X773      COST       8
    X773      A7         1
    X773      G773       1
    X773      B73        1
    X774      COST       8
    X774      A7         1
    X774      G774       1
    X774      B74        1
    X775      COST       3
    X775      A7         1
    X775      G775       1
    X775      B75        1
    X776      COST       8
    X776      A7         1
    X776      G776       1
    X776      B76        1
    X777      COST       8
    X777      A7         1
    X777      G777       1
    X777      B77        1
    X778      COST       7
    X778      A7         1
    X778      G778       1
    X778      B78        1
    X779      COST       3
    X779      A7         1
    X779      G779       1
    X779      B79        1
    X780      COST       4
    X780      A7         1
    X780      G780       1
    X780      B80        1
    X781      COST       6
    X781      A7         1
    X781      G781       1
    X781      B81        1
    X782      COST       7
    X782      A7         1
    X782      G782       1
    X782      B82        1
    X783      COST       4
    X783      A7         1
    X783      G783       1
    X783      B83        1
    X784      COST       5
    X784      A7         1
    X784      G784       1
    X784      B84        1
    X785      COST       6
    X785      A7         1
    X785      G785       1
    X785      B85        1
    X786      COST       5
    X786      A7         1
    X786      G786       1
    X786      B86        1
    X787      COST       5
    X787      A7         1
    X787      G787       1
    X787      B87        1
    X788      COST       5
    X788      A7         1
    X788      G788       1
    X788      B88        1
    X789      COST       6
    X789      A7         1
    X789      G789       1
    X789      B89        1
    X790      COST       5
    X790      A7         1
    X790      G790       1
    X790      B90        1
    X791      COST       6
    X791      A7         1
    X791      G791       1
    X791      B91        1
    X792      COST       6
    X792      A7         1
    X792      G792       1
    X792      B92        1
    X793      COST       4
    X793      A7         1
    X793      G793       1
    X793      B93        1
    X794      COST       7
    X794      A7         1
    X794      G794       1
    X794      B94        1
    X795      COST       7
    X795      A7         1
    X795      G795       1
    X795      B95        1
    X796      COST       4
    X796      A7         1
    X796      G796       1
    X796      B96        1
    X797      COST       5
    X797      A7         1
    X797      G797       1
    X797      B97        1
    X798      COST       7
    X798      A7         1
    X798      G798       1
    X798      B98        1
    X799      COST       3
    X799      A7         1
    X799      G799       1
    X799      B99        1
    X800      COST       6
    X800      A8         1
    X800      G800       1
    X800      B0         1
    X801      COST       8
    X801      A8         1
    X801      G801       1
    X801      B1         1
    X802      COST       8
    X802      A8         1
    X802      G802       1
    X802      B2         1
    X803      COST       6
    X803      A8         1
    X803      G803       1
    X803      B3         1
    X804      COST       5
    X804      A8         1
    X804      G804       1
    X804      B4         1
    X805      COST       8
    X805      A8         1
    X805      G805       1
    X805      B5         1
    X806      COST       8
    X806      A8         1
    X806      G806       1
    X806      B6         1
    X807      COST       8
    X807      A8         1
    X807      G807       1
    X807      B7         1
    X808      COST       8
    X808      A8         1
    X808      G808       1
    X808      B8         1
    X809      COST       8
    X809      A8         1
    X809      G809       1
    X809      B9         1
    X810      COST       8
    X810      A8         1
    X810      G810       1
    X810      B10        1
    X811      COST       3
    X811      A8         1
    X811      G811       1
    X811      B11        1
    X812      COST       4
    X812      A8         1
    X812      G812       1
    X812      B12        1
    X813      COST       6
    X813      A8         1
    X813      G813       1
    X813      B13        1
    X814      COST       8
    X814      A8         1
    X814      G814       1
    X814      B14        1
    X815      COST       4
    X815      A8         1
    X815      G815       1
    X815      B15        1
    X816      COST       3
    X816      A8         1
    X816      G816       1
    X816      B16        1
    X817      COST       3
    X817      A8         1
    X817      G817       1
    X817      B17        1
    X818      COST       8
    X818      A8         1
    X818      G818       1
    X818      B18        1
    X819      COST       7
    X819      A8         1
    X819      G819       1
    X819      B19        1
    X820      COST       3
    X820      A8         1
    X820      G820       1
    X820      B20        1
    X821      COST       4
    X821      A8         1
    X821      G821       1
    X821      B21        1
    X822      COST       5
    X822      A8         1
    X822      G822       1
    X822      B22        1
    X823      COST       6
    X823      A8         1
    X823      G823       1
    X823      B23        1
    X824      COST       5
    X824      A8         1
    X824      G824       1
    X824      B24        1
    X825      COST       3
    X825      A8         1
    X825      G825       1
    X825      B25        1
    X826      COST       4
    X826      A8         1
    X826      G826       1
    X826      B26        1
    X827      COST       7
    X827      A8         1
    X827      G827       1
    X827      B27        1
    X828      COST       4
    X828      A8         1
    X828      G828       1
    X828      B28        1
    X829      COST       3
    X829      A8         1
    X829      G829       1
    X829      B29        1
    X830      COST       3
    X830      A8         1
    X830      G830       1
    X830      B30        1
    X831      COST       7
    X831      A8         1
    X831      G831       1
    X831      B31        1
    X832      COST       7
    X832      A8         1
    X832      G832       1
    X832      B32        1
    X833      COST       4
    X833      A8         1
    X833      G833       1
    X833      B33        1
    X834      COST       7
    X834      A8         1
    X834      G834       1
    X834      B34        1
    X835      COST       3
    X835      A8         1
    X835      G835       1
    X835      B35        1
    X836      COST       4
    X836      A8         1
    X836      G836       1
    X836      B36        1
    X837      COST       4
    X837      A8         1
    X837      G837       1
    X837      B37        1
    X838      COST       7
    X838      A8         1
    X838      G838       1
    X838      B38        1
    X839      COST       8
    X839      A8         1
    X839      G839       1
    X839      B39        1
    X840      COST       3
    X840      A8         1
    X840      G840       1
    X840      B40        1
    X841      COST       7
    X841      A8         1
    X841      G841       1
    X841      B41        1
    X842      COST       7
    X842      A8         1
    X842      G842       1
    X842      B42        1
    X843      COST       8
    X843      A8         1
    X843      G843       1
    X843      B43        1
    X844      COST       5
    X844      A8         1
    X844      G844       1
    X844      B44        1
    X845      COST       4
    X845      A8         1
    X845      G845       1
    X845      B45        1
    X846      COST       5
    X846      A8         1
    X846      G846       1
    X846      B46        1
    X847      COST       7
    X847      A8         1
    X847      G847       1
    X847      B47        1
    X848      COST       5
    X848      A8         1
    X848      G848       1
    X848      B48        1
    X849      COST       6
    X849      A8         1
    X849      G849       1
    X849      B49        1
    X850      COST       5
    X850      A8         1
    X850      G850       1
    X850      B50        1
    X851      COST       3
    X851      A8         1
    X851      G851       1
    X851      B51        1
    X852      COST       6
    X852      A8         1
    X852      G852       1
    X852      B52        1
    X853      COST       4
    X853      A8         1
    X853      G853       1
    X853      B53        1
    X854      COST       3
    X854      A8         1
    X854      G854       1
    X854      B54        1
    X855      COST       7
    X855      A8         1
    X855      G855       1
    X855      B55        1
    X856      COST       5
    X856      A8         1
    X856      G856       1
    X856      B56        1
    X857      COST       7
    X857      A8         1
    X857      G857       1
    X857      B57        1
    X858      COST       5
    X858      A8         1
    X858      G858       1
    X858      B58        1
    X859      COST       6
    X859      A8         1
    X859      G859       1
    X859      B59        1
    X860      COST       6
    X860      A8         1
    X860      G860       1
    X860      B60        1
    X861      COST       6
    X861      A8         1
    X861      G861       1
    X861      B61        1
    X862      COST       5
    X862      A8         1
    X862      G862       1
    X862      B62        1
    X863      COST       3
    X863      A8         1
    X863      G863       1
    X863      B63        1
    X864      COST       5
    X864      A8         1
    X864      G864       1
    X864      B64        1
    X865      COST       8
    X865      A8         1
    X865      G865       1
    X865      B65        1
    X866      COST       8
    X866      A8         1
    X866      G866       1
    X866      B66        1
    X867      COST       3
    X867      A8         1
    X867      G867       1
    X867      B67        1
    X868      COST       3
    X868      A8         1
    X868      G868       1
    X868      B68        1
    X869      COST       6
    X869      A8         1
    X869      G869       1
    X869      B69        1
    X870      COST       6
    X870      A8         1
    X870      G870       1
    X870      B70        1
    X871      COST       5
    X871      A8         1
    X871      G871       1
    X871      B71        1
    X872      COST       5
    X872      A8         1
    X872      G872       1
    X872      B72        1
    X873      COST       8
    X873      A8         1
    X873      G873       1
    X873      B73        1
    X874      COST       5
    X874      A8         1
    X874      G874       1
    X874      B74        1
    X875      COST       4
    X875      A8         1
    X875      G875       1
    X875      B75        1
    X876      COST       5
    X876      A8         1
    X876      G876       1
    X876      B76        1
    X877      COST       5
    X877      A8         1
    X877      G877       1
    X877      B77        1
    X878      COST       7
    X878      A8         1
    X878      G878       1
    X878      B78        1
    X879      COST       5
    X879      A8         1
    X879      G879       1
    X879      B79        1
    X880      COST       5
    X880      A8         1
    X880      G880       1
    X880      B80        1
    X881      COST       6
    X881      A8         1
    X881      G881       1
    X881      B81        1
    X882      COST       6
    X882      A8         1
    X882      G882       1
    X882      B82        1
    X883      COST       4
    X883      A8         1
    X883      G883       1
    X883      B83        1
    X884      COST       4
    X884      A8         1
    X884      G884       1
    X884      B84        1
    X885      COST       7
    X885      A8         1
    X885      G885       1
    X885      B85        1
    X886      COST       8
    X886      A8         1
    X886      G886       1
    X886      B86        1
    X887      COST       6
    X887      A8         1
    X887      G887       1
    X887      B87        1
    X888      COST       6
    X888      A8         1
    X888      G888       1
    X888      B88        1
    X889      COST       4
    X889      A8         1
    X889      G889       1
    X889      B89        1
    X890      COST       6
    X890      A8         1
    X890      G890       1
    X890      B90        1
    X891      COST       5
    X891      A8         1
    X891      G891       1
    X891      B91        1
    X892      COST       5
    X892      A8         1
    X892      G892       1
    X892      B92        1
    X893      COST       5
    X893      A8         1
    X893      G893       1
    X893      B93        1
    X894      COST       5
    X894      A8         1
    X894      G894       1
    X894      B94        1
    X895      COST       6
    X895      A8         1
    X895      G895       1
    X895      B95        1
    X896      COST       6
    X896      A8         1
    X896      G896       1
    X896      B96        1
    X897      COST       6
    X897      A8         1
    X897      G897       1
    X897      B97        1
    X898      COST       6
    X898      A8         1
    X898      G898       1
    X898      B98        1
    X899      COST       4
    X899      A8         1
    X899      G899       1
    X899      B99        1
    X900      COST       7
    X900      A9         1
    X900      G900       1
    X900      B0         1
    X901      COST       4
    X901      A9         1
    X901      G901       1
    X901      B1         1
    X902      COST       6
    X902      A9         1
    X902      G902       1
    X902      B2         1
    X903      COST       8
    X903      A9         1
    X903      G903       1
    X903      B3         1
    X904      COST       7
    X904      A9         1
    X904      G904       1
    X904      B4         1
    X905      COST       3
    X905      A9         1
    X905      G905       1
    X905      B5         1
    X906      COST       4
    X906      A9         1
    X906      G906       1
    X906      B6         1
    X907      COST       7
    X907      A9         1
    X907      G907       1
    X907      B7         1
    X908      COST       4
    X908      A9         1
    X908      G908       1
    X908      B8         1
    X909      COST       3
    X909      A9         1
    X909      G909       1
    X909      B9         1
    X910      COST       8
    X910      A9         1
    X910      G910       1
    X910      B10        1
    X911      COST       8
    X911      A9         1
    X911      G911       1
    X911      B11        1
    X912      COST       6
    X912      A9         1
    X912      G912       1
    X912      B12        1
    X913      COST       3
    X913      A9         1
    X913      G913       1
    X913      B13        1
    X914      COST       6
    X914      A9         1
    X914      G914       1
    X914      B14        1
    X915      COST       5
    X915      A9         1
    X915      G915       1
    X915      B15        1
    X916      COST       8
    X916      A9         1
    X916      G916       1
    X916      B16        1
    X917      COST       3
    X917      A9         1
    X917      G917       1
    X917      B17        1
    X918      COST       4
    X918      A9         1
    X918      G918       1
    X918      B18        1
    X919      COST       7
    X919      A9         1
    X919      G919       1
    X919      B19        1
    X920      COST       8
    X920      A9         1
    X920      G920       1
    X920      B20        1
    X921      COST       3
    X921      A9         1
    X921      G921       1
    X921      B21        1
    X922      COST       4
    X922      A9         1
    X922      G922       1
    X922      B22        1
    X923      COST       7
    X923      A9         1
    X923      G923       1
    X923      B23        1
    X924      COST       3
    X924      A9         1
    X924      G924       1
    X924      B24        1
    X925      COST       7
    X925      A9         1
    X925      G925       1
    X925      B25        1
    X926      COST       7
    X926      A9         1
    X926      G926       1
    X926      B26        1
    X927      COST       4
    X927      A9         1
    X927      G927       1
    X927      B27        1
    X928      COST       3
    X928      A9         1
    X928      G928       1
    X928      B28        1
    X929      COST       8
    X929      A9         1
    X929      G929       1
    X929      B29        1
    X930      COST       8
    X930      A9         1
    X930      G930       1
    X930      B30        1
    X931      COST       7
    X931      A9         1
    X931      G931       1
    X931      B31        1
    X932      COST       8
    X932      A9         1
    X932      G932       1
    X932      B32        1
    X933      COST       7
    X933      A9         1
    X933      G933       1
    X933      B33        1
    X934      COST       3
    X934      A9         1
    X934      G934       1
    X934      B34        1
    X935      COST       7
    X935      A9         1
    X935      G935       1
    X935      B35        1
    X936      COST       3
    X936      A9         1
    X936      G936       1
    X936      B36        1
    X937      COST       7
    X937      A9         1
    X937      G937       1
    X937      B37        1
    X938      COST       4
    X938      A9         1
    X938      G938       1
    X938      B38        1
    X939      COST       8
    X939      A9         1
    X939      G939       1
    X939      B39        1
    X940      COST       7
    X940      A9         1
    X940      G940       1
    X940      B40        1
    X941      COST       6
    X941      A9         1
    X941      G941       1
    X941      B41        1
    X942      COST       7
    X942      A9         1
    X942      G942       1
    X942      B42        1
    X943      COST       5
    X943      A9         1
    X943      G943       1
    X943      B43        1
    X944      COST       5
    X944      A9         1
    X944      G944       1
    X944      B44        1
    X945      COST       5
    X945      A9         1
    X945      G945       1
    X945      B45        1
    X946      COST       8
    X946      A9         1
    X946      G946       1
    X946      B46        1
    X947      COST       3
    X947      A9         1
    X947      G947       1
    X947      B47        1
    X948      COST       6
    X948      A9         1
    X948      G948       1
    X948      B48        1
    X949      COST       4
    X949      A9         1
    X949      G949       1
    X949      B49        1
    X950      COST       8
    X950      A9         1
    X950      G950       1
    X950      B50        1
    X951      COST       5
    X951      A9         1
    X951      G951       1
    X951      B51        1
    X952      COST       5
    X952      A9         1
    X952      G952       1
    X952      B52        1
    X953      COST       6
    X953      A9         1
    X953      G953       1
    X953      B53        1
    X954      COST       6
    X954      A9         1
    X954      G954       1
    X954      B54        1
    X955      COST       6
    X955      A9         1
    X955      G955       1
    X955      B55        1
    X956      COST       6
    X956      A9         1
    X956      G956       1
    X956      B56        1
    X957      COST       5
    X957      A9         1
    X957      G957       1
    X957      B57        1
    X958      COST       5
    X958      A9         1
    X958      G958       1
    X958      B58        1
    X959      COST       4
    X959      A9         1
    X959      G959       1
    X959      B59        1
    X960      COST       5
    X960      A9         1
    X960      G960       1
    X960      B60        1
    X961      COST       5
    X961      A9         1
    X961      G961       1
    X961      B61        1
    X962      COST       3
    X962      A9         1
    X962      G962       1
    X962      B62        1
    X963      COST       6
    X963      A9         1
    X963      G963       1
    X963      B63        1
    X964      COST       8
    X964      A9         1
    X964      G964       1
    X964      B64        1
    X965      COST       5
    X965      A9         1
    X965      G965       1
    X965      B65        1
    X966      COST       6
    X966      A9         1
    X966      G966       1
    X966      B66        1
    X967      COST       5
    X967      A9         1
    X967      G967       1
    X967      B67        1
    X968      COST       6
    X968      A9         1
    X968      G968       1
    X968      B68        1
    X969      COST       5
    X969      A9         1
    X969      G969       1
    X969      B69        1
    X970      COST       5
    X970      A9         1
    X970      G970       1
    X970      B70        1
    X971      COST       4
    X971      A9         1
    X971      G971       1
    X971      B71        1
    X972      COST       4
    X972      A9         1
    X972      G972       1
    X972      B72        1
    X973      COST       6
    X973      A9         1
    X973      G973       1
    X973      B73        1
    X974      COST       4
    X974      A9         1
    X974      G974       1
    X974      B74        1
    X975      COST       4
    X975      A9         1
    X975      G975       1
    X975      B75        1
    X976      COST       6
    X976      A9         1
    X976      G976       1
    X976      B76        1
    X977      COST       7
    X977      A9         1
    X977      G977       1
    X977      B77        1
    X978      COST       7
    X978      A9         1
    X978      G978       1
    X978      B78        1
    X979      COST       5
    X979      A9         1
    X979      G979       1
    X979      B79        1
    X980      COST       5
    X980      A9         1
    X980      G980       1
    X980      B80        1
    X981      COST       3
    X981      A9         1
    X981      G981       1
    X981      B81        1
    X982      COST       4
    X982      A9         1
    X982      G982       1
    X982      B82        1
    X983      COST       5
    X983      A9         1
    X983      G983       1
    X983      B83        1
    X984      COST       4
    X984      A9         1
    X984      G984       1
    X984      B84        1
    X985      COST       4
    X985      A9         1
    X985      G985       1
    X985      B85        1
    X986      COST       4
    X986      A9         1
    X986      G986       1
    X986      B86        1
    X987      COST       4
    X987      A9         1
    X987      G987       1
    X987      B87        1
    X988      COST       6
    X988      A9         1
    X988      G988       1
    X988      B88        1
    X989      COST       7
    X989      A9         1
    X989      G989       1
    X989      B89        1
    X990      COST       5
    X990      A9         1
    X990      G990       1
    X990      B90        1
    X991      COST       7
    X991      A9         1
    X991      G991       1
    X991      B91        1
    X992      COST       5
    X992      A9         1
    X992      G992       1
    X992      B92        1
    X993      COST       7
    X993      A9         1
    X993      G993       1
    X993      B93        1
    X994      COST       5
    X994      A9         1
    X994      G994       1
    X994      B94        1
    X995      COST       5
    X995      A9         1
    X995      G995       1
    X995      B95        1
    X996      COST       6
    X996      A9         1
    X996      G996       1
    X996      B96        1
    X997      COST       4
    X997      A9         1
    X997      G997       1
    X997      B97        1
    X998      COST       4
    X998      A9         1
    X998      G998       1
    X998      B98        1
    X999      COST       5
    X999      A9         1
    X999      G999       1
    X999      B99        1
    X1000     COST       5
    X1000     A10        1
    X1000     G1000      1
    X1000     B0         1
    X1001     COST       8
    X1001     A10        1
    X1001     G1001      1
    X1001     B1         1
    X1002     COST       3
    X1002     A10        1
    X1002     G1002      1
    X1002     B2         1
    X1003     COST       6
    X1003     A10        1
    X1003     G1003      1
    X1003     B3         1
    X1004     COST       8
    X1004     A10        1
    X1004     G1004      1
    X1004     B4         1
    X1005     COST       8
    X1005     A10        1
    X1005     G1005      1
    X1005     B5         1
    X1006     COST       4
    X1006     A10        1
    X1006     G1006      1
    X1006     B6         1
    X1007     COST       5
    X1007     A10        1
    X1007     G1007      1
    X1007     B7         1
    X1008     COST       7
    X1008     A10        1
    X1008     G1008      1
    X1008     B8         1
    X1009     COST       3
    X1009     A10        1
    X1009     G1009      1
    X1009     B9         1
    X1010     COST       8
    X1010     A10        1
    X1010     G1010      1
    X1010     B10        1
    X1011     COST       6
    X1011     A10        1
    X1011     G1011      1
    X1011     B11        1
    X1012     COST       8
    X1012     A10        1
    X1012     G1012      1
    X1012     B12        1
    X1013     COST       6
    X1013     A10        1
    X1013     G1013      1
    X1013     B13        1
    X1014     COST       5
    X1014     A10        1
    X1014     G1014      1
    X1014     B14        1
    X1015     COST       8
    X1015     A10        1
    X1015     G1015      1
    X1015     B15        1
    X1016     COST       8
    X1016     A10        1
    X1016     G1016      1
    X1016     B16        1
    X1017     COST       5
    X1017     A10        1
    X1017     G1017      1
    X1017     B17        1
    X1018     COST       6
    X1018     A10        1
    X1018     G1018      1
    X1018     B18        1
    X1019     COST       5
    X1019     A10        1
    X1019     G1019      1
    X1019     B19        1
    X1020     COST       8
    X1020     A10        1
    X1020     G1020      1
    X1020     B20        1
    X1021     COST       7
    X1021     A10        1
    X1021     G1021      1
    X1021     B21        1
    X1022     COST       5
    X1022     A10        1
    X1022     G1022      1
    X1022     B22        1
    X1023     COST       3
    X1023     A10        1
    X1023     G1023      1
    X1023     B23        1
    X1024     COST       5
    X1024     A10        1
    X1024     G1024      1
    X1024     B24        1
    X1025     COST       8
    X1025     A10        1
    X1025     G1025      1
    X1025     B25        1
    X1026     COST       7
    X1026     A10        1
    X1026     G1026      1
    X1026     B26        1
    X1027     COST       8
    X1027     A10        1
    X1027     G1027      1
    X1027     B27        1
    X1028     COST       8
    X1028     A10        1
    X1028     G1028      1
    X1028     B28        1
    X1029     COST       4
    X1029     A10        1
    X1029     G1029      1
    X1029     B29        1
    X1030     COST       7
    X1030     A10        1
    X1030     G1030      1
    X1030     B30        1
    X1031     COST       7
    X1031     A10        1
    X1031     G1031      1
    X1031     B31        1
    X1032     COST       8
    X1032     A10        1
    X1032     G1032      1
    X1032     B32        1
    X1033     COST       3
    X1033     A10        1
    X1033     G1033      1
    X1033     B33        1
    X1034     COST       7
    X1034     A10        1
    X1034     G1034      1
    X1034     B34        1
    X1035     COST       7
    X1035     A10        1
    X1035     G1035      1
    X1035     B35        1
    X1036     COST       3
    X1036     A10        1
    X1036     G1036      1
    X1036     B36        1
    X1037     COST       7
    X1037     A10        1
    X1037     G1037      1
    X1037     B37        1
    X1038     COST       4
    X1038     A10        1
    X1038     G1038      1
    X1038     B38        1
    X1039     COST       4
    X1039     A10        1
    X1039     G1039      1
    X1039     B39        1
    X1040     COST       3
    X1040     A10        1
    X1040     G1040      1
    X1040     B40        1
    X1041     COST       4
    X1041     A10        1
    X1041     G1041      1
    X1041     B41        1
    X1042     COST       8
    X1042     A10        1
    X1042     G1042      1
    X1042     B42        1
    X1043     COST       8
    X1043     A10        1
    X1043     G1043      1
    X1043     B43        1
    X1044     COST       7
    X1044     A10        1
    X1044     G1044      1
    X1044     B44        1
    X1045     COST       3
    X1045     A10        1
    X1045     G1045      1
    X1045     B45        1
    X1046     COST       7
    X1046     A10        1
    X1046     G1046      1
    X1046     B46        1
    X1047     COST       8
    X1047     A10        1
    X1047     G1047      1
    X1047     B47        1
    X1048     COST       6
    X1048     A10        1
    X1048     G1048      1
    X1048     B48        1
    X1049     COST       3
    X1049     A10        1
    X1049     G1049      1
    X1049     B49        1
    X1050     COST       5
    X1050     A10        1
    X1050     G1050      1
    X1050     B50        1
    X1051     COST       6
    X1051     A10        1
    X1051     G1051      1
    X1051     B51        1
    X1052     COST       6
    X1052     A10        1
    X1052     G1052      1
    X1052     B52        1
    X1053     COST       3
    X1053     A10        1
    X1053     G1053      1
    X1053     B53        1
    X1054     COST       6
    X1054     A10        1
    X1054     G1054      1
    X1054     B54        1
    X1055     COST       3
    X1055     A10        1
    X1055     G1055      1
    X1055     B55        1
    X1056     COST       3
    X1056     A10        1
    X1056     G1056      1
    X1056     B56        1
    X1057     COST       7
    X1057     A10        1
    X1057     G1057      1
    X1057     B57        1
    X1058     COST       7
    X1058     A10        1
    X1058     G1058      1
    X1058     B58        1
    X1059     COST       5
    X1059     A10        1
    X1059     G1059      1
    X1059     B59        1
    X1060     COST       3
    X1060     A10        1
    X1060     G1060      1
    X1060     B60        1
    X1061     COST       3
    X1061     A10        1
    X1061     G1061      1
    X1061     B61        1
    X1062     COST       3
    X1062     A10        1
    X1062     G1062      1
    X1062     B62        1
    X1063     COST       5
    X1063     A10        1
    X1063     G1063      1
    X1063     B63        1
    X1064     COST       6
    X1064     A10        1
    X1064     G1064      1
    X1064     B64        1
    X1065     COST       5
    X1065     A10        1
    X1065     G1065      1
    X1065     B65        1
    X1066     COST       8
    X1066     A10        1
    X1066     G1066      1
    X1066     B66        1
    X1067     COST       5
    X1067     A10        1
    X1067     G1067      1
    X1067     B67        1
    X1068     COST       4
    X1068     A10        1
    X1068     G1068      1
    X1068     B68        1
    X1069     COST       5
    X1069     A10        1
    X1069     G1069      1
    X1069     B69        1
    X1070     COST       8
    X1070     A10        1
    X1070     G1070      1
    X1070     B70        1
    X1071     COST       3
    X1071     A10        1
    X1071     G1071      1
    X1071     B71        1
    X1072     COST       5
    X1072     A10        1
    X1072     G1072      1
    X1072     B72        1
    X1073     COST       7
    X1073     A10        1
    X1073     G1073      1
    X1073     B73        1
    X1074     COST       6
    X1074     A10        1
    X1074     G1074      1
    X1074     B74        1
    X1075     COST       5
    X1075     A10        1
    X1075     G1075      1
    X1075     B75        1
    X1076     COST       3
    X1076     A10        1
    X1076     G1076      1
    X1076     B76        1
    X1077     COST       5
    X1077     A10        1
    X1077     G1077      1
    X1077     B77        1
    X1078     COST       5
    X1078     A10        1
    X1078     G1078      1
    X1078     B78        1
    X1079     COST       5
    X1079     A10        1
    X1079     G1079      1
    X1079     B79        1
    X1080     COST       6
    X1080     A10        1
    X1080     G1080      1
    X1080     B80        1
    X1081     COST       8
    X1081     A10        1
    X1081     G1081      1
    X1081     B81        1
    X1082     COST       3
    X1082     A10        1
    X1082     G1082      1
    X1082     B82        1
    X1083     COST       4
    X1083     A10        1
    X1083     G1083      1
    X1083     B83        1
    X1084     COST       3
    X1084     A10        1
    X1084     G1084      1
    X1084     B84        1
    X1085     COST       4
    X1085     A10        1
    X1085     G1085      1
    X1085     B85        1
    X1086     COST       4
    X1086     A10        1
    X1086     G1086      1
    X1086     B86        1
    X1087     COST       7
    X1087     A10        1
    X1087     G1087      1
    X1087     B87        1
    X1088     COST       6
    X1088     A10        1
    X1088     G1088      1
    X1088     B88        1
    X1089     COST       4
    X1089     A10        1
    X1089     G1089      1
    X1089     B89        1
    X1090     COST       5
    X1090     A10        1
    X1090     G1090      1
    X1090     B90        1
    X1091     COST       7
    X1091     A10        1
    X1091     G1091      1
    X1091     B91        1
    X1092     COST       5
    X1092     A10        1
    X1092     G1092      1
    X1092     B92        1
    X1093     COST       4
    X1093     A10        1
    X1093     G1093      1
    X1093     B93        1
    X1094     COST       5
    X1094     A10        1
    X1094     G1094      1
    X1094     B94        1
    X1095     COST       7
    X1095     A10        1
    X1095     G1095      1
    X1095     B95        1
    X1096     COST       4
    X1096     A10        1
    X1096     G1096      1
    X1096     B96        1
    X1097     COST       4
    X1097     A10        1
    X1097     G1097      1
    X1097     B97        1
    X1098     COST       4
    X1098     A10        1
    X1098     G1098      1
    X1098     B98        1
    X1099     COST       5
    X1099     A10        1
    X1099     G1099      1
    X1099     B99        1
    X1100     COST       8
    X1100     A11        1
    X1100     G1100      1
    X1100     B0         1
    X1101     COST       7
    X1101     A11        1
    X1101     G1101      1
    X1101     B1         1
    X1102     COST       8
    X1102     A11        1
    X1102     G1102      1
    X1102     B2         1
    X1103     COST       6
    X1103     A11        1
    X1103     G1103      1
    X1103     B3         1
    X1104     COST       3
    X1104     A11        1
    X1104     G1104      1
    X1104     B4         1
    X1105     COST       5
    X1105     A11        1
    X1105     G1105      1
    X1105     B5         1
    X1106     COST       8
    X1106     A11        1
    X1106     G1106      1
    X1106     B6         1
    X1107     COST       7
    X1107     A11        1
    X1107     G1107      1
    X1107     B7         1
    X1108     COST       4
    X1108     A11        1
    X1108     G1108      1
    X1108     B8         1
    X1109     COST       3
    X1109     A11        1
    X1109     G1109      1
    X1109     B9         1
    X1110     COST       8
    X1110     A11        1
    X1110     G1110      1
    X1110     B10        1
    X1111     COST       5
    X1111     A11        1
    X1111     G1111      1
    X1111     B11        1
    X1112     COST       8
    X1112     A11        1
    X1112     G1112      1
    X1112     B12        1
    X1113     COST       3
    X1113     A11        1
    X1113     G1113      1
    X1113     B13        1
    X1114     COST       5
    X1114     A11        1
    X1114     G1114      1
    X1114     B14        1
    X1115     COST       7
    X1115     A11        1
    X1115     G1115      1
    X1115     B15        1
    X1116     COST       4
    X1116     A11        1
    X1116     G1116      1
    X1116     B16        1
    X1117     COST       3
    X1117     A11        1
    X1117     G1117      1
    X1117     B17        1
    X1118     COST       8
    X1118     A11        1
    X1118     G1118      1
    X1118     B18        1
    X1119     COST       8
    X1119     A11        1
    X1119     G1119      1
    X1119     B19        1
    X1120     COST       8
    X1120     A11        1
    X1120     G1120      1
    X1120     B20        1
    X1121     COST       8
    X1121     A11        1
    X1121     G1121      1
    X1121     B21        1
    X1122     COST       6
    X1122     A11        1
    X1122     G1122      1
    X1122     B22        1
    X1123     COST       4
    X1123     A11        1
    X1123     G1123      1
    X1123     B23        1
    X1124     COST       4
    X1124     A11        1
    X1124     G1124      1
    X1124     B24        1
    X1125     COST       3
    X1125     A11        1
    X1125     G1125      1
    X1125     B25        1
    X1126     COST       8
    X1126     A11        1
    X1126     G1126      1
    X1126     B26        1
    X1127     COST       3
    X1127     A11        1
    X1127     G1127      1
    X1127     B27        1
    X1128     COST       8
    X1128     A11        1
    X1128     G1128      1
    X1128     B28        1
    X1129     COST       7
    X1129     A11        1
    X1129     G1129      1
    X1129     B29        1
    X1130     COST       7
    X1130     A11        1
    X1130     G1130      1
    X1130     B30        1
    X1131     COST       4
    X1131     A11        1
    X1131     G1131      1
    X1131     B31        1
    X1132     COST       8
    X1132     A11        1
    X1132     G1132      1
    X1132     B32        1
    X1133     COST       3
    X1133     A11        1
    X1133     G1133      1
    X1133     B33        1
    X1134     COST       8
    X1134     A11        1
    X1134     G1134      1
    X1134     B34        1
    X1135     COST       7
    X1135     A11        1
    X1135     G1135      1
    X1135     B35        1
    X1136     COST       3
    X1136     A11        1
    X1136     G1136      1
    X1136     B36        1
    X1137     COST       7
    X1137     A11        1
    X1137     G1137      1
    X1137     B37        1
    X1138     COST       3
    X1138     A11        1
    X1138     G1138      1
    X1138     B38        1
    X1139     COST       7
    X1139     A11        1
    X1139     G1139      1
    X1139     B39        1
    X1140     COST       8
    X1140     A11        1
    X1140     G1140      1
    X1140     B40        1
    X1141     COST       8
    X1141     A11        1
    X1141     G1141      1
    X1141     B41        1
    X1142     COST       4
    X1142     A11        1
    X1142     G1142      1
    X1142     B42        1
    X1143     COST       7
    X1143     A11        1
    X1143     G1143      1
    X1143     B43        1
    X1144     COST       8
    X1144     A11        1
    X1144     G1144      1
    X1144     B44        1
    X1145     COST       4
    X1145     A11        1
    X1145     G1145      1
    X1145     B45        1
    X1146     COST       7
    X1146     A11        1
    X1146     G1146      1
    X1146     B46        1
    X1147     COST       3
    X1147     A11        1
    X1147     G1147      1
    X1147     B47        1
    X1148     COST       7
    X1148     A11        1
    X1148     G1148      1
    X1148     B48        1
    X1149     COST       4
    X1149     A11        1
    X1149     G1149      1
    X1149     B49        1
    X1150     COST       6
    X1150     A11        1
    X1150     G1150      1
    X1150     B50        1
    X1151     COST       5
    X1151     A11        1
    X1151     G1151      1
    X1151     B51        1
    X1152     COST       5
    X1152     A11        1
    X1152     G1152      1
    X1152     B52        1
    X1153     COST       6
    X1153     A11        1
    X1153     G1153      1
    X1153     B53        1
    X1154     COST       8
    X1154     A11        1
    X1154     G1154      1
    X1154     B54        1
    X1155     COST       5
    X1155     A11        1
    X1155     G1155      1
    X1155     B55        1
    X1156     COST       8
    X1156     A11        1
    X1156     G1156      1
    X1156     B56        1
    X1157     COST       4
    X1157     A11        1
    X1157     G1157      1
    X1157     B57        1
    X1158     COST       6
    X1158     A11        1
    X1158     G1158      1
    X1158     B58        1
    X1159     COST       8
    X1159     A11        1
    X1159     G1159      1
    X1159     B59        1
    X1160     COST       5
    X1160     A11        1
    X1160     G1160      1
    X1160     B60        1
    X1161     COST       4
    X1161     A11        1
    X1161     G1161      1
    X1161     B61        1
    X1162     COST       5
    X1162     A11        1
    X1162     G1162      1
    X1162     B62        1
    X1163     COST       8
    X1163     A11        1
    X1163     G1163      1
    X1163     B63        1
    X1164     COST       3
    X1164     A11        1
    X1164     G1164      1
    X1164     B64        1
    X1165     COST       5
    X1165     A11        1
    X1165     G1165      1
    X1165     B65        1
    X1166     COST       6
    X1166     A11        1
    X1166     G1166      1
    X1166     B66        1
    X1167     COST       6
    X1167     A11        1
    X1167     G1167      1
    X1167     B67        1
    X1168     COST       6
    X1168     A11        1
    X1168     G1168      1
    X1168     B68        1
    X1169     COST       6
    X1169     A11        1
    X1169     G1169      1
    X1169     B69        1
    X1170     COST       8
    X1170     A11        1
    X1170     G1170      1
    X1170     B70        1
    X1171     COST       8
    X1171     A11        1
    X1171     G1171      1
    X1171     B71        1
    X1172     COST       3
    X1172     A11        1
    X1172     G1172      1
    X1172     B72        1
    X1173     COST       5
    X1173     A11        1
    X1173     G1173      1
    X1173     B73        1
    X1174     COST       4
    X1174     A11        1
    X1174     G1174      1
    X1174     B74        1
    X1175     COST       6
    X1175     A11        1
    X1175     G1175      1
    X1175     B75        1
    X1176     COST       7
    X1176     A11        1
    X1176     G1176      1
    X1176     B76        1
    X1177     COST       8
    X1177     A11        1
    X1177     G1177      1
    X1177     B77        1
    X1178     COST       6
    X1178     A11        1
    X1178     G1178      1
    X1178     B78        1
    X1179     COST       5
    X1179     A11        1
    X1179     G1179      1
    X1179     B79        1
    X1180     COST       3
    X1180     A11        1
    X1180     G1180      1
    X1180     B80        1
    X1181     COST       4
    X1181     A11        1
    X1181     G1181      1
    X1181     B81        1
    X1182     COST       5
    X1182     A11        1
    X1182     G1182      1
    X1182     B82        1
    X1183     COST       5
    X1183     A11        1
    X1183     G1183      1
    X1183     B83        1
    X1184     COST       7
    X1184     A11        1
    X1184     G1184      1
    X1184     B84        1
    X1185     COST       6
    X1185     A11        1
    X1185     G1185      1
    X1185     B85        1
    X1186     COST       5
    X1186     A11        1
    X1186     G1186      1
    X1186     B86        1
    X1187     COST       4
    X1187     A11        1
    X1187     G1187      1
    X1187     B87        1
    X1188     COST       4
    X1188     A11        1
    X1188     G1188      1
    X1188     B88        1
    X1189     COST       6
    X1189     A11        1
    X1189     G1189      1
    X1189     B89        1
    X1190     COST       7
    X1190     A11        1
    X1190     G1190      1
    X1190     B90        1
    X1191     COST       6
    X1191     A11        1
    X1191     G1191      1
    X1191     B91        1
    X1192     COST       5
    X1192     A11        1
    X1192     G1192      1
    X1192     B92        1
    X1193     COST       6
    X1193     A11        1
    X1193     G1193      1
    X1193     B93        1
    X1194     COST       4
    X1194     A11        1
    X1194     G1194      1
    X1194     B94        1
    X1195     COST       3
    X1195     A11        1
    X1195     G1195      1
    X1195     B95        1
    X1196     COST       6
    X1196     A11        1
    X1196     G1196      1
    X1196     B96        1
    X1197     COST       5
    X1197     A11        1
    X1197     G1197      1
    X1197     B97        1
    X1198     COST       5
    X1198     A11        1
    X1198     G1198      1
    X1198     B98        1
    X1199     COST       6
    X1199     A11        1
    X1199     G1199      1
    X1199     B99        1
    X1200     COST       7
    X1200     A12        1
    X1200     G1200      1
    X1200     B0         1
    X1201     COST       5
    X1201     A12        1
    X1201     G1201      1
    X1201     B1         1
    X1202     COST       8
    X1202     A12        1
    X1202     G1202      1
    X1202     B2         1
    X1203     COST       4
    X1203     A12        1
    X1203     G1203      1
    X1203     B3         1
    X1204     COST       3
    X1204     A12        1
    X1204     G1204      1
    X1204     B4         1
    X1205     COST       6
    X1205     A12        1
    X1205     G1205      1
    X1205     B5         1
    X1206     COST       8
    X1206     A12        1
    X1206     G1206      1
    X1206     B6         1
    X1207     COST       8
    X1207     A12        1
    X1207     G1207      1
    X1207     B7         1
    X1208     COST       4
    X1208     A12        1
    X1208     G1208      1
    X1208     B8         1
    X1209     COST       6
    X1209     A12        1
    X1209     G1209      1
    X1209     B9         1
    X1210     COST       8
    X1210     A12        1
    X1210     G1210      1
    X1210     B10        1
    X1211     COST       6
    X1211     A12        1
    X1211     G1211      1
    X1211     B11        1
    X1212     COST       8
    X1212     A12        1
    X1212     G1212      1
    X1212     B12        1
    X1213     COST       5
    X1213     A12        1
    X1213     G1213      1
    X1213     B13        1
    X1214     COST       8
    X1214     A12        1
    X1214     G1214      1
    X1214     B14        1
    X1215     COST       7
    X1215     A12        1
    X1215     G1215      1
    X1215     B15        1
    X1216     COST       7
    X1216     A12        1
    X1216     G1216      1
    X1216     B16        1
    X1217     COST       5
    X1217     A12        1
    X1217     G1217      1
    X1217     B17        1
    X1218     COST       5
    X1218     A12        1
    X1218     G1218      1
    X1218     B18        1
    X1219     COST       3
    X1219     A12        1
    X1219     G1219      1
    X1219     B19        1
    X1220     COST       4
    X1220     A12        1
    X1220     G1220      1
    X1220     B20        1
    X1221     COST       8
    X1221     A12        1
    X1221     G1221      1
    X1221     B21        1
    X1222     COST       7
    X1222     A12        1
    X1222     G1222      1
    X1222     B22        1
    X1223     COST       3
    X1223     A12        1
    X1223     G1223      1
    X1223     B23        1
    X1224     COST       4
    X1224     A12        1
    X1224     G1224      1
    X1224     B24        1
    X1225     COST       8
    X1225     A12        1
    X1225     G1225      1
    X1225     B25        1
    X1226     COST       4
    X1226     A12        1
    X1226     G1226      1
    X1226     B26        1
    X1227     COST       3
    X1227     A12        1
    X1227     G1227      1
    X1227     B27        1
    X1228     COST       7
    X1228     A12        1
    X1228     G1228      1
    X1228     B28        1
    X1229     COST       4
    X1229     A12        1
    X1229     G1229      1
    X1229     B29        1
    X1230     COST       5
    X1230     A12        1
    X1230     G1230      1
    X1230     B30        1
    X1231     COST       3
    X1231     A12        1
    X1231     G1231      1
    X1231     B31        1
    X1232     COST       8
    X1232     A12        1
    X1232     G1232      1
    X1232     B32        1
    X1233     COST       7
    X1233     A12        1
    X1233     G1233      1
    X1233     B33        1
    X1234     COST       4
    X1234     A12        1
    X1234     G1234      1
    X1234     B34        1
    X1235     COST       4
    X1235     A12        1
    X1235     G1235      1
    X1235     B35        1
    X1236     COST       8
    X1236     A12        1
    X1236     G1236      1
    X1236     B36        1
    X1237     COST       8
    X1237     A12        1
    X1237     G1237      1
    X1237     B37        1
    X1238     COST       8
    X1238     A12        1
    X1238     G1238      1
    X1238     B38        1
    X1239     COST       4
    X1239     A12        1
    X1239     G1239      1
    X1239     B39        1
    X1240     COST       7
    X1240     A12        1
    X1240     G1240      1
    X1240     B40        1
    X1241     COST       3
    X1241     A12        1
    X1241     G1241      1
    X1241     B41        1
    X1242     COST       7
    X1242     A12        1
    X1242     G1242      1
    X1242     B42        1
    X1243     COST       7
    X1243     A12        1
    X1243     G1243      1
    X1243     B43        1
    X1244     COST       3
    X1244     A12        1
    X1244     G1244      1
    X1244     B44        1
    X1245     COST       6
    X1245     A12        1
    X1245     G1245      1
    X1245     B45        1
    X1246     COST       8
    X1246     A12        1
    X1246     G1246      1
    X1246     B46        1
    X1247     COST       3
    X1247     A12        1
    X1247     G1247      1
    X1247     B47        1
    X1248     COST       8
    X1248     A12        1
    X1248     G1248      1
    X1248     B48        1
    X1249     COST       3
    X1249     A12        1
    X1249     G1249      1
    X1249     B49        1
    X1250     COST       5
    X1250     A12        1
    X1250     G1250      1
    X1250     B50        1
    X1251     COST       4
    X1251     A12        1
    X1251     G1251      1
    X1251     B51        1
    X1252     COST       4
    X1252     A12        1
    X1252     G1252      1
    X1252     B52        1
    X1253     COST       3
    X1253     A12        1
    X1253     G1253      1
    X1253     B53        1
    X1254     COST       6
    X1254     A12        1
    X1254     G1254      1
    X1254     B54        1
    X1255     COST       4
    X1255     A12        1
    X1255     G1255      1
    X1255     B55        1
    X1256     COST       5
    X1256     A12        1
    X1256     G1256      1
    X1256     B56        1
    X1257     COST       3
    X1257     A12        1
    X1257     G1257      1
    X1257     B57        1
    X1258     COST       8
    X1258     A12        1
    X1258     G1258      1
    X1258     B58        1
    X1259     COST       4
    X1259     A12        1
    X1259     G1259      1
    X1259     B59        1
    X1260     COST       7
    X1260     A12        1
    X1260     G1260      1
    X1260     B60        1
    X1261     COST       7
    X1261     A12        1
    X1261     G1261      1
    X1261     B61        1
    X1262     COST       8
    X1262     A12        1
    X1262     G1262      1
    X1262     B62        1
    X1263     COST       6
    X1263     A12        1
    X1263     G1263      1
    X1263     B63        1
    X1264     COST       6
    X1264     A12        1
    X1264     G1264      1
    X1264     B64        1
    X1265     COST       8
    X1265     A12        1
    X1265     G1265      1
    X1265     B65        1
    X1266     COST       8
    X1266     A12        1
    X1266     G1266      1
    X1266     B66        1
    X1267     COST       8
    X1267     A12        1
    X1267     G1267      1
    X1267     B67        1
    X1268     COST       4
    X1268     A12        1
    X1268     G1268      1
    X1268     B68        1
    X1269     COST       8
    X1269     A12        1
    X1269     G1269      1
    X1269     B69        1
    X1270     COST       7
    X1270     A12        1
    X1270     G1270      1
    X1270     B70        1
    X1271     COST       5
    X1271     A12        1
    X1271     G1271      1
    X1271     B71        1
    X1272     COST       6
    X1272     A12        1
    X1272     G1272      1
    X1272     B72        1
    X1273     COST       5
    X1273     A12        1
    X1273     G1273      1
    X1273     B73        1
    X1274     COST       6
    X1274     A12        1
    X1274     G1274      1
    X1274     B74        1
    X1275     COST       6
    X1275     A12        1
    X1275     G1275      1
    X1275     B75        1
    X1276     COST       7
    X1276     A12        1
    X1276     G1276      1
    X1276     B76        1
    X1277     COST       4
    X1277     A12        1
    X1277     G1277      1
    X1277     B77        1
    X1278     COST       4
    X1278     A12        1
    X1278     G1278      1
    X1278     B78        1
    X1279     COST       7
    X1279     A12        1
    X1279     G1279      1
    X1279     B79        1
    X1280     COST       4
    X1280     A12        1
    X1280     G1280      1
    X1280     B80        1
    X1281     COST       5
    X1281     A12        1
    X1281     G1281      1
    X1281     B81        1
    X1282     COST       5
    X1282     A12        1
    X1282     G1282      1
    X1282     B82        1
    X1283     COST       7
    X1283     A12        1
    X1283     G1283      1
    X1283     B83        1
    X1284     COST       5
    X1284     A12        1
    X1284     G1284      1
    X1284     B84        1
    X1285     COST       7
    X1285     A12        1
    X1285     G1285      1
    X1285     B85        1
    X1286     COST       4
    X1286     A12        1
    X1286     G1286      1
    X1286     B86        1
    X1287     COST       4
    X1287     A12        1
    X1287     G1287      1
    X1287     B87        1
    X1288     COST       5
    X1288     A12        1
    X1288     G1288      1
    X1288     B88        1
    X1289     COST       5
    X1289     A12        1
    X1289     G1289      1
    X1289     B89        1
    X1290     COST       7
    X1290     A12        1
    X1290     G1290      1
    X1290     B90        1
    X1291     COST       6
    X1291     A12        1
    X1291     G1291      1
    X1291     B91        1
    X1292     COST       6
    X1292     A12        1
    X1292     G1292      1
    X1292     B92        1
    X1293     COST       5
    X1293     A12        1
    X1293     G1293      1
    X1293     B93        1
    X1294     COST       4
    X1294     A12        1
    X1294     G1294      1
    X1294     B94        1
    X1295     COST       4
    X1295     A12        1
    X1295     G1295      1
    X1295     B95        1
    X1296     COST       6
    X1296     A12        1
    X1296     G1296      1
    X1296     B96        1
    X1297     COST       6
    X1297     A12        1
    X1297     G1297      1
    X1297     B97        1
    X1298     COST       7
    X1298     A12        1
    X1298     G1298      1
    X1298     B98        1
    X1299     COST       5
    X1299     A12        1
    X1299     G1299      1
    X1299     B99        1
    X1300     COST       3
    X1300     A13        1
    X1300     G1300      1
    X1300     B0         1
    X1301     COST       4
    X1301     A13        1
    X1301     G1301      1
    X1301     B1         1
    X1302     COST       5
    X1302     A13        1
    X1302     G1302      1
    X1302     B2         1
    X1303     COST       4
    X1303     A13        1
    X1303     G1303      1
    X1303     B3         1
    X1304     COST       6
    X1304     A13        1
    X1304     G1304      1
    X1304     B4         1
    X1305     COST       3
    X1305     A13        1
    X1305     G1305      1
    X1305     B5         1
    X1306     COST       3
    X1306     A13        1
    X1306     G1306      1
    X1306     B6         1
    X1307     COST       3
    X1307     A13        1
    X1307     G1307      1
    X1307     B7         1
    X1308     COST       8
    X1308     A13        1
    X1308     G1308      1
    X1308     B8         1
    X1309     COST       8
    X1309     A13        1
    X1309     G1309      1
    X1309     B9         1
    X1310     COST       3
    X1310     A13        1
    X1310     G1310      1
    X1310     B10        1
    X1311     COST       8
    X1311     A13        1
    X1311     G1311      1
    X1311     B11        1
    X1312     COST       7
    X1312     A13        1
    X1312     G1312      1
    X1312     B12        1
    X1313     COST       3
    X1313     A13        1
    X1313     G1313      1
    X1313     B13        1
    X1314     COST       8
    X1314     A13        1
    X1314     G1314      1
    X1314     B14        1
    X1315     COST       3
    X1315     A13        1
    X1315     G1315      1
    X1315     B15        1
    X1316     COST       3
    X1316     A13        1
    X1316     G1316      1
    X1316     B16        1
    X1317     COST       5
    X1317     A13        1
    X1317     G1317      1
    X1317     B17        1
    X1318     COST       6
    X1318     A13        1
    X1318     G1318      1
    X1318     B18        1
    X1319     COST       8
    X1319     A13        1
    X1319     G1319      1
    X1319     B19        1
    X1320     COST       6
    X1320     A13        1
    X1320     G1320      1
    X1320     B20        1
    X1321     COST       7
    X1321     A13        1
    X1321     G1321      1
    X1321     B21        1
    X1322     COST       7
    X1322     A13        1
    X1322     G1322      1
    X1322     B22        1
    X1323     COST       4
    X1323     A13        1
    X1323     G1323      1
    X1323     B23        1
    X1324     COST       8
    X1324     A13        1
    X1324     G1324      1
    X1324     B24        1
    X1325     COST       8
    X1325     A13        1
    X1325     G1325      1
    X1325     B25        1
    X1326     COST       3
    X1326     A13        1
    X1326     G1326      1
    X1326     B26        1
    X1327     COST       4
    X1327     A13        1
    X1327     G1327      1
    X1327     B27        1
    X1328     COST       7
    X1328     A13        1
    X1328     G1328      1
    X1328     B28        1
    X1329     COST       4
    X1329     A13        1
    X1329     G1329      1
    X1329     B29        1
    X1330     COST       3
    X1330     A13        1
    X1330     G1330      1
    X1330     B30        1
    X1331     COST       3
    X1331     A13        1
    X1331     G1331      1
    X1331     B31        1
    X1332     COST       3
    X1332     A13        1
    X1332     G1332      1
    X1332     B32        1
    X1333     COST       3
    X1333     A13        1
    X1333     G1333      1
    X1333     B33        1
    X1334     COST       4
    X1334     A13        1
    X1334     G1334      1
    X1334     B34        1
    X1335     COST       7
    X1335     A13        1
    X1335     G1335      1
    X1335     B35        1
    X1336     COST       4
    X1336     A13        1
    X1336     G1336      1
    X1336     B36        1
    X1337     COST       3
    X1337     A13        1
    X1337     G1337      1
    X1337     B37        1
    X1338     COST       4
    X1338     A13        1
    X1338     G1338      1
    X1338     B38        1
    X1339     COST       5
    X1339     A13        1
    X1339     G1339      1
    X1339     B39        1
    X1340     COST       3
    X1340     A13        1
    X1340     G1340      1
    X1340     B40        1
    X1341     COST       7
    X1341     A13        1
    X1341     G1341      1
    X1341     B41        1
    X1342     COST       7
    X1342     A13        1
    X1342     G1342      1
    X1342     B42        1
    X1343     COST       7
    X1343     A13        1
    X1343     G1343      1
    X1343     B43        1
    X1344     COST       4
    X1344     A13        1
    X1344     G1344      1
    X1344     B44        1
    X1345     COST       8
    X1345     A13        1
    X1345     G1345      1
    X1345     B45        1
    X1346     COST       4
    X1346     A13        1
    X1346     G1346      1
    X1346     B46        1
    X1347     COST       3
    X1347     A13        1
    X1347     G1347      1
    X1347     B47        1
    X1348     COST       5
    X1348     A13        1
    X1348     G1348      1
    X1348     B48        1
    X1349     COST       3
    X1349     A13        1
    X1349     G1349      1
    X1349     B49        1
    X1350     COST       5
    X1350     A13        1
    X1350     G1350      1
    X1350     B50        1
    X1351     COST       6
    X1351     A13        1
    X1351     G1351      1
    X1351     B51        1
    X1352     COST       5
    X1352     A13        1
    X1352     G1352      1
    X1352     B52        1
    X1353     COST       7
    X1353     A13        1
    X1353     G1353      1
    X1353     B53        1
    X1354     COST       5
    X1354     A13        1
    X1354     G1354      1
    X1354     B54        1
    X1355     COST       3
    X1355     A13        1
    X1355     G1355      1
    X1355     B55        1
    X1356     COST       7
    X1356     A13        1
    X1356     G1356      1
    X1356     B56        1
    X1357     COST       5
    X1357     A13        1
    X1357     G1357      1
    X1357     B57        1
    X1358     COST       5
    X1358     A13        1
    X1358     G1358      1
    X1358     B58        1
    X1359     COST       3
    X1359     A13        1
    X1359     G1359      1
    X1359     B59        1
    X1360     COST       8
    X1360     A13        1
    X1360     G1360      1
    X1360     B60        1
    X1361     COST       6
    X1361     A13        1
    X1361     G1361      1
    X1361     B61        1
    X1362     COST       5
    X1362     A13        1
    X1362     G1362      1
    X1362     B62        1
    X1363     COST       5
    X1363     A13        1
    X1363     G1363      1
    X1363     B63        1
    X1364     COST       6
    X1364     A13        1
    X1364     G1364      1
    X1364     B64        1
    X1365     COST       5
    X1365     A13        1
    X1365     G1365      1
    X1365     B65        1
    X1366     COST       3
    X1366     A13        1
    X1366     G1366      1
    X1366     B66        1
    X1367     COST       4
    X1367     A13        1
    X1367     G1367      1
    X1367     B67        1
    X1368     COST       6
    X1368     A13        1
    X1368     G1368      1
    X1368     B68        1
    X1369     COST       5
    X1369     A13        1
    X1369     G1369      1
    X1369     B69        1
    X1370     COST       5
    X1370     A13        1
    X1370     G1370      1
    X1370     B70        1
    X1371     COST       5
    X1371     A13        1
    X1371     G1371      1
    X1371     B71        1
    X1372     COST       5
    X1372     A13        1
    X1372     G1372      1
    X1372     B72        1
    X1373     COST       5
    X1373     A13        1
    X1373     G1373      1
    X1373     B73        1
    X1374     COST       4
    X1374     A13        1
    X1374     G1374      1
    X1374     B74        1
    X1375     COST       6
    X1375     A13        1
    X1375     G1375      1
    X1375     B75        1
    X1376     COST       5
    X1376     A13        1
    X1376     G1376      1
    X1376     B76        1
    X1377     COST       6
    X1377     A13        1
    X1377     G1377      1
    X1377     B77        1
    X1378     COST       6
    X1378     A13        1
    X1378     G1378      1
    X1378     B78        1
    X1379     COST       6
    X1379     A13        1
    X1379     G1379      1
    X1379     B79        1
    X1380     COST       5
    X1380     A13        1
    X1380     G1380      1
    X1380     B80        1
    X1381     COST       6
    X1381     A13        1
    X1381     G1381      1
    X1381     B81        1
    X1382     COST       4
    X1382     A13        1
    X1382     G1382      1
    X1382     B82        1
    X1383     COST       7
    X1383     A13        1
    X1383     G1383      1
    X1383     B83        1
    X1384     COST       6
    X1384     A13        1
    X1384     G1384      1
    X1384     B84        1
    X1385     COST       5
    X1385     A13        1
    X1385     G1385      1
    X1385     B85        1
    X1386     COST       6
    X1386     A13        1
    X1386     G1386      1
    X1386     B86        1
    X1387     COST       6
    X1387     A13        1
    X1387     G1387      1
    X1387     B87        1
    X1388     COST       5
    X1388     A13        1
    X1388     G1388      1
    X1388     B88        1
    X1389     COST       5
    X1389     A13        1
    X1389     G1389      1
    X1389     B89        1
    X1390     COST       5
    X1390     A13        1
    X1390     G1390      1
    X1390     B90        1
    X1391     COST       5
    X1391     A13        1
    X1391     G1391      1
    X1391     B91        1
    X1392     COST       7
    X1392     A13        1
    X1392     G1392      1
    X1392     B92        1
    X1393     COST       7
    X1393     A13        1
    X1393     G1393      1
    X1393     B93        1
    X1394     COST       5
    X1394     A13        1
    X1394     G1394      1
    X1394     B94        1
    X1395     COST       6
    X1395     A13        1
    X1395     G1395      1
    X1395     B95        1
    X1396     COST       8
    X1396     A13        1
    X1396     G1396      1
    X1396     B96        1
    X1397     COST       7
    X1397     A13        1
    X1397     G1397      1
    X1397     B97        1
    X1398     COST       7
    X1398     A13        1
    X1398     G1398      1
    X1398     B98        1
    X1399     COST       3
    X1399     A13        1
    X1399     G1399      1
    X1399     B99        1
    X1400     COST       3
    X1400     A14        1
    X1400     G1400      1
    X1400     B0         1
    X1401     COST       7
    X1401     A14        1
    X1401     G1401      1
    X1401     B1         1
    X1402     COST       5
    X1402     A14        1
    X1402     G1402      1
    X1402     B2         1
    X1403     COST       6
    X1403     A14        1
    X1403     G1403      1
    X1403     B3         1
    X1404     COST       4
    X1404     A14        1
    X1404     G1404      1
    X1404     B4         1
    X1405     COST       5
    X1405     A14        1
    X1405     G1405      1
    X1405     B5         1
    X1406     COST       6
    X1406     A14        1
    X1406     G1406      1
    X1406     B6         1
    X1407     COST       4
    X1407     A14        1
    X1407     G1407      1
    X1407     B7         1
    X1408     COST       3
    X1408     A14        1
    X1408     G1408      1
    X1408     B8         1
    X1409     COST       7
    X1409     A14        1
    X1409     G1409      1
    X1409     B9         1
    X1410     COST       6
    X1410     A14        1
    X1410     G1410      1
    X1410     B10        1
    X1411     COST       5
    X1411     A14        1
    X1411     G1411      1
    X1411     B11        1
    X1412     COST       6
    X1412     A14        1
    X1412     G1412      1
    X1412     B12        1
    X1413     COST       3
    X1413     A14        1
    X1413     G1413      1
    X1413     B13        1
    X1414     COST       3
    X1414     A14        1
    X1414     G1414      1
    X1414     B14        1
    X1415     COST       3
    X1415     A14        1
    X1415     G1415      1
    X1415     B15        1
    X1416     COST       3
    X1416     A14        1
    X1416     G1416      1
    X1416     B16        1
    X1417     COST       7
    X1417     A14        1
    X1417     G1417      1
    X1417     B17        1
    X1418     COST       5
    X1418     A14        1
    X1418     G1418      1
    X1418     B18        1
    X1419     COST       8
    X1419     A14        1
    X1419     G1419      1
    X1419     B19        1
    X1420     COST       8
    X1420     A14        1
    X1420     G1420      1
    X1420     B20        1
    X1421     COST       5
    X1421     A14        1
    X1421     G1421      1
    X1421     B21        1
    X1422     COST       7
    X1422     A14        1
    X1422     G1422      1
    X1422     B22        1
    X1423     COST       7
    X1423     A14        1
    X1423     G1423      1
    X1423     B23        1
    X1424     COST       7
    X1424     A14        1
    X1424     G1424      1
    X1424     B24        1
    X1425     COST       5
    X1425     A14        1
    X1425     G1425      1
    X1425     B25        1
    X1426     COST       4
    X1426     A14        1
    X1426     G1426      1
    X1426     B26        1
    X1427     COST       8
    X1427     A14        1
    X1427     G1427      1
    X1427     B27        1
    X1428     COST       8
    X1428     A14        1
    X1428     G1428      1
    X1428     B28        1
    X1429     COST       8
    X1429     A14        1
    X1429     G1429      1
    X1429     B29        1
    X1430     COST       3
    X1430     A14        1
    X1430     G1430      1
    X1430     B30        1
    X1431     COST       7
    X1431     A14        1
    X1431     G1431      1
    X1431     B31        1
    X1432     COST       7
    X1432     A14        1
    X1432     G1432      1
    X1432     B32        1
    X1433     COST       4
    X1433     A14        1
    X1433     G1433      1
    X1433     B33        1
    X1434     COST       7
    X1434     A14        1
    X1434     G1434      1
    X1434     B34        1
    X1435     COST       8
    X1435     A14        1
    X1435     G1435      1
    X1435     B35        1
    X1436     COST       7
    X1436     A14        1
    X1436     G1436      1
    X1436     B36        1
    X1437     COST       8
    X1437     A14        1
    X1437     G1437      1
    X1437     B37        1
    X1438     COST       4
    X1438     A14        1
    X1438     G1438      1
    X1438     B38        1
    X1439     COST       7
    X1439     A14        1
    X1439     G1439      1
    X1439     B39        1
    X1440     COST       8
    X1440     A14        1
    X1440     G1440      1
    X1440     B40        1
    X1441     COST       8
    X1441     A14        1
    X1441     G1441      1
    X1441     B41        1
    X1442     COST       8
    X1442     A14        1
    X1442     G1442      1
    X1442     B42        1
    X1443     COST       3
    X1443     A14        1
    X1443     G1443      1
    X1443     B43        1
    X1444     COST       4
    X1444     A14        1
    X1444     G1444      1
    X1444     B44        1
    X1445     COST       4
    X1445     A14        1
    X1445     G1445      1
    X1445     B45        1
    X1446     COST       8
    X1446     A14        1
    X1446     G1446      1
    X1446     B46        1
    X1447     COST       4
    X1447     A14        1
    X1447     G1447      1
    X1447     B47        1
    X1448     COST       6
    X1448     A14        1
    X1448     G1448      1
    X1448     B48        1
    X1449     COST       8
    X1449     A14        1
    X1449     G1449      1
    X1449     B49        1
    X1450     COST       4
    X1450     A14        1
    X1450     G1450      1
    X1450     B50        1
    X1451     COST       5
    X1451     A14        1
    X1451     G1451      1
    X1451     B51        1
    X1452     COST       4
    X1452     A14        1
    X1452     G1452      1
    X1452     B52        1
    X1453     COST       3
    X1453     A14        1
    X1453     G1453      1
    X1453     B53        1
    X1454     COST       4
    X1454     A14        1
    X1454     G1454      1
    X1454     B54        1
    X1455     COST       5
    X1455     A14        1
    X1455     G1455      1
    X1455     B55        1
    X1456     COST       4
    X1456     A14        1
    X1456     G1456      1
    X1456     B56        1
    X1457     COST       6
    X1457     A14        1
    X1457     G1457      1
    X1457     B57        1
    X1458     COST       7
    X1458     A14        1
    X1458     G1458      1
    X1458     B58        1
    X1459     COST       3
    X1459     A14        1
    X1459     G1459      1
    X1459     B59        1
    X1460     COST       7
    X1460     A14        1
    X1460     G1460      1
    X1460     B60        1
    X1461     COST       6
    X1461     A14        1
    X1461     G1461      1
    X1461     B61        1
    X1462     COST       6
    X1462     A14        1
    X1462     G1462      1
    X1462     B62        1
    X1463     COST       7
    X1463     A14        1
    X1463     G1463      1
    X1463     B63        1
    X1464     COST       8
    X1464     A14        1
    X1464     G1464      1
    X1464     B64        1
    X1465     COST       8
    X1465     A14        1
    X1465     G1465      1
    X1465     B65        1
    X1466     COST       5
    X1466     A14        1
    X1466     G1466      1
    X1466     B66        1
    X1467     COST       4
    X1467     A14        1
    X1467     G1467      1
    X1467     B67        1
    X1468     COST       8
    X1468     A14        1
    X1468     G1468      1
    X1468     B68        1
    X1469     COST       3
    X1469     A14        1
    X1469     G1469      1
    X1469     B69        1
    X1470     COST       6
    X1470     A14        1
    X1470     G1470      1
    X1470     B70        1
    X1471     COST       4
    X1471     A14        1
    X1471     G1471      1
    X1471     B71        1
    X1472     COST       6
    X1472     A14        1
    X1472     G1472      1
    X1472     B72        1
    X1473     COST       6
    X1473     A14        1
    X1473     G1473      1
    X1473     B73        1
    X1474     COST       5
    X1474     A14        1
    X1474     G1474      1
    X1474     B74        1
    X1475     COST       8
    X1475     A14        1
    X1475     G1475      1
    X1475     B75        1
    X1476     COST       4
    X1476     A14        1
    X1476     G1476      1
    X1476     B76        1
    X1477     COST       7
    X1477     A14        1
    X1477     G1477      1
    X1477     B77        1
    X1478     COST       4
    X1478     A14        1
    X1478     G1478      1
    X1478     B78        1
    X1479     COST       7
    X1479     A14        1
    X1479     G1479      1
    X1479     B79        1
    X1480     COST       4
    X1480     A14        1
    X1480     G1480      1
    X1480     B80        1
    X1481     COST       6
    X1481     A14        1
    X1481     G1481      1
    X1481     B81        1
    X1482     COST       4
    X1482     A14        1
    X1482     G1482      1
    X1482     B82        1
    X1483     COST       6
    X1483     A14        1
    X1483     G1483      1
    X1483     B83        1
    X1484     COST       7
    X1484     A14        1
    X1484     G1484      1
    X1484     B84        1
    X1485     COST       6
    X1485     A14        1
    X1485     G1485      1
    X1485     B85        1
    X1486     COST       4
    X1486     A14        1
    X1486     G1486      1
    X1486     B86        1
    X1487     COST       6
    X1487     A14        1
    X1487     G1487      1
    X1487     B87        1
    X1488     COST       7
    X1488     A14        1
    X1488     G1488      1
    X1488     B88        1
    X1489     COST       5
    X1489     A14        1
    X1489     G1489      1
    X1489     B89        1
    X1490     COST       6
    X1490     A14        1
    X1490     G1490      1
    X1490     B90        1
    X1491     COST       7
    X1491     A14        1
    X1491     G1491      1
    X1491     B91        1
    X1492     COST       6
    X1492     A14        1
    X1492     G1492      1
    X1492     B92        1
    X1493     COST       5
    X1493     A14        1
    X1493     G1493      1
    X1493     B93        1
    X1494     COST       4
    X1494     A14        1
    X1494     G1494      1
    X1494     B94        1
    X1495     COST       7
    X1495     A14        1
    X1495     G1495      1
    X1495     B95        1
    X1496     COST       5
    X1496     A14        1
    X1496     G1496      1
    X1496     B96        1
    X1497     COST       7
    X1497     A14        1
    X1497     G1497      1
    X1497     B97        1
    X1498     COST       6
    X1498     A14        1
    X1498     G1498      1
    X1498     B98        1
    X1499     COST       5
    X1499     A14        1
    X1499     G1499      1
    X1499     B99        1
    X1500     COST       5
    X1500     A15        1
    X1500     G1500      1
    X1500     B0         1
    X1501     COST       4
    X1501     A15        1
    X1501     G1501      1
    X1501     B1         1
    X1502     COST       6
    X1502     A15        1
    X1502     G1502      1
    X1502     B2         1
    X1503     COST       8
    X1503     A15        1
    X1503     G1503      1
    X1503     B3         1
    X1504     COST       5
    X1504     A15        1
    X1504     G1504      1
    X1504     B4         1
    X1505     COST       6
    X1505     A15        1
    X1505     G1505      1
    X1505     B5         1
    X1506     COST       8
    X1506     A15        1
    X1506     G1506      1
    X1506     B6         1
    X1507     COST       7
    X1507     A15        1
    X1507     G1507      1
    X1507     B7         1
    X1508     COST       3
    X1508     A15        1
    X1508     G1508      1
    X1508     B8         1
    X1509     COST       4
    X1509     A15        1
    X1509     G1509      1
    X1509     B9         1
    X1510     COST       4
    X1510     A15        1
    X1510     G1510      1
    X1510     B10        1
    X1511     COST       8
    X1511     A15        1
    X1511     G1511      1
    X1511     B11        1
    X1512     COST       5
    X1512     A15        1
    X1512     G1512      1
    X1512     B12        1
    X1513     COST       5
    X1513     A15        1
    X1513     G1513      1
    X1513     B13        1
    X1514     COST       6
    X1514     A15        1
    X1514     G1514      1
    X1514     B14        1
    X1515     COST       5
    X1515     A15        1
    X1515     G1515      1
    X1515     B15        1
    X1516     COST       6
    X1516     A15        1
    X1516     G1516      1
    X1516     B16        1
    X1517     COST       8
    X1517     A15        1
    X1517     G1517      1
    X1517     B17        1
    X1518     COST       3
    X1518     A15        1
    X1518     G1518      1
    X1518     B18        1
    X1519     COST       5
    X1519     A15        1
    X1519     G1519      1
    X1519     B19        1
    X1520     COST       4
    X1520     A15        1
    X1520     G1520      1
    X1520     B20        1
    X1521     COST       7
    X1521     A15        1
    X1521     G1521      1
    X1521     B21        1
    X1522     COST       3
    X1522     A15        1
    X1522     G1522      1
    X1522     B22        1
    X1523     COST       5
    X1523     A15        1
    X1523     G1523      1
    X1523     B23        1
    X1524     COST       4
    X1524     A15        1
    X1524     G1524      1
    X1524     B24        1
    X1525     COST       8
    X1525     A15        1
    X1525     G1525      1
    X1525     B25        1
    X1526     COST       8
    X1526     A15        1
    X1526     G1526      1
    X1526     B26        1
    X1527     COST       3
    X1527     A15        1
    X1527     G1527      1
    X1527     B27        1
    X1528     COST       8
    X1528     A15        1
    X1528     G1528      1
    X1528     B28        1
    X1529     COST       3
    X1529     A15        1
    X1529     G1529      1
    X1529     B29        1
    X1530     COST       8
    X1530     A15        1
    X1530     G1530      1
    X1530     B30        1
    X1531     COST       4
    X1531     A15        1
    X1531     G1531      1
    X1531     B31        1
    X1532     COST       8
    X1532     A15        1
    X1532     G1532      1
    X1532     B32        1
    X1533     COST       8
    X1533     A15        1
    X1533     G1533      1
    X1533     B33        1
    X1534     COST       8
    X1534     A15        1
    X1534     G1534      1
    X1534     B34        1
    X1535     COST       3
    X1535     A15        1
    X1535     G1535      1
    X1535     B35        1
    X1536     COST       7
    X1536     A15        1
    X1536     G1536      1
    X1536     B36        1
    X1537     COST       7
    X1537     A15        1
    X1537     G1537      1
    X1537     B37        1
    X1538     COST       3
    X1538     A15        1
    X1538     G1538      1
    X1538     B38        1
    X1539     COST       3
    X1539     A15        1
    X1539     G1539      1
    X1539     B39        1
    X1540     COST       8
    X1540     A15        1
    X1540     G1540      1
    X1540     B40        1
    X1541     COST       3
    X1541     A15        1
    X1541     G1541      1
    X1541     B41        1
    X1542     COST       8
    X1542     A15        1
    X1542     G1542      1
    X1542     B42        1
    X1543     COST       8
    X1543     A15        1
    X1543     G1543      1
    X1543     B43        1
    X1544     COST       3
    X1544     A15        1
    X1544     G1544      1
    X1544     B44        1
    X1545     COST       6
    X1545     A15        1
    X1545     G1545      1
    X1545     B45        1
    X1546     COST       7
    X1546     A15        1
    X1546     G1546      1
    X1546     B46        1
    X1547     COST       8
    X1547     A15        1
    X1547     G1547      1
    X1547     B47        1
    X1548     COST       8
    X1548     A15        1
    X1548     G1548      1
    X1548     B48        1
    X1549     COST       8
    X1549     A15        1
    X1549     G1549      1
    X1549     B49        1
    X1550     COST       5
    X1550     A15        1
    X1550     G1550      1
    X1550     B50        1
    X1551     COST       8
    X1551     A15        1
    X1551     G1551      1
    X1551     B51        1
    X1552     COST       5
    X1552     A15        1
    X1552     G1552      1
    X1552     B52        1
    X1553     COST       5
    X1553     A15        1
    X1553     G1553      1
    X1553     B53        1
    X1554     COST       5
    X1554     A15        1
    X1554     G1554      1
    X1554     B54        1
    X1555     COST       8
    X1555     A15        1
    X1555     G1555      1
    X1555     B55        1
    X1556     COST       8
    X1556     A15        1
    X1556     G1556      1
    X1556     B56        1
    X1557     COST       3
    X1557     A15        1
    X1557     G1557      1
    X1557     B57        1
    X1558     COST       5
    X1558     A15        1
    X1558     G1558      1
    X1558     B58        1
    X1559     COST       7
    X1559     A15        1
    X1559     G1559      1
    X1559     B59        1
    X1560     COST       4
    X1560     A15        1
    X1560     G1560      1
    X1560     B60        1
    X1561     COST       6
    X1561     A15        1
    X1561     G1561      1
    X1561     B61        1
    X1562     COST       7
    X1562     A15        1
    X1562     G1562      1
    X1562     B62        1
    X1563     COST       5
    X1563     A15        1
    X1563     G1563      1
    X1563     B63        1
    X1564     COST       5
    X1564     A15        1
    X1564     G1564      1
    X1564     B64        1
    X1565     COST       6
    X1565     A15        1
    X1565     G1565      1
    X1565     B65        1
    X1566     COST       4
    X1566     A15        1
    X1566     G1566      1
    X1566     B66        1
    X1567     COST       3
    X1567     A15        1
    X1567     G1567      1
    X1567     B67        1
    X1568     COST       3
    X1568     A15        1
    X1568     G1568      1
    X1568     B68        1
    X1569     COST       5
    X1569     A15        1
    X1569     G1569      1
    X1569     B69        1
    X1570     COST       3
    X1570     A15        1
    X1570     G1570      1
    X1570     B70        1
    X1571     COST       5
    X1571     A15        1
    X1571     G1571      1
    X1571     B71        1
    X1572     COST       3
    X1572     A15        1
    X1572     G1572      1
    X1572     B72        1
    X1573     COST       5
    X1573     A15        1
    X1573     G1573      1
    X1573     B73        1
    X1574     COST       5
    X1574     A15        1
    X1574     G1574      1
    X1574     B74        1
    X1575     COST       5
    X1575     A15        1
    X1575     G1575      1
    X1575     B75        1
    X1576     COST       6
    X1576     A15        1
    X1576     G1576      1
    X1576     B76        1
    X1577     COST       6
    X1577     A15        1
    X1577     G1577      1
    X1577     B77        1
    X1578     COST       4
    X1578     A15        1
    X1578     G1578      1
    X1578     B78        1
    X1579     COST       8
    X1579     A15        1
    X1579     G1579      1
    X1579     B79        1
    X1580     COST       6
    X1580     A15        1
    X1580     G1580      1
    X1580     B80        1
    X1581     COST       5
    X1581     A15        1
    X1581     G1581      1
    X1581     B81        1
    X1582     COST       4
    X1582     A15        1
    X1582     G1582      1
    X1582     B82        1
    X1583     COST       7
    X1583     A15        1
    X1583     G1583      1
    X1583     B83        1
    X1584     COST       4
    X1584     A15        1
    X1584     G1584      1
    X1584     B84        1
    X1585     COST       6
    X1585     A15        1
    X1585     G1585      1
    X1585     B85        1
    X1586     COST       6
    X1586     A15        1
    X1586     G1586      1
    X1586     B86        1
    X1587     COST       4
    X1587     A15        1
    X1587     G1587      1
    X1587     B87        1
    X1588     COST       7
    X1588     A15        1
    X1588     G1588      1
    X1588     B88        1
    X1589     COST       6
    X1589     A15        1
    X1589     G1589      1
    X1589     B89        1
    X1590     COST       5
    X1590     A15        1
    X1590     G1590      1
    X1590     B90        1
    X1591     COST       7
    X1591     A15        1
    X1591     G1591      1
    X1591     B91        1
    X1592     COST       7
    X1592     A15        1
    X1592     G1592      1
    X1592     B92        1
    X1593     COST       6
    X1593     A15        1
    X1593     G1593      1
    X1593     B93        1
    X1594     COST       7
    X1594     A15        1
    X1594     G1594      1
    X1594     B94        1
    X1595     COST       7
    X1595     A15        1
    X1595     G1595      1
    X1595     B95        1
    X1596     COST       8
    X1596     A15        1
    X1596     G1596      1
    X1596     B96        1
    X1597     COST       7
    X1597     A15        1
    X1597     G1597      1
    X1597     B97        1
    X1598     COST       6
    X1598     A15        1
    X1598     G1598      1
    X1598     B98        1
    X1599     COST       5
    X1599     A15        1
    X1599     G1599      1
    X1599     B99        1
    X1600     COST       3
    X1600     A16        1
    X1600     G1600      1
    X1600     B0         1
    X1601     COST       8
    X1601     A16        1
    X1601     G1601      1
    X1601     B1         1
    X1602     COST       3
    X1602     A16        1
    X1602     G1602      1
    X1602     B2         1
    X1603     COST       8
    X1603     A16        1
    X1603     G1603      1
    X1603     B3         1
    X1604     COST       7
    X1604     A16        1
    X1604     G1604      1
    X1604     B4         1
    X1605     COST       3
    X1605     A16        1
    X1605     G1605      1
    X1605     B5         1
    X1606     COST       3
    X1606     A16        1
    X1606     G1606      1
    X1606     B6         1
    X1607     COST       7
    X1607     A16        1
    X1607     G1607      1
    X1607     B7         1
    X1608     COST       3
    X1608     A16        1
    X1608     G1608      1
    X1608     B8         1
    X1609     COST       8
    X1609     A16        1
    X1609     G1609      1
    X1609     B9         1
    X1610     COST       6
    X1610     A16        1
    X1610     G1610      1
    X1610     B10        1
    X1611     COST       6
    X1611     A16        1
    X1611     G1611      1
    X1611     B11        1
    X1612     COST       4
    X1612     A16        1
    X1612     G1612      1
    X1612     B12        1
    X1613     COST       5
    X1613     A16        1
    X1613     G1613      1
    X1613     B13        1
    X1614     COST       3
    X1614     A16        1
    X1614     G1614      1
    X1614     B14        1
    X1615     COST       3
    X1615     A16        1
    X1615     G1615      1
    X1615     B15        1
    X1616     COST       8
    X1616     A16        1
    X1616     G1616      1
    X1616     B16        1
    X1617     COST       6
    X1617     A16        1
    X1617     G1617      1
    X1617     B17        1
    X1618     COST       3
    X1618     A16        1
    X1618     G1618      1
    X1618     B18        1
    X1619     COST       8
    X1619     A16        1
    X1619     G1619      1
    X1619     B19        1
    X1620     COST       5
    X1620     A16        1
    X1620     G1620      1
    X1620     B20        1
    X1621     COST       6
    X1621     A16        1
    X1621     G1621      1
    X1621     B21        1
    X1622     COST       5
    X1622     A16        1
    X1622     G1622      1
    X1622     B22        1
    X1623     COST       3
    X1623     A16        1
    X1623     G1623      1
    X1623     B23        1
    X1624     COST       3
    X1624     A16        1
    X1624     G1624      1
    X1624     B24        1
    X1625     COST       8
    X1625     A16        1
    X1625     G1625      1
    X1625     B25        1
    X1626     COST       5
    X1626     A16        1
    X1626     G1626      1
    X1626     B26        1
    X1627     COST       8
    X1627     A16        1
    X1627     G1627      1
    X1627     B27        1
    X1628     COST       8
    X1628     A16        1
    X1628     G1628      1
    X1628     B28        1
    X1629     COST       7
    X1629     A16        1
    X1629     G1629      1
    X1629     B29        1
    X1630     COST       7
    X1630     A16        1
    X1630     G1630      1
    X1630     B30        1
    X1631     COST       3
    X1631     A16        1
    X1631     G1631      1
    X1631     B31        1
    X1632     COST       3
    X1632     A16        1
    X1632     G1632      1
    X1632     B32        1
    X1633     COST       3
    X1633     A16        1
    X1633     G1633      1
    X1633     B33        1
    X1634     COST       3
    X1634     A16        1
    X1634     G1634      1
    X1634     B34        1
    X1635     COST       8
    X1635     A16        1
    X1635     G1635      1
    X1635     B35        1
    X1636     COST       8
    X1636     A16        1
    X1636     G1636      1
    X1636     B36        1
    X1637     COST       7
    X1637     A16        1
    X1637     G1637      1
    X1637     B37        1
    X1638     COST       3
    X1638     A16        1
    X1638     G1638      1
    X1638     B38        1
    X1639     COST       3
    X1639     A16        1
    X1639     G1639      1
    X1639     B39        1
    X1640     COST       4
    X1640     A16        1
    X1640     G1640      1
    X1640     B40        1
    X1641     COST       7
    X1641     A16        1
    X1641     G1641      1
    X1641     B41        1
    X1642     COST       8
    X1642     A16        1
    X1642     G1642      1
    X1642     B42        1
    X1643     COST       4
    X1643     A16        1
    X1643     G1643      1
    X1643     B43        1
    X1644     COST       8
    X1644     A16        1
    X1644     G1644      1
    X1644     B44        1
    X1645     COST       7
    X1645     A16        1
    X1645     G1645      1
    X1645     B45        1
    X1646     COST       3
    X1646     A16        1
    X1646     G1646      1
    X1646     B46        1
    X1647     COST       7
    X1647     A16        1
    X1647     G1647      1
    X1647     B47        1
    X1648     COST       4
    X1648     A16        1
    X1648     G1648      1
    X1648     B48        1
    X1649     COST       4
    X1649     A16        1
    X1649     G1649      1
    X1649     B49        1
    X1650     COST       5
    X1650     A16        1
    X1650     G1650      1
    X1650     B50        1
    X1651     COST       6
    X1651     A16        1
    X1651     G1651      1
    X1651     B51        1
    X1652     COST       6
    X1652     A16        1
    X1652     G1652      1
    X1652     B52        1
    X1653     COST       5
    X1653     A16        1
    X1653     G1653      1
    X1653     B53        1
    X1654     COST       5
    X1654     A16        1
    X1654     G1654      1
    X1654     B54        1
    X1655     COST       8
    X1655     A16        1
    X1655     G1655      1
    X1655     B55        1
    X1656     COST       5
    X1656     A16        1
    X1656     G1656      1
    X1656     B56        1
    X1657     COST       5
    X1657     A16        1
    X1657     G1657      1
    X1657     B57        1
    X1658     COST       4
    X1658     A16        1
    X1658     G1658      1
    X1658     B58        1
    X1659     COST       6
    X1659     A16        1
    X1659     G1659      1
    X1659     B59        1
    X1660     COST       3
    X1660     A16        1
    X1660     G1660      1
    X1660     B60        1
    X1661     COST       8
    X1661     A16        1
    X1661     G1661      1
    X1661     B61        1
    X1662     COST       5
    X1662     A16        1
    X1662     G1662      1
    X1662     B62        1
    X1663     COST       6
    X1663     A16        1
    X1663     G1663      1
    X1663     B63        1
    X1664     COST       8
    X1664     A16        1
    X1664     G1664      1
    X1664     B64        1
    X1665     COST       7
    X1665     A16        1
    X1665     G1665      1
    X1665     B65        1
    X1666     COST       4
    X1666     A16        1
    X1666     G1666      1
    X1666     B66        1
    X1667     COST       3
    X1667     A16        1
    X1667     G1667      1
    X1667     B67        1
    X1668     COST       3
    X1668     A16        1
    X1668     G1668      1
    X1668     B68        1
    X1669     COST       6
    X1669     A16        1
    X1669     G1669      1
    X1669     B69        1
    X1670     COST       4
    X1670     A16        1
    X1670     G1670      1
    X1670     B70        1
    X1671     COST       6
    X1671     A16        1
    X1671     G1671      1
    X1671     B71        1
    X1672     COST       3
    X1672     A16        1
    X1672     G1672      1
    X1672     B72        1
    X1673     COST       4
    X1673     A16        1
    X1673     G1673      1
    X1673     B73        1
    X1674     COST       8
    X1674     A16        1
    X1674     G1674      1
    X1674     B74        1
    X1675     COST       7
    X1675     A16        1
    X1675     G1675      1
    X1675     B75        1
    X1676     COST       4
    X1676     A16        1
    X1676     G1676      1
    X1676     B76        1
    X1677     COST       5
    X1677     A16        1
    X1677     G1677      1
    X1677     B77        1
    X1678     COST       7
    X1678     A16        1
    X1678     G1678      1
    X1678     B78        1
    X1679     COST       4
    X1679     A16        1
    X1679     G1679      1
    X1679     B79        1
    X1680     COST       5
    X1680     A16        1
    X1680     G1680      1
    X1680     B80        1
    X1681     COST       6
    X1681     A16        1
    X1681     G1681      1
    X1681     B81        1
    X1682     COST       5
    X1682     A16        1
    X1682     G1682      1
    X1682     B82        1
    X1683     COST       6
    X1683     A16        1
    X1683     G1683      1
    X1683     B83        1
    X1684     COST       5
    X1684     A16        1
    X1684     G1684      1
    X1684     B84        1
    X1685     COST       7
    X1685     A16        1
    X1685     G1685      1
    X1685     B85        1
    X1686     COST       4
    X1686     A16        1
    X1686     G1686      1
    X1686     B86        1
    X1687     COST       5
    X1687     A16        1
    X1687     G1687      1
    X1687     B87        1
    X1688     COST       7
    X1688     A16        1
    X1688     G1688      1
    X1688     B88        1
    X1689     COST       4
    X1689     A16        1
    X1689     G1689      1
    X1689     B89        1
    X1690     COST       6
    X1690     A16        1
    X1690     G1690      1
    X1690     B90        1
    X1691     COST       4
    X1691     A16        1
    X1691     G1691      1
    X1691     B91        1
    X1692     COST       4
    X1692     A16        1
    X1692     G1692      1
    X1692     B92        1
    X1693     COST       6
    X1693     A16        1
    X1693     G1693      1
    X1693     B93        1
    X1694     COST       7
    X1694     A16        1
    X1694     G1694      1
    X1694     B94        1
    X1695     COST       7
    X1695     A16        1
    X1695     G1695      1
    X1695     B95        1
    X1696     COST       7
    X1696     A16        1
    X1696     G1696      1
    X1696     B96        1
    X1697     COST       7
    X1697     A16        1
    X1697     G1697      1
    X1697     B97        1
    X1698     COST       7
    X1698     A16        1
    X1698     G1698      1
    X1698     B98        1
    X1699     COST       8
    X1699     A16        1
    X1699     G1699      1
    X1699     B99        1
    X1700     COST       4
    X1700     A17        1
    X1700     G1700      1
    X1700     B0         1
    X1701     COST       7
    X1701     A17        1
    X1701     G1701      1
    X1701     B1         1
    X1702     COST       7
    X1702     A17        1
    X1702     G1702      1
    X1702     B2         1
    X1703     COST       5
    X1703     A17        1
    X1703     G1703      1
    X1703     B3         1
    X1704     COST       8
    X1704     A17        1
    X1704     G1704      1
    X1704     B4         1
    X1705     COST       3
    X1705     A17        1
    X1705     G1705      1
    X1705     B5         1
    X1706     COST       4
    X1706     A17        1
    X1706     G1706      1
    X1706     B6         1
    X1707     COST       8
    X1707     A17        1
    X1707     G1707      1
    X1707     B7         1
    X1708     COST       5
    X1708     A17        1
    X1708     G1708      1
    X1708     B8         1
    X1709     COST       6
    X1709     A17        1
    X1709     G1709      1
    X1709     B9         1
    X1710     COST       6
    X1710     A17        1
    X1710     G1710      1
    X1710     B10        1
    X1711     COST       6
    X1711     A17        1
    X1711     G1711      1
    X1711     B11        1
    X1712     COST       3
    X1712     A17        1
    X1712     G1712      1
    X1712     B12        1
    X1713     COST       3
    X1713     A17        1
    X1713     G1713      1
    X1713     B13        1
    X1714     COST       5
    X1714     A17        1
    X1714     G1714      1
    X1714     B14        1
    X1715     COST       5
    X1715     A17        1
    X1715     G1715      1
    X1715     B15        1
    X1716     COST       5
    X1716     A17        1
    X1716     G1716      1
    X1716     B16        1
    X1717     COST       8
    X1717     A17        1
    X1717     G1717      1
    X1717     B17        1
    X1718     COST       3
    X1718     A17        1
    X1718     G1718      1
    X1718     B18        1
    X1719     COST       3
    X1719     A17        1
    X1719     G1719      1
    X1719     B19        1
    X1720     COST       5
    X1720     A17        1
    X1720     G1720      1
    X1720     B20        1
    X1721     COST       5
    X1721     A17        1
    X1721     G1721      1
    X1721     B21        1
    X1722     COST       6
    X1722     A17        1
    X1722     G1722      1
    X1722     B22        1
    X1723     COST       3
    X1723     A17        1
    X1723     G1723      1
    X1723     B23        1
    X1724     COST       4
    X1724     A17        1
    X1724     G1724      1
    X1724     B24        1
    X1725     COST       8
    X1725     A17        1
    X1725     G1725      1
    X1725     B25        1
    X1726     COST       3
    X1726     A17        1
    X1726     G1726      1
    X1726     B26        1
    X1727     COST       8
    X1727     A17        1
    X1727     G1727      1
    X1727     B27        1
    X1728     COST       3
    X1728     A17        1
    X1728     G1728      1
    X1728     B28        1
    X1729     COST       8
    X1729     A17        1
    X1729     G1729      1
    X1729     B29        1
    X1730     COST       8
    X1730     A17        1
    X1730     G1730      1
    X1730     B30        1
    X1731     COST       7
    X1731     A17        1
    X1731     G1731      1
    X1731     B31        1
    X1732     COST       3
    X1732     A17        1
    X1732     G1732      1
    X1732     B32        1
    X1733     COST       8
    X1733     A17        1
    X1733     G1733      1
    X1733     B33        1
    X1734     COST       4
    X1734     A17        1
    X1734     G1734      1
    X1734     B34        1
    X1735     COST       8
    X1735     A17        1
    X1735     G1735      1
    X1735     B35        1
    X1736     COST       3
    X1736     A17        1
    X1736     G1736      1
    X1736     B36        1
    X1737     COST       7
    X1737     A17        1
    X1737     G1737      1
    X1737     B37        1
    X1738     COST       8
    X1738     A17        1
    X1738     G1738      1
    X1738     B38        1
    X1739     COST       3
    X1739     A17        1
    X1739     G1739      1
    X1739     B39        1
    X1740     COST       3
    X1740     A17        1
    X1740     G1740      1
    X1740     B40        1
    X1741     COST       8
    X1741     A17        1
    X1741     G1741      1
    X1741     B41        1
    X1742     COST       3
    X1742     A17        1
    X1742     G1742      1
    X1742     B42        1
    X1743     COST       4
    X1743     A17        1
    X1743     G1743      1
    X1743     B43        1
    X1744     COST       7
    X1744     A17        1
    X1744     G1744      1
    X1744     B44        1
    X1745     COST       4
    X1745     A17        1
    X1745     G1745      1
    X1745     B45        1
    X1746     COST       4
    X1746     A17        1
    X1746     G1746      1
    X1746     B46        1
    X1747     COST       7
    X1747     A17        1
    X1747     G1747      1
    X1747     B47        1
    X1748     COST       7
    X1748     A17        1
    X1748     G1748      1
    X1748     B48        1
    X1749     COST       5
    X1749     A17        1
    X1749     G1749      1
    X1749     B49        1
    X1750     COST       4
    X1750     A17        1
    X1750     G1750      1
    X1750     B50        1
    X1751     COST       6
    X1751     A17        1
    X1751     G1751      1
    X1751     B51        1
    X1752     COST       5
    X1752     A17        1
    X1752     G1752      1
    X1752     B52        1
    X1753     COST       5
    X1753     A17        1
    X1753     G1753      1
    X1753     B53        1
    X1754     COST       8
    X1754     A17        1
    X1754     G1754      1
    X1754     B54        1
    X1755     COST       5
    X1755     A17        1
    X1755     G1755      1
    X1755     B55        1
    X1756     COST       6
    X1756     A17        1
    X1756     G1756      1
    X1756     B56        1
    X1757     COST       6
    X1757     A17        1
    X1757     G1757      1
    X1757     B57        1
    X1758     COST       5
    X1758     A17        1
    X1758     G1758      1
    X1758     B58        1
    X1759     COST       6
    X1759     A17        1
    X1759     G1759      1
    X1759     B59        1
    X1760     COST       7
    X1760     A17        1
    X1760     G1760      1
    X1760     B60        1
    X1761     COST       8
    X1761     A17        1
    X1761     G1761      1
    X1761     B61        1
    X1762     COST       6
    X1762     A17        1
    X1762     G1762      1
    X1762     B62        1
    X1763     COST       5
    X1763     A17        1
    X1763     G1763      1
    X1763     B63        1
    X1764     COST       7
    X1764     A17        1
    X1764     G1764      1
    X1764     B64        1
    X1765     COST       6
    X1765     A17        1
    X1765     G1765      1
    X1765     B65        1
    X1766     COST       5
    X1766     A17        1
    X1766     G1766      1
    X1766     B66        1
    X1767     COST       3
    X1767     A17        1
    X1767     G1767      1
    X1767     B67        1
    X1768     COST       5
    X1768     A17        1
    X1768     G1768      1
    X1768     B68        1
    X1769     COST       6
    X1769     A17        1
    X1769     G1769      1
    X1769     B69        1
    X1770     COST       3
    X1770     A17        1
    X1770     G1770      1
    X1770     B70        1
    X1771     COST       3
    X1771     A17        1
    X1771     G1771      1
    X1771     B71        1
    X1772     COST       6
    X1772     A17        1
    X1772     G1772      1
    X1772     B72        1
    X1773     COST       3
    X1773     A17        1
    X1773     G1773      1
    X1773     B73        1
    X1774     COST       6
    X1774     A17        1
    X1774     G1774      1
    X1774     B74        1
    X1775     COST       6
    X1775     A17        1
    X1775     G1775      1
    X1775     B75        1
    X1776     COST       5
    X1776     A17        1
    X1776     G1776      1
    X1776     B76        1
    X1777     COST       5
    X1777     A17        1
    X1777     G1777      1
    X1777     B77        1
    X1778     COST       7
    X1778     A17        1
    X1778     G1778      1
    X1778     B78        1
    X1779     COST       4
    X1779     A17        1
    X1779     G1779      1
    X1779     B79        1
    X1780     COST       3
    X1780     A17        1
    X1780     G1780      1
    X1780     B80        1
    X1781     COST       5
    X1781     A17        1
    X1781     G1781      1
    X1781     B81        1
    X1782     COST       4
    X1782     A17        1
    X1782     G1782      1
    X1782     B82        1
    X1783     COST       7
    X1783     A17        1
    X1783     G1783      1
    X1783     B83        1
    X1784     COST       6
    X1784     A17        1
    X1784     G1784      1
    X1784     B84        1
    X1785     COST       7
    X1785     A17        1
    X1785     G1785      1
    X1785     B85        1
    X1786     COST       7
    X1786     A17        1
    X1786     G1786      1
    X1786     B86        1
    X1787     COST       5
    X1787     A17        1
    X1787     G1787      1
    X1787     B87        1
    X1788     COST       7
    X1788     A17        1
    X1788     G1788      1
    X1788     B88        1
    X1789     COST       6
    X1789     A17        1
    X1789     G1789      1
    X1789     B89        1
    X1790     COST       7
    X1790     A17        1
    X1790     G1790      1
    X1790     B90        1
    X1791     COST       5
    X1791     A17        1
    X1791     G1791      1
    X1791     B91        1
    X1792     COST       4
    X1792     A17        1
    X1792     G1792      1
    X1792     B92        1
    X1793     COST       4
    X1793     A17        1
    X1793     G1793      1
    X1793     B93        1
    X1794     COST       4
    X1794     A17        1
    X1794     G1794      1
    X1794     B94        1
    X1795     COST       7
    X1795     A17        1
    X1795     G1795      1
    X1795     B95        1
    X1796     COST       6
    X1796     A17        1
    X1796     G1796      1
    X1796     B96        1
    X1797     COST       6
    X1797     A17        1
    X1797     G1797      1
    X1797     B97        1
    X1798     COST       5
    X1798     A17        1
    X1798     G1798      1
    X1798     B98        1
    X1799     COST       6
    X1799     A17        1
    X1799     G1799      1
    X1799     B99        1
    X1800     COST       7
    X1800     A18        1
    X1800     G1800      1
    X1800     B0         1
    X1801     COST       8
    X1801     A18        1
    X1801     G1801      1
    X1801     B1         1
    X1802     COST       3
    X1802     A18        1
    X1802     G1802      1
    X1802     B2         1
    X1803     COST       5
    X1803     A18        1
    X1803     G1803      1
    X1803     B3         1
    X1804     COST       6
    X1804     A18        1
    X1804     G1804      1
    X1804     B4         1
    X1805     COST       5
    X1805     A18        1
    X1805     G1805      1
    X1805     B5         1
    X1806     COST       7
    X1806     A18        1
    X1806     G1806      1
    X1806     B6         1
    X1807     COST       8
    X1807     A18        1
    X1807     G1807      1
    X1807     B7         1
    X1808     COST       6
    X1808     A18        1
    X1808     G1808      1
    X1808     B8         1
    X1809     COST       8
    X1809     A18        1
    X1809     G1809      1
    X1809     B9         1
    X1810     COST       6
    X1810     A18        1
    X1810     G1810      1
    X1810     B10        1
    X1811     COST       8
    X1811     A18        1
    X1811     G1811      1
    X1811     B11        1
    X1812     COST       4
    X1812     A18        1
    X1812     G1812      1
    X1812     B12        1
    X1813     COST       5
    X1813     A18        1
    X1813     G1813      1
    X1813     B13        1
    X1814     COST       6
    X1814     A18        1
    X1814     G1814      1
    X1814     B14        1
    X1815     COST       3
    X1815     A18        1
    X1815     G1815      1
    X1815     B15        1
    X1816     COST       6
    X1816     A18        1
    X1816     G1816      1
    X1816     B16        1
    X1817     COST       8
    X1817     A18        1
    X1817     G1817      1
    X1817     B17        1
    X1818     COST       6
    X1818     A18        1
    X1818     G1818      1
    X1818     B18        1
    X1819     COST       6
    X1819     A18        1
    X1819     G1819      1
    X1819     B19        1
    X1820     COST       6
    X1820     A18        1
    X1820     G1820      1
    X1820     B20        1
    X1821     COST       8
    X1821     A18        1
    X1821     G1821      1
    X1821     B21        1
    X1822     COST       5
    X1822     A18        1
    X1822     G1822      1
    X1822     B22        1
    X1823     COST       6
    X1823     A18        1
    X1823     G1823      1
    X1823     B23        1
    X1824     COST       7
    X1824     A18        1
    X1824     G1824      1
    X1824     B24        1
    X1825     COST       5
    X1825     A18        1
    X1825     G1825      1
    X1825     B25        1
    X1826     COST       4
    X1826     A18        1
    X1826     G1826      1
    X1826     B26        1
    X1827     COST       8
    X1827     A18        1
    X1827     G1827      1
    X1827     B27        1
    X1828     COST       7
    X1828     A18        1
    X1828     G1828      1
    X1828     B28        1
    X1829     COST       8
    X1829     A18        1
    X1829     G1829      1
    X1829     B29        1
    X1830     COST       8
    X1830     A18        1
    X1830     G1830      1
    X1830     B30        1
    X1831     COST       8
    X1831     A18        1
    X1831     G1831      1
    X1831     B31        1
    X1832     COST       7
    X1832     A18        1
    X1832     G1832      1
    X1832     B32        1
    X1833     COST       3
    X1833     A18        1
    X1833     G1833      1
    X1833     B33        1
    X1834     COST       6
    X1834     A18        1
    X1834     G1834      1
    X1834     B34        1
    X1835     COST       6
    X1835     A18        1
    X1835     G1835      1
    X1835     B35        1
    X1836     COST       7
    X1836     A18        1
    X1836     G1836      1
    X1836     B36        1
    X1837     COST       3
    X1837     A18        1
    X1837     G1837      1
    X1837     B37        1
    X1838     COST       6
    X1838     A18        1
    X1838     G1838      1
    X1838     B38        1
    X1839     COST       8
    X1839     A18        1
    X1839     G1839      1
    X1839     B39        1
    X1840     COST       8
    X1840     A18        1
    X1840     G1840      1
    X1840     B40        1
    X1841     COST       3
    X1841     A18        1
    X1841     G1841      1
    X1841     B41        1
    X1842     COST       4
    X1842     A18        1
    X1842     G1842      1
    X1842     B42        1
    X1843     COST       8
    X1843     A18        1
    X1843     G1843      1
    X1843     B43        1
    X1844     COST       8
    X1844     A18        1
    X1844     G1844      1
    X1844     B44        1
    X1845     COST       8
    X1845     A18        1
    X1845     G1845      1
    X1845     B45        1
    X1846     COST       7
    X1846     A18        1
    X1846     G1846      1
    X1846     B46        1
    X1847     COST       3
    X1847     A18        1
    X1847     G1847      1
    X1847     B47        1
    X1848     COST       8
    X1848     A18        1
    X1848     G1848      1
    X1848     B48        1
    X1849     COST       8
    X1849     A18        1
    X1849     G1849      1
    X1849     B49        1
    X1850     COST       7
    X1850     A18        1
    X1850     G1850      1
    X1850     B50        1
    X1851     COST       8
    X1851     A18        1
    X1851     G1851      1
    X1851     B51        1
    X1852     COST       4
    X1852     A18        1
    X1852     G1852      1
    X1852     B52        1
    X1853     COST       3
    X1853     A18        1
    X1853     G1853      1
    X1853     B53        1
    X1854     COST       8
    X1854     A18        1
    X1854     G1854      1
    X1854     B54        1
    X1855     COST       4
    X1855     A18        1
    X1855     G1855      1
    X1855     B55        1
    X1856     COST       6
    X1856     A18        1
    X1856     G1856      1
    X1856     B56        1
    X1857     COST       7
    X1857     A18        1
    X1857     G1857      1
    X1857     B57        1
    X1858     COST       4
    X1858     A18        1
    X1858     G1858      1
    X1858     B58        1
    X1859     COST       6
    X1859     A18        1
    X1859     G1859      1
    X1859     B59        1
    X1860     COST       4
    X1860     A18        1
    X1860     G1860      1
    X1860     B60        1
    X1861     COST       5
    X1861     A18        1
    X1861     G1861      1
    X1861     B61        1
    X1862     COST       5
    X1862     A18        1
    X1862     G1862      1
    X1862     B62        1
    X1863     COST       5
    X1863     A18        1
    X1863     G1863      1
    X1863     B63        1
    X1864     COST       8
    X1864     A18        1
    X1864     G1864      1
    X1864     B64        1
    X1865     COST       8
    X1865     A18        1
    X1865     G1865      1
    X1865     B65        1
    X1866     COST       5
    X1866     A18        1
    X1866     G1866      1
    X1866     B66        1
    X1867     COST       5
    X1867     A18        1
    X1867     G1867      1
    X1867     B67        1
    X1868     COST       6
    X1868     A18        1
    X1868     G1868      1
    X1868     B68        1
    X1869     COST       3
    X1869     A18        1
    X1869     G1869      1
    X1869     B69        1
    X1870     COST       4
    X1870     A18        1
    X1870     G1870      1
    X1870     B70        1
    X1871     COST       4
    X1871     A18        1
    X1871     G1871      1
    X1871     B71        1
    X1872     COST       3
    X1872     A18        1
    X1872     G1872      1
    X1872     B72        1
    X1873     COST       8
    X1873     A18        1
    X1873     G1873      1
    X1873     B73        1
    X1874     COST       3
    X1874     A18        1
    X1874     G1874      1
    X1874     B74        1
    X1875     COST       5
    X1875     A18        1
    X1875     G1875      1
    X1875     B75        1
    X1876     COST       5
    X1876     A18        1
    X1876     G1876      1
    X1876     B76        1
    X1877     COST       4
    X1877     A18        1
    X1877     G1877      1
    X1877     B77        1
    X1878     COST       6
    X1878     A18        1
    X1878     G1878      1
    X1878     B78        1
    X1879     COST       6
    X1879     A18        1
    X1879     G1879      1
    X1879     B79        1
    X1880     COST       7
    X1880     A18        1
    X1880     G1880      1
    X1880     B80        1
    X1881     COST       7
    X1881     A18        1
    X1881     G1881      1
    X1881     B81        1
    X1882     COST       4
    X1882     A18        1
    X1882     G1882      1
    X1882     B82        1
    X1883     COST       5
    X1883     A18        1
    X1883     G1883      1
    X1883     B83        1
    X1884     COST       7
    X1884     A18        1
    X1884     G1884      1
    X1884     B84        1
    X1885     COST       5
    X1885     A18        1
    X1885     G1885      1
    X1885     B85        1
    X1886     COST       6
    X1886     A18        1
    X1886     G1886      1
    X1886     B86        1
    X1887     COST       7
    X1887     A18        1
    X1887     G1887      1
    X1887     B87        1
    X1888     COST       5
    X1888     A18        1
    X1888     G1888      1
    X1888     B88        1
    X1889     COST       4
    X1889     A18        1
    X1889     G1889      1
    X1889     B89        1
    X1890     COST       7
    X1890     A18        1
    X1890     G1890      1
    X1890     B90        1
    X1891     COST       6
    X1891     A18        1
    X1891     G1891      1
    X1891     B91        1
    X1892     COST       5
    X1892     A18        1
    X1892     G1892      1
    X1892     B92        1
    X1893     COST       7
    X1893     A18        1
    X1893     G1893      1
    X1893     B93        1
    X1894     COST       6
    X1894     A18        1
    X1894     G1894      1
    X1894     B94        1
    X1895     COST       7
    X1895     A18        1
    X1895     G1895      1
    X1895     B95        1
    X1896     COST       5
    X1896     A18        1
    X1896     G1896      1
    X1896     B96        1
    X1897     COST       7
    X1897     A18        1
    X1897     G1897      1
    X1897     B97        1
    X1898     COST       5
    X1898     A18        1
    X1898     G1898      1
    X1898     B98        1
    X1899     COST       7
    X1899     A18        1
    X1899     G1899      1
    X1899     B99        1
    X1900     COST       3
    X1900     A19        1
    X1900     G1900      1
    X1900     B0         1
    X1901     COST       7
    X1901     A19        1
    X1901     G1901      1
    X1901     B1         1
    X1902     COST       8
    X1902     A19        1
    X1902     G1902      1
    X1902     B2         1
    X1903     COST       5
    X1903     A19        1
    X1903     G1903      1
    X1903     B3         1
    X1904     COST       5
    X1904     A19        1
    X1904     G1904      1
    X1904     B4         1
    X1905     COST       4
    X1905     A19        1
    X1905     G1905      1
    X1905     B5         1
    X1906     COST       8
    X1906     A19        1
    X1906     G1906      1
    X1906     B6         1
    X1907     COST       7
    X1907     A19        1
    X1907     G1907      1
    X1907     B7         1
    X1908     COST       6
    X1908     A19        1
    X1908     G1908      1
    X1908     B8         1
    X1909     COST       5
    X1909     A19        1
    X1909     G1909      1
    X1909     B9         1
    X1910     COST       4
    X1910     A19        1
    X1910     G1910      1
    X1910     B10        1
    X1911     COST       6
    X1911     A19        1
    X1911     G1911      1
    X1911     B11        1
    X1912     COST       3
    X1912     A19        1
    X1912     G1912      1
    X1912     B12        1
    X1913     COST       8
    X1913     A19        1
    X1913     G1913      1
    X1913     B13        1
    X1914     COST       5
    X1914     A19        1
    X1914     G1914      1
    X1914     B14        1
    X1915     COST       6
    X1915     A19        1
    X1915     G1915      1
    X1915     B15        1
    X1916     COST       3
    X1916     A19        1
    X1916     G1916      1
    X1916     B16        1
    X1917     COST       8
    X1917     A19        1
    X1917     G1917      1
    X1917     B17        1
    X1918     COST       3
    X1918     A19        1
    X1918     G1918      1
    X1918     B18        1
    X1919     COST       8
    X1919     A19        1
    X1919     G1919      1
    X1919     B19        1
    X1920     COST       3
    X1920     A19        1
    X1920     G1920      1
    X1920     B20        1
    X1921     COST       5
    X1921     A19        1
    X1921     G1921      1
    X1921     B21        1
    X1922     COST       5
    X1922     A19        1
    X1922     G1922      1
    X1922     B22        1
    X1923     COST       6
    X1923     A19        1
    X1923     G1923      1
    X1923     B23        1
    X1924     COST       3
    X1924     A19        1
    X1924     G1924      1
    X1924     B24        1
    X1925     COST       4
    X1925     A19        1
    X1925     G1925      1
    X1925     B25        1
    X1926     COST       7
    X1926     A19        1
    X1926     G1926      1
    X1926     B26        1
    X1927     COST       4
    X1927     A19        1
    X1927     G1927      1
    X1927     B27        1
    X1928     COST       3
    X1928     A19        1
    X1928     G1928      1
    X1928     B28        1
    X1929     COST       8
    X1929     A19        1
    X1929     G1929      1
    X1929     B29        1
    X1930     COST       7
    X1930     A19        1
    X1930     G1930      1
    X1930     B30        1
    X1931     COST       4
    X1931     A19        1
    X1931     G1931      1
    X1931     B31        1
    X1932     COST       7
    X1932     A19        1
    X1932     G1932      1
    X1932     B32        1
    X1933     COST       4
    X1933     A19        1
    X1933     G1933      1
    X1933     B33        1
    X1934     COST       8
    X1934     A19        1
    X1934     G1934      1
    X1934     B34        1
    X1935     COST       4
    X1935     A19        1
    X1935     G1935      1
    X1935     B35        1
    X1936     COST       8
    X1936     A19        1
    X1936     G1936      1
    X1936     B36        1
    X1937     COST       4
    X1937     A19        1
    X1937     G1937      1
    X1937     B37        1
    X1938     COST       5
    X1938     A19        1
    X1938     G1938      1
    X1938     B38        1
    X1939     COST       8
    X1939     A19        1
    X1939     G1939      1
    X1939     B39        1
    X1940     COST       7
    X1940     A19        1
    X1940     G1940      1
    X1940     B40        1
    X1941     COST       4
    X1941     A19        1
    X1941     G1941      1
    X1941     B41        1
    X1942     COST       8
    X1942     A19        1
    X1942     G1942      1
    X1942     B42        1
    X1943     COST       3
    X1943     A19        1
    X1943     G1943      1
    X1943     B43        1
    X1944     COST       4
    X1944     A19        1
    X1944     G1944      1
    X1944     B44        1
    X1945     COST       7
    X1945     A19        1
    X1945     G1945      1
    X1945     B45        1
    X1946     COST       8
    X1946     A19        1
    X1946     G1946      1
    X1946     B46        1
    X1947     COST       4
    X1947     A19        1
    X1947     G1947      1
    X1947     B47        1
    X1948     COST       4
    X1948     A19        1
    X1948     G1948      1
    X1948     B48        1
    X1949     COST       4
    X1949     A19        1
    X1949     G1949      1
    X1949     B49        1
    X1950     COST       8
    X1950     A19        1
    X1950     G1950      1
    X1950     B50        1
    X1951     COST       6
    X1951     A19        1
    X1951     G1951      1
    X1951     B51        1
    X1952     COST       7
    X1952     A19        1
    X1952     G1952      1
    X1952     B52        1
    X1953     COST       4
    X1953     A19        1
    X1953     G1953      1
    X1953     B53        1
    X1954     COST       8
    X1954     A19        1
    X1954     G1954      1
    X1954     B54        1
    X1955     COST       6
    X1955     A19        1
    X1955     G1955      1
    X1955     B55        1
    X1956     COST       6
    X1956     A19        1
    X1956     G1956      1
    X1956     B56        1
    X1957     COST       5
    X1957     A19        1
    X1957     G1957      1
    X1957     B57        1
    X1958     COST       6
    X1958     A19        1
    X1958     G1958      1
    X1958     B58        1
    X1959     COST       5
    X1959     A19        1
    X1959     G1959      1
    X1959     B59        1
    X1960     COST       6
    X1960     A19        1
    X1960     G1960      1
    X1960     B60        1
    X1961     COST       7
    X1961     A19        1
    X1961     G1961      1
    X1961     B61        1
    X1962     COST       3
    X1962     A19        1
    X1962     G1962      1
    X1962     B62        1
    X1963     COST       5
    X1963     A19        1
    X1963     G1963      1
    X1963     B63        1
    X1964     COST       5
    X1964     A19        1
    X1964     G1964      1
    X1964     B64        1
    X1965     COST       6
    X1965     A19        1
    X1965     G1965      1
    X1965     B65        1
    X1966     COST       6
    X1966     A19        1
    X1966     G1966      1
    X1966     B66        1
    X1967     COST       8
    X1967     A19        1
    X1967     G1967      1
    X1967     B67        1
    X1968     COST       6
    X1968     A19        1
    X1968     G1968      1
    X1968     B68        1
    X1969     COST       8
    X1969     A19        1
    X1969     G1969      1
    X1969     B69        1
    X1970     COST       6
    X1970     A19        1
    X1970     G1970      1
    X1970     B70        1
    X1971     COST       3
    X1971     A19        1
    X1971     G1971      1
    X1971     B71        1
    X1972     COST       4
    X1972     A19        1
    X1972     G1972      1
    X1972     B72        1
    X1973     COST       8
    X1973     A19        1
    X1973     G1973      1
    X1973     B73        1
    X1974     COST       5
    X1974     A19        1
    X1974     G1974      1
    X1974     B74        1
    X1975     COST       6
    X1975     A19        1
    X1975     G1975      1
    X1975     B75        1
    X1976     COST       5
    X1976     A19        1
    X1976     G1976      1
    X1976     B76        1
    X1977     COST       4
    X1977     A19        1
    X1977     G1977      1
    X1977     B77        1
    X1978     COST       4
    X1978     A19        1
    X1978     G1978      1
    X1978     B78        1
    X1979     COST       5
    X1979     A19        1
    X1979     G1979      1
    X1979     B79        1
    X1980     COST       5
    X1980     A19        1
    X1980     G1980      1
    X1980     B80        1
    X1981     COST       5
    X1981     A19        1
    X1981     G1981      1
    X1981     B81        1
    X1982     COST       7
    X1982     A19        1
    X1982     G1982      1
    X1982     B82        1
    X1983     COST       3
    X1983     A19        1
    X1983     G1983      1
    X1983     B83        1
    X1984     COST       5
    X1984     A19        1
    X1984     G1984      1
    X1984     B84        1
    X1985     COST       4
    X1985     A19        1
    X1985     G1985      1
    X1985     B85        1
    X1986     COST       5
    X1986     A19        1
    X1986     G1986      1
    X1986     B86        1
    X1987     COST       4
    X1987     A19        1
    X1987     G1987      1
    X1987     B87        1
    X1988     COST       6
    X1988     A19        1
    X1988     G1988      1
    X1988     B88        1
    X1989     COST       7
    X1989     A19        1
    X1989     G1989      1
    X1989     B89        1
    X1990     COST       6
    X1990     A19        1
    X1990     G1990      1
    X1990     B90        1
    X1991     COST       6
    X1991     A19        1
    X1991     G1991      1
    X1991     B91        1
    X1992     COST       4
    X1992     A19        1
    X1992     G1992      1
    X1992     B92        1
    X1993     COST       5
    X1993     A19        1
    X1993     G1993      1
    X1993     B93        1
    X1994     COST       5
    X1994     A19        1
    X1994     G1994      1
    X1994     B94        1
    X1995     COST       4
    X1995     A19        1
    X1995     G1995      1
    X1995     B95        1
    X1996     COST       4
    X1996     A19        1
    X1996     G1996      1
    X1996     B96        1
    X1997     COST       5
    X1997     A19        1
    X1997     G1997      1
    X1997     B97        1
    X1998     COST       7
    X1998     A19        1
    X1998     G1998      1
    X1998     B98        1
    X1999     COST       5
    X1999     A19        1
    X1999     G1999      1
    X1999     B99        1
    X2000     COST       3
    X2000     A20        1
    X2000     G2000      1
    X2000     B0         1
    X2001     COST       3
    X2001     A20        1
    X2001     G2001      1
    X2001     B1         1
    X2002     COST       3
    X2002     A20        1
    X2002     G2002      1
    X2002     B2         1
    X2003     COST       6
    X2003     A20        1
    X2003     G2003      1
    X2003     B3         1
    X2004     COST       5
    X2004     A20        1
    X2004     G2004      1
    X2004     B4         1
    X2005     COST       8
    X2005     A20        1
    X2005     G2005      1
    X2005     B5         1
    X2006     COST       4
    X2006     A20        1
    X2006     G2006      1
    X2006     B6         1
    X2007     COST       4
    X2007     A20        1
    X2007     G2007      1
    X2007     B7         1
    X2008     COST       4
    X2008     A20        1
    X2008     G2008      1
    X2008     B8         1
    X2009     COST       8
    X2009     A20        1
    X2009     G2009      1
    X2009     B9         1
    X2010     COST       3
    X2010     A20        1
    X2010     G2010      1
    X2010     B10        1
    X2011     COST       5
    X2011     A20        1
    X2011     G2011      1
    X2011     B11        1
    X2012     COST       3
    X2012     A20        1
    X2012     G2012      1
    X2012     B12        1
    X2013     COST       6
    X2013     A20        1
    X2013     G2013      1
    X2013     B13        1
    X2014     COST       8
    X2014     A20        1
    X2014     G2014      1
    X2014     B14        1
    X2015     COST       6
    X2015     A20        1
    X2015     G2015      1
    X2015     B15        1
    X2016     COST       5
    X2016     A20        1
    X2016     G2016      1
    X2016     B16        1
    X2017     COST       3
    X2017     A20        1
    X2017     G2017      1
    X2017     B17        1
    X2018     COST       3
    X2018     A20        1
    X2018     G2018      1
    X2018     B18        1
    X2019     COST       8
    X2019     A20        1
    X2019     G2019      1
    X2019     B19        1
    X2020     COST       6
    X2020     A20        1
    X2020     G2020      1
    X2020     B20        1
    X2021     COST       8
    X2021     A20        1
    X2021     G2021      1
    X2021     B21        1
    X2022     COST       7
    X2022     A20        1
    X2022     G2022      1
    X2022     B22        1
    X2023     COST       6
    X2023     A20        1
    X2023     G2023      1
    X2023     B23        1
    X2024     COST       8
    X2024     A20        1
    X2024     G2024      1
    X2024     B24        1
    X2025     COST       4
    X2025     A20        1
    X2025     G2025      1
    X2025     B25        1
    X2026     COST       8
    X2026     A20        1
    X2026     G2026      1
    X2026     B26        1
    X2027     COST       3
    X2027     A20        1
    X2027     G2027      1
    X2027     B27        1
    X2028     COST       3
    X2028     A20        1
    X2028     G2028      1
    X2028     B28        1
    X2029     COST       7
    X2029     A20        1
    X2029     G2029      1
    X2029     B29        1
    X2030     COST       3
    X2030     A20        1
    X2030     G2030      1
    X2030     B30        1
    X2031     COST       7
    X2031     A20        1
    X2031     G2031      1
    X2031     B31        1
    X2032     COST       8
    X2032     A20        1
    X2032     G2032      1
    X2032     B32        1
    X2033     COST       7
    X2033     A20        1
    X2033     G2033      1
    X2033     B33        1
    X2034     COST       8
    X2034     A20        1
    X2034     G2034      1
    X2034     B34        1
    X2035     COST       3
    X2035     A20        1
    X2035     G2035      1
    X2035     B35        1
    X2036     COST       7
    X2036     A20        1
    X2036     G2036      1
    X2036     B36        1
    X2037     COST       7
    X2037     A20        1
    X2037     G2037      1
    X2037     B37        1
    X2038     COST       7
    X2038     A20        1
    X2038     G2038      1
    X2038     B38        1
    X2039     COST       4
    X2039     A20        1
    X2039     G2039      1
    X2039     B39        1
    X2040     COST       3
    X2040     A20        1
    X2040     G2040      1
    X2040     B40        1
    X2041     COST       7
    X2041     A20        1
    X2041     G2041      1
    X2041     B41        1
    X2042     COST       3
    X2042     A20        1
    X2042     G2042      1
    X2042     B42        1
    X2043     COST       8
    X2043     A20        1
    X2043     G2043      1
    X2043     B43        1
    X2044     COST       7
    X2044     A20        1
    X2044     G2044      1
    X2044     B44        1
    X2045     COST       8
    X2045     A20        1
    X2045     G2045      1
    X2045     B45        1
    X2046     COST       4
    X2046     A20        1
    X2046     G2046      1
    X2046     B46        1
    X2047     COST       3
    X2047     A20        1
    X2047     G2047      1
    X2047     B47        1
    X2048     COST       7
    X2048     A20        1
    X2048     G2048      1
    X2048     B48        1
    X2049     COST       5
    X2049     A20        1
    X2049     G2049      1
    X2049     B49        1
    X2050     COST       4
    X2050     A20        1
    X2050     G2050      1
    X2050     B50        1
    X2051     COST       3
    X2051     A20        1
    X2051     G2051      1
    X2051     B51        1
    X2052     COST       3
    X2052     A20        1
    X2052     G2052      1
    X2052     B52        1
    X2053     COST       8
    X2053     A20        1
    X2053     G2053      1
    X2053     B53        1
    X2054     COST       5
    X2054     A20        1
    X2054     G2054      1
    X2054     B54        1
    X2055     COST       7
    X2055     A20        1
    X2055     G2055      1
    X2055     B55        1
    X2056     COST       5
    X2056     A20        1
    X2056     G2056      1
    X2056     B56        1
    X2057     COST       6
    X2057     A20        1
    X2057     G2057      1
    X2057     B57        1
    X2058     COST       5
    X2058     A20        1
    X2058     G2058      1
    X2058     B58        1
    X2059     COST       5
    X2059     A20        1
    X2059     G2059      1
    X2059     B59        1
    X2060     COST       8
    X2060     A20        1
    X2060     G2060      1
    X2060     B60        1
    X2061     COST       5
    X2061     A20        1
    X2061     G2061      1
    X2061     B61        1
    X2062     COST       8
    X2062     A20        1
    X2062     G2062      1
    X2062     B62        1
    X2063     COST       5
    X2063     A20        1
    X2063     G2063      1
    X2063     B63        1
    X2064     COST       7
    X2064     A20        1
    X2064     G2064      1
    X2064     B64        1
    X2065     COST       4
    X2065     A20        1
    X2065     G2065      1
    X2065     B65        1
    X2066     COST       3
    X2066     A20        1
    X2066     G2066      1
    X2066     B66        1
    X2067     COST       3
    X2067     A20        1
    X2067     G2067      1
    X2067     B67        1
    X2068     COST       6
    X2068     A20        1
    X2068     G2068      1
    X2068     B68        1
    X2069     COST       6
    X2069     A20        1
    X2069     G2069      1
    X2069     B69        1
    X2070     COST       6
    X2070     A20        1
    X2070     G2070      1
    X2070     B70        1
    X2071     COST       8
    X2071     A20        1
    X2071     G2071      1
    X2071     B71        1
    X2072     COST       4
    X2072     A20        1
    X2072     G2072      1
    X2072     B72        1
    X2073     COST       6
    X2073     A20        1
    X2073     G2073      1
    X2073     B73        1
    X2074     COST       8
    X2074     A20        1
    X2074     G2074      1
    X2074     B74        1
    X2075     COST       7
    X2075     A20        1
    X2075     G2075      1
    X2075     B75        1
    X2076     COST       7
    X2076     A20        1
    X2076     G2076      1
    X2076     B76        1
    X2077     COST       5
    X2077     A20        1
    X2077     G2077      1
    X2077     B77        1
    X2078     COST       5
    X2078     A20        1
    X2078     G2078      1
    X2078     B78        1
    X2079     COST       7
    X2079     A20        1
    X2079     G2079      1
    X2079     B79        1
    X2080     COST       4
    X2080     A20        1
    X2080     G2080      1
    X2080     B80        1
    X2081     COST       5
    X2081     A20        1
    X2081     G2081      1
    X2081     B81        1
    X2082     COST       7
    X2082     A20        1
    X2082     G2082      1
    X2082     B82        1
    X2083     COST       7
    X2083     A20        1
    X2083     G2083      1
    X2083     B83        1
    X2084     COST       7
    X2084     A20        1
    X2084     G2084      1
    X2084     B84        1
    X2085     COST       4
    X2085     A20        1
    X2085     G2085      1
    X2085     B85        1
    X2086     COST       5
    X2086     A20        1
    X2086     G2086      1
    X2086     B86        1
    X2087     COST       8
    X2087     A20        1
    X2087     G2087      1
    X2087     B87        1
    X2088     COST       8
    X2088     A20        1
    X2088     G2088      1
    X2088     B88        1
    X2089     COST       7
    X2089     A20        1
    X2089     G2089      1
    X2089     B89        1
    X2090     COST       4
    X2090     A20        1
    X2090     G2090      1
    X2090     B90        1
    X2091     COST       8
    X2091     A20        1
    X2091     G2091      1
    X2091     B91        1
    X2092     COST       4
    X2092     A20        1
    X2092     G2092      1
    X2092     B92        1
    X2093     COST       4
    X2093     A20        1
    X2093     G2093      1
    X2093     B93        1
    X2094     COST       6
    X2094     A20        1
    X2094     G2094      1
    X2094     B94        1
    X2095     COST       7
    X2095     A20        1
    X2095     G2095      1
    X2095     B95        1
    X2096     COST       6
    X2096     A20        1
    X2096     G2096      1
    X2096     B96        1
    X2097     COST       5
    X2097     A20        1
    X2097     G2097      1
    X2097     B97        1
    X2098     COST       6
    X2098     A20        1
    X2098     G2098      1
    X2098     B98        1
    X2099     COST       8
    X2099     A20        1
    X2099     G2099      1
    X2099     B99        1
    X2100     COST       8
    X2100     A21        1
    X2100     G2100      1
    X2100     B0         1
    X2101     COST       4
    X2101     A21        1
    X2101     G2101      1
    X2101     B1         1
    X2102     COST       3
    X2102     A21        1
    X2102     G2102      1
    X2102     B2         1
    X2103     COST       8
    X2103     A21        1
    X2103     G2103      1
    X2103     B3         1
    X2104     COST       3
    X2104     A21        1
    X2104     G2104      1
    X2104     B4         1
    X2105     COST       3
    X2105     A21        1
    X2105     G2105      1
    X2105     B5         1
    X2106     COST       3
    X2106     A21        1
    X2106     G2106      1
    X2106     B6         1
    X2107     COST       6
    X2107     A21        1
    X2107     G2107      1
    X2107     B7         1
    X2108     COST       3
    X2108     A21        1
    X2108     G2108      1
    X2108     B8         1
    X2109     COST       8
    X2109     A21        1
    X2109     G2109      1
    X2109     B9         1
    X2110     COST       3
    X2110     A21        1
    X2110     G2110      1
    X2110     B10        1
    X2111     COST       3
    X2111     A21        1
    X2111     G2111      1
    X2111     B11        1
    X2112     COST       8
    X2112     A21        1
    X2112     G2112      1
    X2112     B12        1
    X2113     COST       8
    X2113     A21        1
    X2113     G2113      1
    X2113     B13        1
    X2114     COST       8
    X2114     A21        1
    X2114     G2114      1
    X2114     B14        1
    X2115     COST       3
    X2115     A21        1
    X2115     G2115      1
    X2115     B15        1
    X2116     COST       8
    X2116     A21        1
    X2116     G2116      1
    X2116     B16        1
    X2117     COST       5
    X2117     A21        1
    X2117     G2117      1
    X2117     B17        1
    X2118     COST       6
    X2118     A21        1
    X2118     G2118      1
    X2118     B18        1
    X2119     COST       4
    X2119     A21        1
    X2119     G2119      1
    X2119     B19        1
    X2120     COST       5
    X2120     A21        1
    X2120     G2120      1
    X2120     B20        1
    X2121     COST       3
    X2121     A21        1
    X2121     G2121      1
    X2121     B21        1
    X2122     COST       6
    X2122     A21        1
    X2122     G2122      1
    X2122     B22        1
    X2123     COST       5
    X2123     A21        1
    X2123     G2123      1
    X2123     B23        1
    X2124     COST       8
    X2124     A21        1
    X2124     G2124      1
    X2124     B24        1
    X2125     COST       4
    X2125     A21        1
    X2125     G2125      1
    X2125     B25        1
    X2126     COST       8
    X2126     A21        1
    X2126     G2126      1
    X2126     B26        1
    X2127     COST       7
    X2127     A21        1
    X2127     G2127      1
    X2127     B27        1
    X2128     COST       4
    X2128     A21        1
    X2128     G2128      1
    X2128     B28        1
    X2129     COST       6
    X2129     A21        1
    X2129     G2129      1
    X2129     B29        1
    X2130     COST       8
    X2130     A21        1
    X2130     G2130      1
    X2130     B30        1
    X2131     COST       4
    X2131     A21        1
    X2131     G2131      1
    X2131     B31        1
    X2132     COST       8
    X2132     A21        1
    X2132     G2132      1
    X2132     B32        1
    X2133     COST       8
    X2133     A21        1
    X2133     G2133      1
    X2133     B33        1
    X2134     COST       4
    X2134     A21        1
    X2134     G2134      1
    X2134     B34        1
    X2135     COST       7
    X2135     A21        1
    X2135     G2135      1
    X2135     B35        1
    X2136     COST       8
    X2136     A21        1
    X2136     G2136      1
    X2136     B36        1
    X2137     COST       4
    X2137     A21        1
    X2137     G2137      1
    X2137     B37        1
    X2138     COST       4
    X2138     A21        1
    X2138     G2138      1
    X2138     B38        1
    X2139     COST       3
    X2139     A21        1
    X2139     G2139      1
    X2139     B39        1
    X2140     COST       4
    X2140     A21        1
    X2140     G2140      1
    X2140     B40        1
    X2141     COST       8
    X2141     A21        1
    X2141     G2141      1
    X2141     B41        1
    X2142     COST       8
    X2142     A21        1
    X2142     G2142      1
    X2142     B42        1
    X2143     COST       8
    X2143     A21        1
    X2143     G2143      1
    X2143     B43        1
    X2144     COST       7
    X2144     A21        1
    X2144     G2144      1
    X2144     B44        1
    X2145     COST       3
    X2145     A21        1
    X2145     G2145      1
    X2145     B45        1
    X2146     COST       7
    X2146     A21        1
    X2146     G2146      1
    X2146     B46        1
    X2147     COST       4
    X2147     A21        1
    X2147     G2147      1
    X2147     B47        1
    X2148     COST       4
    X2148     A21        1
    X2148     G2148      1
    X2148     B48        1
    X2149     COST       8
    X2149     A21        1
    X2149     G2149      1
    X2149     B49        1
    X2150     COST       4
    X2150     A21        1
    X2150     G2150      1
    X2150     B50        1
    X2151     COST       7
    X2151     A21        1
    X2151     G2151      1
    X2151     B51        1
    X2152     COST       3
    X2152     A21        1
    X2152     G2152      1
    X2152     B52        1
    X2153     COST       6
    X2153     A21        1
    X2153     G2153      1
    X2153     B53        1
    X2154     COST       6
    X2154     A21        1
    X2154     G2154      1
    X2154     B54        1
    X2155     COST       7
    X2155     A21        1
    X2155     G2155      1
    X2155     B55        1
    X2156     COST       5
    X2156     A21        1
    X2156     G2156      1
    X2156     B56        1
    X2157     COST       5
    X2157     A21        1
    X2157     G2157      1
    X2157     B57        1
    X2158     COST       7
    X2158     A21        1
    X2158     G2158      1
    X2158     B58        1
    X2159     COST       5
    X2159     A21        1
    X2159     G2159      1
    X2159     B59        1
    X2160     COST       6
    X2160     A21        1
    X2160     G2160      1
    X2160     B60        1
    X2161     COST       3
    X2161     A21        1
    X2161     G2161      1
    X2161     B61        1
    X2162     COST       5
    X2162     A21        1
    X2162     G2162      1
    X2162     B62        1
    X2163     COST       3
    X2163     A21        1
    X2163     G2163      1
    X2163     B63        1
    X2164     COST       3
    X2164     A21        1
    X2164     G2164      1
    X2164     B64        1
    X2165     COST       5
    X2165     A21        1
    X2165     G2165      1
    X2165     B65        1
    X2166     COST       5
    X2166     A21        1
    X2166     G2166      1
    X2166     B66        1
    X2167     COST       6
    X2167     A21        1
    X2167     G2167      1
    X2167     B67        1
    X2168     COST       3
    X2168     A21        1
    X2168     G2168      1
    X2168     B68        1
    X2169     COST       5
    X2169     A21        1
    X2169     G2169      1
    X2169     B69        1
    X2170     COST       4
    X2170     A21        1
    X2170     G2170      1
    X2170     B70        1
    X2171     COST       3
    X2171     A21        1
    X2171     G2171      1
    X2171     B71        1
    X2172     COST       5
    X2172     A21        1
    X2172     G2172      1
    X2172     B72        1
    X2173     COST       6
    X2173     A21        1
    X2173     G2173      1
    X2173     B73        1
    X2174     COST       5
    X2174     A21        1
    X2174     G2174      1
    X2174     B74        1
    X2175     COST       5
    X2175     A21        1
    X2175     G2175      1
    X2175     B75        1
    X2176     COST       6
    X2176     A21        1
    X2176     G2176      1
    X2176     B76        1
    X2177     COST       4
    X2177     A21        1
    X2177     G2177      1
    X2177     B77        1
    X2178     COST       4
    X2178     A21        1
    X2178     G2178      1
    X2178     B78        1
    X2179     COST       4
    X2179     A21        1
    X2179     G2179      1
    X2179     B79        1
    X2180     COST       6
    X2180     A21        1
    X2180     G2180      1
    X2180     B80        1
    X2181     COST       7
    X2181     A21        1
    X2181     G2181      1
    X2181     B81        1
    X2182     COST       5
    X2182     A21        1
    X2182     G2182      1
    X2182     B82        1
    X2183     COST       5
    X2183     A21        1
    X2183     G2183      1
    X2183     B83        1
    X2184     COST       4
    X2184     A21        1
    X2184     G2184      1
    X2184     B84        1
    X2185     COST       6
    X2185     A21        1
    X2185     G2185      1
    X2185     B85        1
    X2186     COST       4
    X2186     A21        1
    X2186     G2186      1
    X2186     B86        1
    X2187     COST       5
    X2187     A21        1
    X2187     G2187      1
    X2187     B87        1
    X2188     COST       6
    X2188     A21        1
    X2188     G2188      1
    X2188     B88        1
    X2189     COST       5
    X2189     A21        1
    X2189     G2189      1
    X2189     B89        1
    X2190     COST       4
    X2190     A21        1
    X2190     G2190      1
    X2190     B90        1
    X2191     COST       4
    X2191     A21        1
    X2191     G2191      1
    X2191     B91        1
    X2192     COST       4
    X2192     A21        1
    X2192     G2192      1
    X2192     B92        1
    X2193     COST       5
    X2193     A21        1
    X2193     G2193      1
    X2193     B93        1
    X2194     COST       5
    X2194     A21        1
    X2194     G2194      1
    X2194     B94        1
    X2195     COST       7
    X2195     A21        1
    X2195     G2195      1
    X2195     B95        1
    X2196     COST       7
    X2196     A21        1
    X2196     G2196      1
    X2196     B96        1
    X2197     COST       5
    X2197     A21        1
    X2197     G2197      1
    X2197     B97        1
    X2198     COST       6
    X2198     A21        1
    X2198     G2198      1
    X2198     B98        1
    X2199     COST       4
    X2199     A21        1
    X2199     G2199      1
    X2199     B99        1
    X2200     COST       6
    X2200     A22        1
    X2200     G2200      1
    X2200     B0         1
    X2201     COST       4
    X2201     A22        1
    X2201     G2201      1
    X2201     B1         1
    X2202     COST       5
    X2202     A22        1
    X2202     G2202      1
    X2202     B2         1
    X2203     COST       5
    X2203     A22        1
    X2203     G2203      1
    X2203     B3         1
    X2204     COST       5
    X2204     A22        1
    X2204     G2204      1
    X2204     B4         1
    X2205     COST       3
    X2205     A22        1
    X2205     G2205      1
    X2205     B5         1
    X2206     COST       8
    X2206     A22        1
    X2206     G2206      1
    X2206     B6         1
    X2207     COST       3
    X2207     A22        1
    X2207     G2207      1
    X2207     B7         1
    X2208     COST       8
    X2208     A22        1
    X2208     G2208      1
    X2208     B8         1
    X2209     COST       3
    X2209     A22        1
    X2209     G2209      1
    X2209     B9         1
    X2210     COST       8
    X2210     A22        1
    X2210     G2210      1
    X2210     B10        1
    X2211     COST       8
    X2211     A22        1
    X2211     G2211      1
    X2211     B11        1
    X2212     COST       5
    X2212     A22        1
    X2212     G2212      1
    X2212     B12        1
    X2213     COST       5
    X2213     A22        1
    X2213     G2213      1
    X2213     B13        1
    X2214     COST       8
    X2214     A22        1
    X2214     G2214      1
    X2214     B14        1
    X2215     COST       5
    X2215     A22        1
    X2215     G2215      1
    X2215     B15        1
    X2216     COST       3
    X2216     A22        1
    X2216     G2216      1
    X2216     B16        1
    X2217     COST       3
    X2217     A22        1
    X2217     G2217      1
    X2217     B17        1
    X2218     COST       6
    X2218     A22        1
    X2218     G2218      1
    X2218     B18        1
    X2219     COST       5
    X2219     A22        1
    X2219     G2219      1
    X2219     B19        1
    X2220     COST       3
    X2220     A22        1
    X2220     G2220      1
    X2220     B20        1
    X2221     COST       6
    X2221     A22        1
    X2221     G2221      1
    X2221     B21        1
    X2222     COST       6
    X2222     A22        1
    X2222     G2222      1
    X2222     B22        1
    X2223     COST       5
    X2223     A22        1
    X2223     G2223      1
    X2223     B23        1
    X2224     COST       6
    X2224     A22        1
    X2224     G2224      1
    X2224     B24        1
    X2225     COST       4
    X2225     A22        1
    X2225     G2225      1
    X2225     B25        1
    X2226     COST       8
    X2226     A22        1
    X2226     G2226      1
    X2226     B26        1
    X2227     COST       4
    X2227     A22        1
    X2227     G2227      1
    X2227     B27        1
    X2228     COST       7
    X2228     A22        1
    X2228     G2228      1
    X2228     B28        1
    X2229     COST       3
    X2229     A22        1
    X2229     G2229      1
    X2229     B29        1
    X2230     COST       7
    X2230     A22        1
    X2230     G2230      1
    X2230     B30        1
    X2231     COST       3
    X2231     A22        1
    X2231     G2231      1
    X2231     B31        1
    X2232     COST       7
    X2232     A22        1
    X2232     G2232      1
    X2232     B32        1
    X2233     COST       6
    X2233     A22        1
    X2233     G2233      1
    X2233     B33        1
    X2234     COST       8
    X2234     A22        1
    X2234     G2234      1
    X2234     B34        1
    X2235     COST       3
    X2235     A22        1
    X2235     G2235      1
    X2235     B35        1
    X2236     COST       8
    X2236     A22        1
    X2236     G2236      1
    X2236     B36        1
    X2237     COST       7
    X2237     A22        1
    X2237     G2237      1
    X2237     B37        1
    X2238     COST       3
    X2238     A22        1
    X2238     G2238      1
    X2238     B38        1
    X2239     COST       5
    X2239     A22        1
    X2239     G2239      1
    X2239     B39        1
    X2240     COST       3
    X2240     A22        1
    X2240     G2240      1
    X2240     B40        1
    X2241     COST       8
    X2241     A22        1
    X2241     G2241      1
    X2241     B41        1
    X2242     COST       4
    X2242     A22        1
    X2242     G2242      1
    X2242     B42        1
    X2243     COST       7
    X2243     A22        1
    X2243     G2243      1
    X2243     B43        1
    X2244     COST       4
    X2244     A22        1
    X2244     G2244      1
    X2244     B44        1
    X2245     COST       8
    X2245     A22        1
    X2245     G2245      1
    X2245     B45        1
    X2246     COST       6
    X2246     A22        1
    X2246     G2246      1
    X2246     B46        1
    X2247     COST       5
    X2247     A22        1
    X2247     G2247      1
    X2247     B47        1
    X2248     COST       7
    X2248     A22        1
    X2248     G2248      1
    X2248     B48        1
    X2249     COST       3
    X2249     A22        1
    X2249     G2249      1
    X2249     B49        1
    X2250     COST       6
    X2250     A22        1
    X2250     G2250      1
    X2250     B50        1
    X2251     COST       5
    X2251     A22        1
    X2251     G2251      1
    X2251     B51        1
    X2252     COST       7
    X2252     A22        1
    X2252     G2252      1
    X2252     B52        1
    X2253     COST       8
    X2253     A22        1
    X2253     G2253      1
    X2253     B53        1
    X2254     COST       6
    X2254     A22        1
    X2254     G2254      1
    X2254     B54        1
    X2255     COST       3
    X2255     A22        1
    X2255     G2255      1
    X2255     B55        1
    X2256     COST       3
    X2256     A22        1
    X2256     G2256      1
    X2256     B56        1
    X2257     COST       3
    X2257     A22        1
    X2257     G2257      1
    X2257     B57        1
    X2258     COST       7
    X2258     A22        1
    X2258     G2258      1
    X2258     B58        1
    X2259     COST       8
    X2259     A22        1
    X2259     G2259      1
    X2259     B59        1
    X2260     COST       6
    X2260     A22        1
    X2260     G2260      1
    X2260     B60        1
    X2261     COST       5
    X2261     A22        1
    X2261     G2261      1
    X2261     B61        1
    X2262     COST       8
    X2262     A22        1
    X2262     G2262      1
    X2262     B62        1
    X2263     COST       8
    X2263     A22        1
    X2263     G2263      1
    X2263     B63        1
    X2264     COST       3
    X2264     A22        1
    X2264     G2264      1
    X2264     B64        1
    X2265     COST       6
    X2265     A22        1
    X2265     G2265      1
    X2265     B65        1
    X2266     COST       5
    X2266     A22        1
    X2266     G2266      1
    X2266     B66        1
    X2267     COST       8
    X2267     A22        1
    X2267     G2267      1
    X2267     B67        1
    X2268     COST       8
    X2268     A22        1
    X2268     G2268      1
    X2268     B68        1
    X2269     COST       3
    X2269     A22        1
    X2269     G2269      1
    X2269     B69        1
    X2270     COST       8
    X2270     A22        1
    X2270     G2270      1
    X2270     B70        1
    X2271     COST       6
    X2271     A22        1
    X2271     G2271      1
    X2271     B71        1
    X2272     COST       6
    X2272     A22        1
    X2272     G2272      1
    X2272     B72        1
    X2273     COST       6
    X2273     A22        1
    X2273     G2273      1
    X2273     B73        1
    X2274     COST       4
    X2274     A22        1
    X2274     G2274      1
    X2274     B74        1
    X2275     COST       6
    X2275     A22        1
    X2275     G2275      1
    X2275     B75        1
    X2276     COST       5
    X2276     A22        1
    X2276     G2276      1
    X2276     B76        1
    X2277     COST       6
    X2277     A22        1
    X2277     G2277      1
    X2277     B77        1
    X2278     COST       5
    X2278     A22        1
    X2278     G2278      1
    X2278     B78        1
    X2279     COST       7
    X2279     A22        1
    X2279     G2279      1
    X2279     B79        1
    X2280     COST       4
    X2280     A22        1
    X2280     G2280      1
    X2280     B80        1
    X2281     COST       4
    X2281     A22        1
    X2281     G2281      1
    X2281     B81        1
    X2282     COST       7
    X2282     A22        1
    X2282     G2282      1
    X2282     B82        1
    X2283     COST       7
    X2283     A22        1
    X2283     G2283      1
    X2283     B83        1
    X2284     COST       4
    X2284     A22        1
    X2284     G2284      1
    X2284     B84        1
    X2285     COST       4
    X2285     A22        1
    X2285     G2285      1
    X2285     B85        1
    X2286     COST       7
    X2286     A22        1
    X2286     G2286      1
    X2286     B86        1
    X2287     COST       4
    X2287     A22        1
    X2287     G2287      1
    X2287     B87        1
    X2288     COST       4
    X2288     A22        1
    X2288     G2288      1
    X2288     B88        1
    X2289     COST       7
    X2289     A22        1
    X2289     G2289      1
    X2289     B89        1
    X2290     COST       7
    X2290     A22        1
    X2290     G2290      1
    X2290     B90        1
    X2291     COST       5
    X2291     A22        1
    X2291     G2291      1
    X2291     B91        1
    X2292     COST       6
    X2292     A22        1
    X2292     G2292      1
    X2292     B92        1
    X2293     COST       6
    X2293     A22        1
    X2293     G2293      1
    X2293     B93        1
    X2294     COST       7
    X2294     A22        1
    X2294     G2294      1
    X2294     B94        1
    X2295     COST       7
    X2295     A22        1
    X2295     G2295      1
    X2295     B95        1
    X2296     COST       4
    X2296     A22        1
    X2296     G2296      1
    X2296     B96        1
    X2297     COST       7
    X2297     A22        1
    X2297     G2297      1
    X2297     B97        1
    X2298     COST       4
    X2298     A22        1
    X2298     G2298      1
    X2298     B98        1
    X2299     COST       4
    X2299     A22        1
    X2299     G2299      1
    X2299     B99        1
    X2300     COST       3
    X2300     A23        1
    X2300     G2300      1
    X2300     B0         1
    X2301     COST       8
    X2301     A23        1
    X2301     G2301      1
    X2301     B1         1
    X2302     COST       8
    X2302     A23        1
    X2302     G2302      1
    X2302     B2         1
    X2303     COST       6
    X2303     A23        1
    X2303     G2303      1
    X2303     B3         1
    X2304     COST       8
    X2304     A23        1
    X2304     G2304      1
    X2304     B4         1
    X2305     COST       3
    X2305     A23        1
    X2305     G2305      1
    X2305     B5         1
    X2306     COST       8
    X2306     A23        1
    X2306     G2306      1
    X2306     B6         1
    X2307     COST       5
    X2307     A23        1
    X2307     G2307      1
    X2307     B7         1
    X2308     COST       3
    X2308     A23        1
    X2308     G2308      1
    X2308     B8         1
    X2309     COST       6
    X2309     A23        1
    X2309     G2309      1
    X2309     B9         1
    X2310     COST       8
    X2310     A23        1
    X2310     G2310      1
    X2310     B10        1
    X2311     COST       4
    X2311     A23        1
    X2311     G2311      1
    X2311     B11        1
    X2312     COST       7
    X2312     A23        1
    X2312     G2312      1
    X2312     B12        1
    X2313     COST       8
    X2313     A23        1
    X2313     G2313      1
    X2313     B13        1
    X2314     COST       7
    X2314     A23        1
    X2314     G2314      1
    X2314     B14        1
    X2315     COST       5
    X2315     A23        1
    X2315     G2315      1
    X2315     B15        1
    X2316     COST       3
    X2316     A23        1
    X2316     G2316      1
    X2316     B16        1
    X2317     COST       7
    X2317     A23        1
    X2317     G2317      1
    X2317     B17        1
    X2318     COST       6
    X2318     A23        1
    X2318     G2318      1
    X2318     B18        1
    X2319     COST       6
    X2319     A23        1
    X2319     G2319      1
    X2319     B19        1
    X2320     COST       3
    X2320     A23        1
    X2320     G2320      1
    X2320     B20        1
    X2321     COST       4
    X2321     A23        1
    X2321     G2321      1
    X2321     B21        1
    X2322     COST       6
    X2322     A23        1
    X2322     G2322      1
    X2322     B22        1
    X2323     COST       5
    X2323     A23        1
    X2323     G2323      1
    X2323     B23        1
    X2324     COST       3
    X2324     A23        1
    X2324     G2324      1
    X2324     B24        1
    X2325     COST       8
    X2325     A23        1
    X2325     G2325      1
    X2325     B25        1
    X2326     COST       7
    X2326     A23        1
    X2326     G2326      1
    X2326     B26        1
    X2327     COST       3
    X2327     A23        1
    X2327     G2327      1
    X2327     B27        1
    X2328     COST       8
    X2328     A23        1
    X2328     G2328      1
    X2328     B28        1
    X2329     COST       6
    X2329     A23        1
    X2329     G2329      1
    X2329     B29        1
    X2330     COST       6
    X2330     A23        1
    X2330     G2330      1
    X2330     B30        1
    X2331     COST       6
    X2331     A23        1
    X2331     G2331      1
    X2331     B31        1
    X2332     COST       3
    X2332     A23        1
    X2332     G2332      1
    X2332     B32        1
    X2333     COST       4
    X2333     A23        1
    X2333     G2333      1
    X2333     B33        1
    X2334     COST       8
    X2334     A23        1
    X2334     G2334      1
    X2334     B34        1
    X2335     COST       8
    X2335     A23        1
    X2335     G2335      1
    X2335     B35        1
    X2336     COST       8
    X2336     A23        1
    X2336     G2336      1
    X2336     B36        1
    X2337     COST       4
    X2337     A23        1
    X2337     G2337      1
    X2337     B37        1
    X2338     COST       4
    X2338     A23        1
    X2338     G2338      1
    X2338     B38        1
    X2339     COST       7
    X2339     A23        1
    X2339     G2339      1
    X2339     B39        1
    X2340     COST       4
    X2340     A23        1
    X2340     G2340      1
    X2340     B40        1
    X2341     COST       8
    X2341     A23        1
    X2341     G2341      1
    X2341     B41        1
    X2342     COST       7
    X2342     A23        1
    X2342     G2342      1
    X2342     B42        1
    X2343     COST       7
    X2343     A23        1
    X2343     G2343      1
    X2343     B43        1
    X2344     COST       4
    X2344     A23        1
    X2344     G2344      1
    X2344     B44        1
    X2345     COST       3
    X2345     A23        1
    X2345     G2345      1
    X2345     B45        1
    X2346     COST       3
    X2346     A23        1
    X2346     G2346      1
    X2346     B46        1
    X2347     COST       4
    X2347     A23        1
    X2347     G2347      1
    X2347     B47        1
    X2348     COST       7
    X2348     A23        1
    X2348     G2348      1
    X2348     B48        1
    X2349     COST       6
    X2349     A23        1
    X2349     G2349      1
    X2349     B49        1
    X2350     COST       7
    X2350     A23        1
    X2350     G2350      1
    X2350     B50        1
    X2351     COST       4
    X2351     A23        1
    X2351     G2351      1
    X2351     B51        1
    X2352     COST       6
    X2352     A23        1
    X2352     G2352      1
    X2352     B52        1
    X2353     COST       8
    X2353     A23        1
    X2353     G2353      1
    X2353     B53        1
    X2354     COST       6
    X2354     A23        1
    X2354     G2354      1
    X2354     B54        1
    X2355     COST       3
    X2355     A23        1
    X2355     G2355      1
    X2355     B55        1
    X2356     COST       5
    X2356     A23        1
    X2356     G2356      1
    X2356     B56        1
    X2357     COST       6
    X2357     A23        1
    X2357     G2357      1
    X2357     B57        1
    X2358     COST       7
    X2358     A23        1
    X2358     G2358      1
    X2358     B58        1
    X2359     COST       8
    X2359     A23        1
    X2359     G2359      1
    X2359     B59        1
    X2360     COST       7
    X2360     A23        1
    X2360     G2360      1
    X2360     B60        1
    X2361     COST       4
    X2361     A23        1
    X2361     G2361      1
    X2361     B61        1
    X2362     COST       5
    X2362     A23        1
    X2362     G2362      1
    X2362     B62        1
    X2363     COST       6
    X2363     A23        1
    X2363     G2363      1
    X2363     B63        1
    X2364     COST       7
    X2364     A23        1
    X2364     G2364      1
    X2364     B64        1
    X2365     COST       3
    X2365     A23        1
    X2365     G2365      1
    X2365     B65        1
    X2366     COST       5
    X2366     A23        1
    X2366     G2366      1
    X2366     B66        1
    X2367     COST       8
    X2367     A23        1
    X2367     G2367      1
    X2367     B67        1
    X2368     COST       4
    X2368     A23        1
    X2368     G2368      1
    X2368     B68        1
    X2369     COST       5
    X2369     A23        1
    X2369     G2369      1
    X2369     B69        1
    X2370     COST       3
    X2370     A23        1
    X2370     G2370      1
    X2370     B70        1
    X2371     COST       7
    X2371     A23        1
    X2371     G2371      1
    X2371     B71        1
    X2372     COST       8
    X2372     A23        1
    X2372     G2372      1
    X2372     B72        1
    X2373     COST       6
    X2373     A23        1
    X2373     G2373      1
    X2373     B73        1
    X2374     COST       7
    X2374     A23        1
    X2374     G2374      1
    X2374     B74        1
    X2375     COST       6
    X2375     A23        1
    X2375     G2375      1
    X2375     B75        1
    X2376     COST       4
    X2376     A23        1
    X2376     G2376      1
    X2376     B76        1
    X2377     COST       5
    X2377     A23        1
    X2377     G2377      1
    X2377     B77        1
    X2378     COST       7
    X2378     A23        1
    X2378     G2378      1
    X2378     B78        1
    X2379     COST       6
    X2379     A23        1
    X2379     G2379      1
    X2379     B79        1
    X2380     COST       6
    X2380     A23        1
    X2380     G2380      1
    X2380     B80        1
    X2381     COST       6
    X2381     A23        1
    X2381     G2381      1
    X2381     B81        1
    X2382     COST       5
    X2382     A23        1
    X2382     G2382      1
    X2382     B82        1
    X2383     COST       4
    X2383     A23        1
    X2383     G2383      1
    X2383     B83        1
    X2384     COST       4
    X2384     A23        1
    X2384     G2384      1
    X2384     B84        1
    X2385     COST       7
    X2385     A23        1
    X2385     G2385      1
    X2385     B85        1
    X2386     COST       7
    X2386     A23        1
    X2386     G2386      1
    X2386     B86        1
    X2387     COST       5
    X2387     A23        1
    X2387     G2387      1
    X2387     B87        1
    X2388     COST       7
    X2388     A23        1
    X2388     G2388      1
    X2388     B88        1
    X2389     COST       7
    X2389     A23        1
    X2389     G2389      1
    X2389     B89        1
    X2390     COST       4
    X2390     A23        1
    X2390     G2390      1
    X2390     B90        1
    X2391     COST       7
    X2391     A23        1
    X2391     G2391      1
    X2391     B91        1
    X2392     COST       6
    X2392     A23        1
    X2392     G2392      1
    X2392     B92        1
    X2393     COST       5
    X2393     A23        1
    X2393     G2393      1
    X2393     B93        1
    X2394     COST       4
    X2394     A23        1
    X2394     G2394      1
    X2394     B94        1
    X2395     COST       4
    X2395     A23        1
    X2395     G2395      1
    X2395     B95        1
    X2396     COST       4
    X2396     A23        1
    X2396     G2396      1
    X2396     B96        1
    X2397     COST       4
    X2397     A23        1
    X2397     G2397      1
    X2397     B97        1
    X2398     COST       7
    X2398     A23        1
    X2398     G2398      1
    X2398     B98        1
    X2399     COST       7
    X2399     A23        1
    X2399     G2399      1
    X2399     B99        1
    X2400     COST       5
    X2400     A24        1
    X2400     G2400      1
    X2400     B0         1
    X2401     COST       5
    X2401     A24        1
    X2401     G2401      1
    X2401     B1         1
    X2402     COST       8
    X2402     A24        1
    X2402     G2402      1
    X2402     B2         1
    X2403     COST       8
    X2403     A24        1
    X2403     G2403      1
    X2403     B3         1
    X2404     COST       3
    X2404     A24        1
    X2404     G2404      1
    X2404     B4         1
    X2405     COST       4
    X2405     A24        1
    X2405     G2405      1
    X2405     B5         1
    X2406     COST       3
    X2406     A24        1
    X2406     G2406      1
    X2406     B6         1
    X2407     COST       3
    X2407     A24        1
    X2407     G2407      1
    X2407     B7         1
    X2408     COST       6
    X2408     A24        1
    X2408     G2408      1
    X2408     B8         1
    X2409     COST       5
    X2409     A24        1
    X2409     G2409      1
    X2409     B9         1
    X2410     COST       3
    X2410     A24        1
    X2410     G2410      1
    X2410     B10        1
    X2411     COST       8
    X2411     A24        1
    X2411     G2411      1
    X2411     B11        1
    X2412     COST       4
    X2412     A24        1
    X2412     G2412      1
    X2412     B12        1
    X2413     COST       3
    X2413     A24        1
    X2413     G2413      1
    X2413     B13        1
    X2414     COST       5
    X2414     A24        1
    X2414     G2414      1
    X2414     B14        1
    X2415     COST       6
    X2415     A24        1
    X2415     G2415      1
    X2415     B15        1
    X2416     COST       3
    X2416     A24        1
    X2416     G2416      1
    X2416     B16        1
    X2417     COST       6
    X2417     A24        1
    X2417     G2417      1
    X2417     B17        1
    X2418     COST       6
    X2418     A24        1
    X2418     G2418      1
    X2418     B18        1
    X2419     COST       5
    X2419     A24        1
    X2419     G2419      1
    X2419     B19        1
    X2420     COST       3
    X2420     A24        1
    X2420     G2420      1
    X2420     B20        1
    X2421     COST       6
    X2421     A24        1
    X2421     G2421      1
    X2421     B21        1
    X2422     COST       8
    X2422     A24        1
    X2422     G2422      1
    X2422     B22        1
    X2423     COST       5
    X2423     A24        1
    X2423     G2423      1
    X2423     B23        1
    X2424     COST       8
    X2424     A24        1
    X2424     G2424      1
    X2424     B24        1
    X2425     COST       3
    X2425     A24        1
    X2425     G2425      1
    X2425     B25        1
    X2426     COST       6
    X2426     A24        1
    X2426     G2426      1
    X2426     B26        1
    X2427     COST       4
    X2427     A24        1
    X2427     G2427      1
    X2427     B27        1
    X2428     COST       4
    X2428     A24        1
    X2428     G2428      1
    X2428     B28        1
    X2429     COST       4
    X2429     A24        1
    X2429     G2429      1
    X2429     B29        1
    X2430     COST       8
    X2430     A24        1
    X2430     G2430      1
    X2430     B30        1
    X2431     COST       3
    X2431     A24        1
    X2431     G2431      1
    X2431     B31        1
    X2432     COST       3
    X2432     A24        1
    X2432     G2432      1
    X2432     B32        1
    X2433     COST       6
    X2433     A24        1
    X2433     G2433      1
    X2433     B33        1
    X2434     COST       7
    X2434     A24        1
    X2434     G2434      1
    X2434     B34        1
    X2435     COST       3
    X2435     A24        1
    X2435     G2435      1
    X2435     B35        1
    X2436     COST       4
    X2436     A24        1
    X2436     G2436      1
    X2436     B36        1
    X2437     COST       4
    X2437     A24        1
    X2437     G2437      1
    X2437     B37        1
    X2438     COST       4
    X2438     A24        1
    X2438     G2438      1
    X2438     B38        1
    X2439     COST       5
    X2439     A24        1
    X2439     G2439      1
    X2439     B39        1
    X2440     COST       8
    X2440     A24        1
    X2440     G2440      1
    X2440     B40        1
    X2441     COST       4
    X2441     A24        1
    X2441     G2441      1
    X2441     B41        1
    X2442     COST       3
    X2442     A24        1
    X2442     G2442      1
    X2442     B42        1
    X2443     COST       6
    X2443     A24        1
    X2443     G2443      1
    X2443     B43        1
    X2444     COST       7
    X2444     A24        1
    X2444     G2444      1
    X2444     B44        1
    X2445     COST       7
    X2445     A24        1
    X2445     G2445      1
    X2445     B45        1
    X2446     COST       7
    X2446     A24        1
    X2446     G2446      1
    X2446     B46        1
    X2447     COST       4
    X2447     A24        1
    X2447     G2447      1
    X2447     B47        1
    X2448     COST       5
    X2448     A24        1
    X2448     G2448      1
    X2448     B48        1
    X2449     COST       4
    X2449     A24        1
    X2449     G2449      1
    X2449     B49        1
    X2450     COST       7
    X2450     A24        1
    X2450     G2450      1
    X2450     B50        1
    X2451     COST       6
    X2451     A24        1
    X2451     G2451      1
    X2451     B51        1
    X2452     COST       6
    X2452     A24        1
    X2452     G2452      1
    X2452     B52        1
    X2453     COST       4
    X2453     A24        1
    X2453     G2453      1
    X2453     B53        1
    X2454     COST       6
    X2454     A24        1
    X2454     G2454      1
    X2454     B54        1
    X2455     COST       5
    X2455     A24        1
    X2455     G2455      1
    X2455     B55        1
    X2456     COST       7
    X2456     A24        1
    X2456     G2456      1
    X2456     B56        1
    X2457     COST       8
    X2457     A24        1
    X2457     G2457      1
    X2457     B57        1
    X2458     COST       8
    X2458     A24        1
    X2458     G2458      1
    X2458     B58        1
    X2459     COST       7
    X2459     A24        1
    X2459     G2459      1
    X2459     B59        1
    X2460     COST       3
    X2460     A24        1
    X2460     G2460      1
    X2460     B60        1
    X2461     COST       6
    X2461     A24        1
    X2461     G2461      1
    X2461     B61        1
    X2462     COST       4
    X2462     A24        1
    X2462     G2462      1
    X2462     B62        1
    X2463     COST       8
    X2463     A24        1
    X2463     G2463      1
    X2463     B63        1
    X2464     COST       3
    X2464     A24        1
    X2464     G2464      1
    X2464     B64        1
    X2465     COST       3
    X2465     A24        1
    X2465     G2465      1
    X2465     B65        1
    X2466     COST       6
    X2466     A24        1
    X2466     G2466      1
    X2466     B66        1
    X2467     COST       3
    X2467     A24        1
    X2467     G2467      1
    X2467     B67        1
    X2468     COST       3
    X2468     A24        1
    X2468     G2468      1
    X2468     B68        1
    X2469     COST       6
    X2469     A24        1
    X2469     G2469      1
    X2469     B69        1
    X2470     COST       8
    X2470     A24        1
    X2470     G2470      1
    X2470     B70        1
    X2471     COST       4
    X2471     A24        1
    X2471     G2471      1
    X2471     B71        1
    X2472     COST       5
    X2472     A24        1
    X2472     G2472      1
    X2472     B72        1
    X2473     COST       4
    X2473     A24        1
    X2473     G2473      1
    X2473     B73        1
    X2474     COST       6
    X2474     A24        1
    X2474     G2474      1
    X2474     B74        1
    X2475     COST       4
    X2475     A24        1
    X2475     G2475      1
    X2475     B75        1
    X2476     COST       7
    X2476     A24        1
    X2476     G2476      1
    X2476     B76        1
    X2477     COST       4
    X2477     A24        1
    X2477     G2477      1
    X2477     B77        1
    X2478     COST       4
    X2478     A24        1
    X2478     G2478      1
    X2478     B78        1
    X2479     COST       7
    X2479     A24        1
    X2479     G2479      1
    X2479     B79        1
    X2480     COST       3
    X2480     A24        1
    X2480     G2480      1
    X2480     B80        1
    X2481     COST       4
    X2481     A24        1
    X2481     G2481      1
    X2481     B81        1
    X2482     COST       7
    X2482     A24        1
    X2482     G2482      1
    X2482     B82        1
    X2483     COST       7
    X2483     A24        1
    X2483     G2483      1
    X2483     B83        1
    X2484     COST       7
    X2484     A24        1
    X2484     G2484      1
    X2484     B84        1
    X2485     COST       4
    X2485     A24        1
    X2485     G2485      1
    X2485     B85        1
    X2486     COST       4
    X2486     A24        1
    X2486     G2486      1
    X2486     B86        1
    X2487     COST       5
    X2487     A24        1
    X2487     G2487      1
    X2487     B87        1
    X2488     COST       4
    X2488     A24        1
    X2488     G2488      1
    X2488     B88        1
    X2489     COST       5
    X2489     A24        1
    X2489     G2489      1
    X2489     B89        1
    X2490     COST       6
    X2490     A24        1
    X2490     G2490      1
    X2490     B90        1
    X2491     COST       6
    X2491     A24        1
    X2491     G2491      1
    X2491     B91        1
    X2492     COST       7
    X2492     A24        1
    X2492     G2492      1
    X2492     B92        1
    X2493     COST       4
    X2493     A24        1
    X2493     G2493      1
    X2493     B93        1
    X2494     COST       6
    X2494     A24        1
    X2494     G2494      1
    X2494     B94        1
    X2495     COST       6
    X2495     A24        1
    X2495     G2495      1
    X2495     B95        1
    X2496     COST       5
    X2496     A24        1
    X2496     G2496      1
    X2496     B96        1
    X2497     COST       4
    X2497     A24        1
    X2497     G2497      1
    X2497     B97        1
    X2498     COST       6
    X2498     A24        1
    X2498     G2498      1
    X2498     B98        1
    X2499     COST       7
    X2499     A24        1
    X2499     G2499      1
    X2499     B99        1
    X2500     COST       5
    X2500     A25        1
    X2500     G2500      1
    X2500     B0         1
    X2501     COST       6
    X2501     A25        1
    X2501     G2501      1
    X2501     B1         1
    X2502     COST       8
    X2502     A25        1
    X2502     G2502      1
    X2502     B2         1
    X2503     COST       8
    X2503     A25        1
    X2503     G2503      1
    X2503     B3         1
    X2504     COST       4
    X2504     A25        1
    X2504     G2504      1
    X2504     B4         1
    X2505     COST       3
    X2505     A25        1
    X2505     G2505      1
    X2505     B5         1
    X2506     COST       8
    X2506     A25        1
    X2506     G2506      1
    X2506     B6         1
    X2507     COST       8
    X2507     A25        1
    X2507     G2507      1
    X2507     B7         1
    X2508     COST       8
    X2508     A25        1
    X2508     G2508      1
    X2508     B8         1
    X2509     COST       4
    X2509     A25        1
    X2509     G2509      1
    X2509     B9         1
    X2510     COST       8
    X2510     A25        1
    X2510     G2510      1
    X2510     B10        1
    X2511     COST       4
    X2511     A25        1
    X2511     G2511      1
    X2511     B11        1
    X2512     COST       3
    X2512     A25        1
    X2512     G2512      1
    X2512     B12        1
    X2513     COST       4
    X2513     A25        1
    X2513     G2513      1
    X2513     B13        1
    X2514     COST       3
    X2514     A25        1
    X2514     G2514      1
    X2514     B14        1
    X2515     COST       8
    X2515     A25        1
    X2515     G2515      1
    X2515     B15        1
    X2516     COST       4
    X2516     A25        1
    X2516     G2516      1
    X2516     B16        1
    X2517     COST       7
    X2517     A25        1
    X2517     G2517      1
    X2517     B17        1
    X2518     COST       3
    X2518     A25        1
    X2518     G2518      1
    X2518     B18        1
    X2519     COST       8
    X2519     A25        1
    X2519     G2519      1
    X2519     B19        1
    X2520     COST       3
    X2520     A25        1
    X2520     G2520      1
    X2520     B20        1
    X2521     COST       3
    X2521     A25        1
    X2521     G2521      1
    X2521     B21        1
    X2522     COST       3
    X2522     A25        1
    X2522     G2522      1
    X2522     B22        1
    X2523     COST       8
    X2523     A25        1
    X2523     G2523      1
    X2523     B23        1
    X2524     COST       8
    X2524     A25        1
    X2524     G2524      1
    X2524     B24        1
    X2525     COST       3
    X2525     A25        1
    X2525     G2525      1
    X2525     B25        1
    X2526     COST       3
    X2526     A25        1
    X2526     G2526      1
    X2526     B26        1
    X2527     COST       7
    X2527     A25        1
    X2527     G2527      1
    X2527     B27        1
    X2528     COST       8
    X2528     A25        1
    X2528     G2528      1
    X2528     B28        1
    X2529     COST       3
    X2529     A25        1
    X2529     G2529      1
    X2529     B29        1
    X2530     COST       6
    X2530     A25        1
    X2530     G2530      1
    X2530     B30        1
    X2531     COST       3
    X2531     A25        1
    X2531     G2531      1
    X2531     B31        1
    X2532     COST       7
    X2532     A25        1
    X2532     G2532      1
    X2532     B32        1
    X2533     COST       3
    X2533     A25        1
    X2533     G2533      1
    X2533     B33        1
    X2534     COST       4
    X2534     A25        1
    X2534     G2534      1
    X2534     B34        1
    X2535     COST       7
    X2535     A25        1
    X2535     G2535      1
    X2535     B35        1
    X2536     COST       8
    X2536     A25        1
    X2536     G2536      1
    X2536     B36        1
    X2537     COST       6
    X2537     A25        1
    X2537     G2537      1
    X2537     B37        1
    X2538     COST       6
    X2538     A25        1
    X2538     G2538      1
    X2538     B38        1
    X2539     COST       8
    X2539     A25        1
    X2539     G2539      1
    X2539     B39        1
    X2540     COST       8
    X2540     A25        1
    X2540     G2540      1
    X2540     B40        1
    X2541     COST       8
    X2541     A25        1
    X2541     G2541      1
    X2541     B41        1
    X2542     COST       8
    X2542     A25        1
    X2542     G2542      1
    X2542     B42        1
    X2543     COST       7
    X2543     A25        1
    X2543     G2543      1
    X2543     B43        1
    X2544     COST       8
    X2544     A25        1
    X2544     G2544      1
    X2544     B44        1
    X2545     COST       8
    X2545     A25        1
    X2545     G2545      1
    X2545     B45        1
    X2546     COST       6
    X2546     A25        1
    X2546     G2546      1
    X2546     B46        1
    X2547     COST       7
    X2547     A25        1
    X2547     G2547      1
    X2547     B47        1
    X2548     COST       3
    X2548     A25        1
    X2548     G2548      1
    X2548     B48        1
    X2549     COST       8
    X2549     A25        1
    X2549     G2549      1
    X2549     B49        1
    X2550     COST       8
    X2550     A25        1
    X2550     G2550      1
    X2550     B50        1
    X2551     COST       7
    X2551     A25        1
    X2551     G2551      1
    X2551     B51        1
    X2552     COST       3
    X2552     A25        1
    X2552     G2552      1
    X2552     B52        1
    X2553     COST       7
    X2553     A25        1
    X2553     G2553      1
    X2553     B53        1
    X2554     COST       7
    X2554     A25        1
    X2554     G2554      1
    X2554     B54        1
    X2555     COST       8
    X2555     A25        1
    X2555     G2555      1
    X2555     B55        1
    X2556     COST       4
    X2556     A25        1
    X2556     G2556      1
    X2556     B56        1
    X2557     COST       8
    X2557     A25        1
    X2557     G2557      1
    X2557     B57        1
    X2558     COST       6
    X2558     A25        1
    X2558     G2558      1
    X2558     B58        1
    X2559     COST       5
    X2559     A25        1
    X2559     G2559      1
    X2559     B59        1
    X2560     COST       5
    X2560     A25        1
    X2560     G2560      1
    X2560     B60        1
    X2561     COST       8
    X2561     A25        1
    X2561     G2561      1
    X2561     B61        1
    X2562     COST       6
    X2562     A25        1
    X2562     G2562      1
    X2562     B62        1
    X2563     COST       6
    X2563     A25        1
    X2563     G2563      1
    X2563     B63        1
    X2564     COST       6
    X2564     A25        1
    X2564     G2564      1
    X2564     B64        1
    X2565     COST       5
    X2565     A25        1
    X2565     G2565      1
    X2565     B65        1
    X2566     COST       8
    X2566     A25        1
    X2566     G2566      1
    X2566     B66        1
    X2567     COST       5
    X2567     A25        1
    X2567     G2567      1
    X2567     B67        1
    X2568     COST       4
    X2568     A25        1
    X2568     G2568      1
    X2568     B68        1
    X2569     COST       5
    X2569     A25        1
    X2569     G2569      1
    X2569     B69        1
    X2570     COST       4
    X2570     A25        1
    X2570     G2570      1
    X2570     B70        1
    X2571     COST       8
    X2571     A25        1
    X2571     G2571      1
    X2571     B71        1
    X2572     COST       3
    X2572     A25        1
    X2572     G2572      1
    X2572     B72        1
    X2573     COST       6
    X2573     A25        1
    X2573     G2573      1
    X2573     B73        1
    X2574     COST       6
    X2574     A25        1
    X2574     G2574      1
    X2574     B74        1
    X2575     COST       3
    X2575     A25        1
    X2575     G2575      1
    X2575     B75        1
    X2576     COST       5
    X2576     A25        1
    X2576     G2576      1
    X2576     B76        1
    X2577     COST       5
    X2577     A25        1
    X2577     G2577      1
    X2577     B77        1
    X2578     COST       6
    X2578     A25        1
    X2578     G2578      1
    X2578     B78        1
    X2579     COST       4
    X2579     A25        1
    X2579     G2579      1
    X2579     B79        1
    X2580     COST       8
    X2580     A25        1
    X2580     G2580      1
    X2580     B80        1
    X2581     COST       6
    X2581     A25        1
    X2581     G2581      1
    X2581     B81        1
    X2582     COST       7
    X2582     A25        1
    X2582     G2582      1
    X2582     B82        1
    X2583     COST       4
    X2583     A25        1
    X2583     G2583      1
    X2583     B83        1
    X2584     COST       4
    X2584     A25        1
    X2584     G2584      1
    X2584     B84        1
    X2585     COST       5
    X2585     A25        1
    X2585     G2585      1
    X2585     B85        1
    X2586     COST       6
    X2586     A25        1
    X2586     G2586      1
    X2586     B86        1
    X2587     COST       7
    X2587     A25        1
    X2587     G2587      1
    X2587     B87        1
    X2588     COST       7
    X2588     A25        1
    X2588     G2588      1
    X2588     B88        1
    X2589     COST       5
    X2589     A25        1
    X2589     G2589      1
    X2589     B89        1
    X2590     COST       6
    X2590     A25        1
    X2590     G2590      1
    X2590     B90        1
    X2591     COST       5
    X2591     A25        1
    X2591     G2591      1
    X2591     B91        1
    X2592     COST       4
    X2592     A25        1
    X2592     G2592      1
    X2592     B92        1
    X2593     COST       7
    X2593     A25        1
    X2593     G2593      1
    X2593     B93        1
    X2594     COST       5
    X2594     A25        1
    X2594     G2594      1
    X2594     B94        1
    X2595     COST       4
    X2595     A25        1
    X2595     G2595      1
    X2595     B95        1
    X2596     COST       7
    X2596     A25        1
    X2596     G2596      1
    X2596     B96        1
    X2597     COST       4
    X2597     A25        1
    X2597     G2597      1
    X2597     B97        1
    X2598     COST       6
    X2598     A25        1
    X2598     G2598      1
    X2598     B98        1
    X2599     COST       5
    X2599     A25        1
    X2599     G2599      1
    X2599     B99        1
    X2600     COST       6
    X2600     A26        1
    X2600     G2600      1
    X2600     B0         1
    X2601     COST       7
    X2601     A26        1
    X2601     G2601      1
    X2601     B1         1
    X2602     COST       8
    X2602     A26        1
    X2602     G2602      1
    X2602     B2         1
    X2603     COST       5
    X2603     A26        1
    X2603     G2603      1
    X2603     B3         1
    X2604     COST       8
    X2604     A26        1
    X2604     G2604      1
    X2604     B4         1
    X2605     COST       8
    X2605     A26        1
    X2605     G2605      1
    X2605     B5         1
    X2606     COST       8
    X2606     A26        1
    X2606     G2606      1
    X2606     B6         1
    X2607     COST       8
    X2607     A26        1
    X2607     G2607      1
    X2607     B7         1
    X2608     COST       3
    X2608     A26        1
    X2608     G2608      1
    X2608     B8         1
    X2609     COST       8
    X2609     A26        1
    X2609     G2609      1
    X2609     B9         1
    X2610     COST       8
    X2610     A26        1
    X2610     G2610      1
    X2610     B10        1
    X2611     COST       4
    X2611     A26        1
    X2611     G2611      1
    X2611     B11        1
    X2612     COST       8
    X2612     A26        1
    X2612     G2612      1
    X2612     B12        1
    X2613     COST       8
    X2613     A26        1
    X2613     G2613      1
    X2613     B13        1
    X2614     COST       5
    X2614     A26        1
    X2614     G2614      1
    X2614     B14        1
    X2615     COST       8
    X2615     A26        1
    X2615     G2615      1
    X2615     B15        1
    X2616     COST       8
    X2616     A26        1
    X2616     G2616      1
    X2616     B16        1
    X2617     COST       5
    X2617     A26        1
    X2617     G2617      1
    X2617     B17        1
    X2618     COST       3
    X2618     A26        1
    X2618     G2618      1
    X2618     B18        1
    X2619     COST       6
    X2619     A26        1
    X2619     G2619      1
    X2619     B19        1
    X2620     COST       3
    X2620     A26        1
    X2620     G2620      1
    X2620     B20        1
    X2621     COST       8
    X2621     A26        1
    X2621     G2621      1
    X2621     B21        1
    X2622     COST       8
    X2622     A26        1
    X2622     G2622      1
    X2622     B22        1
    X2623     COST       7
    X2623     A26        1
    X2623     G2623      1
    X2623     B23        1
    X2624     COST       7
    X2624     A26        1
    X2624     G2624      1
    X2624     B24        1
    X2625     COST       3
    X2625     A26        1
    X2625     G2625      1
    X2625     B25        1
    X2626     COST       4
    X2626     A26        1
    X2626     G2626      1
    X2626     B26        1
    X2627     COST       7
    X2627     A26        1
    X2627     G2627      1
    X2627     B27        1
    X2628     COST       3
    X2628     A26        1
    X2628     G2628      1
    X2628     B28        1
    X2629     COST       8
    X2629     A26        1
    X2629     G2629      1
    X2629     B29        1
    X2630     COST       4
    X2630     A26        1
    X2630     G2630      1
    X2630     B30        1
    X2631     COST       4
    X2631     A26        1
    X2631     G2631      1
    X2631     B31        1
    X2632     COST       4
    X2632     A26        1
    X2632     G2632      1
    X2632     B32        1
    X2633     COST       4
    X2633     A26        1
    X2633     G2633      1
    X2633     B33        1
    X2634     COST       3
    X2634     A26        1
    X2634     G2634      1
    X2634     B34        1
    X2635     COST       7
    X2635     A26        1
    X2635     G2635      1
    X2635     B35        1
    X2636     COST       4
    X2636     A26        1
    X2636     G2636      1
    X2636     B36        1
    X2637     COST       7
    X2637     A26        1
    X2637     G2637      1
    X2637     B37        1
    X2638     COST       4
    X2638     A26        1
    X2638     G2638      1
    X2638     B38        1
    X2639     COST       8
    X2639     A26        1
    X2639     G2639      1
    X2639     B39        1
    X2640     COST       3
    X2640     A26        1
    X2640     G2640      1
    X2640     B40        1
    X2641     COST       8
    X2641     A26        1
    X2641     G2641      1
    X2641     B41        1
    X2642     COST       3
    X2642     A26        1
    X2642     G2642      1
    X2642     B42        1
    X2643     COST       6
    X2643     A26        1
    X2643     G2643      1
    X2643     B43        1
    X2644     COST       6
    X2644     A26        1
    X2644     G2644      1
    X2644     B44        1
    X2645     COST       3
    X2645     A26        1
    X2645     G2645      1
    X2645     B45        1
    X2646     COST       6
    X2646     A26        1
    X2646     G2646      1
    X2646     B46        1
    X2647     COST       4
    X2647     A26        1
    X2647     G2647      1
    X2647     B47        1
    X2648     COST       7
    X2648     A26        1
    X2648     G2648      1
    X2648     B48        1
    X2649     COST       5
    X2649     A26        1
    X2649     G2649      1
    X2649     B49        1
    X2650     COST       4
    X2650     A26        1
    X2650     G2650      1
    X2650     B50        1
    X2651     COST       7
    X2651     A26        1
    X2651     G2651      1
    X2651     B51        1
    X2652     COST       3
    X2652     A26        1
    X2652     G2652      1
    X2652     B52        1
    X2653     COST       5
    X2653     A26        1
    X2653     G2653      1
    X2653     B53        1
    X2654     COST       5
    X2654     A26        1
    X2654     G2654      1
    X2654     B54        1
    X2655     COST       8
    X2655     A26        1
    X2655     G2655      1
    X2655     B55        1
    X2656     COST       5
    X2656     A26        1
    X2656     G2656      1
    X2656     B56        1
    X2657     COST       5
    X2657     A26        1
    X2657     G2657      1
    X2657     B57        1
    X2658     COST       3
    X2658     A26        1
    X2658     G2658      1
    X2658     B58        1
    X2659     COST       3
    X2659     A26        1
    X2659     G2659      1
    X2659     B59        1
    X2660     COST       8
    X2660     A26        1
    X2660     G2660      1
    X2660     B60        1
    X2661     COST       5
    X2661     A26        1
    X2661     G2661      1
    X2661     B61        1
    X2662     COST       3
    X2662     A26        1
    X2662     G2662      1
    X2662     B62        1
    X2663     COST       3
    X2663     A26        1
    X2663     G2663      1
    X2663     B63        1
    X2664     COST       5
    X2664     A26        1
    X2664     G2664      1
    X2664     B64        1
    X2665     COST       8
    X2665     A26        1
    X2665     G2665      1
    X2665     B65        1
    X2666     COST       5
    X2666     A26        1
    X2666     G2666      1
    X2666     B66        1
    X2667     COST       8
    X2667     A26        1
    X2667     G2667      1
    X2667     B67        1
    X2668     COST       6
    X2668     A26        1
    X2668     G2668      1
    X2668     B68        1
    X2669     COST       6
    X2669     A26        1
    X2669     G2669      1
    X2669     B69        1
    X2670     COST       6
    X2670     A26        1
    X2670     G2670      1
    X2670     B70        1
    X2671     COST       3
    X2671     A26        1
    X2671     G2671      1
    X2671     B71        1
    X2672     COST       7
    X2672     A26        1
    X2672     G2672      1
    X2672     B72        1
    X2673     COST       6
    X2673     A26        1
    X2673     G2673      1
    X2673     B73        1
    X2674     COST       7
    X2674     A26        1
    X2674     G2674      1
    X2674     B74        1
    X2675     COST       6
    X2675     A26        1
    X2675     G2675      1
    X2675     B75        1
    X2676     COST       6
    X2676     A26        1
    X2676     G2676      1
    X2676     B76        1
    X2677     COST       6
    X2677     A26        1
    X2677     G2677      1
    X2677     B77        1
    X2678     COST       5
    X2678     A26        1
    X2678     G2678      1
    X2678     B78        1
    X2679     COST       6
    X2679     A26        1
    X2679     G2679      1
    X2679     B79        1
    X2680     COST       5
    X2680     A26        1
    X2680     G2680      1
    X2680     B80        1
    X2681     COST       5
    X2681     A26        1
    X2681     G2681      1
    X2681     B81        1
    X2682     COST       5
    X2682     A26        1
    X2682     G2682      1
    X2682     B82        1
    X2683     COST       7
    X2683     A26        1
    X2683     G2683      1
    X2683     B83        1
    X2684     COST       5
    X2684     A26        1
    X2684     G2684      1
    X2684     B84        1
    X2685     COST       6
    X2685     A26        1
    X2685     G2685      1
    X2685     B85        1
    X2686     COST       5
    X2686     A26        1
    X2686     G2686      1
    X2686     B86        1
    X2687     COST       6
    X2687     A26        1
    X2687     G2687      1
    X2687     B87        1
    X2688     COST       7
    X2688     A26        1
    X2688     G2688      1
    X2688     B88        1
    X2689     COST       4
    X2689     A26        1
    X2689     G2689      1
    X2689     B89        1
    X2690     COST       6
    X2690     A26        1
    X2690     G2690      1
    X2690     B90        1
    X2691     COST       4
    X2691     A26        1
    X2691     G2691      1
    X2691     B91        1
    X2692     COST       4
    X2692     A26        1
    X2692     G2692      1
    X2692     B92        1
    X2693     COST       6
    X2693     A26        1
    X2693     G2693      1
    X2693     B93        1
    X2694     COST       4
    X2694     A26        1
    X2694     G2694      1
    X2694     B94        1
    X2695     COST       6
    X2695     A26        1
    X2695     G2695      1
    X2695     B95        1
    X2696     COST       6
    X2696     A26        1
    X2696     G2696      1
    X2696     B96        1
    X2697     COST       6
    X2697     A26        1
    X2697     G2697      1
    X2697     B97        1
    X2698     COST       5
    X2698     A26        1
    X2698     G2698      1
    X2698     B98        1
    X2699     COST       8
    X2699     A26        1
    X2699     G2699      1
    X2699     B99        1
    X2700     COST       5
    X2700     A27        1
    X2700     G2700      1
    X2700     B0         1
    X2701     COST       3
    X2701     A27        1
    X2701     G2701      1
    X2701     B1         1
    X2702     COST       5
    X2702     A27        1
    X2702     G2702      1
    X2702     B2         1
    X2703     COST       8
    X2703     A27        1
    X2703     G2703      1
    X2703     B3         1
    X2704     COST       8
    X2704     A27        1
    X2704     G2704      1
    X2704     B4         1
    X2705     COST       3
    X2705     A27        1
    X2705     G2705      1
    X2705     B5         1
    X2706     COST       5
    X2706     A27        1
    X2706     G2706      1
    X2706     B6         1
    X2707     COST       8
    X2707     A27        1
    X2707     G2707      1
    X2707     B7         1
    X2708     COST       6
    X2708     A27        1
    X2708     G2708      1
    X2708     B8         1
    X2709     COST       3
    X2709     A27        1
    X2709     G2709      1
    X2709     B9         1
    X2710     COST       8
    X2710     A27        1
    X2710     G2710      1
    X2710     B10        1
    X2711     COST       5
    X2711     A27        1
    X2711     G2711      1
    X2711     B11        1
    X2712     COST       3
    X2712     A27        1
    X2712     G2712      1
    X2712     B12        1
    X2713     COST       8
    X2713     A27        1
    X2713     G2713      1
    X2713     B13        1
    X2714     COST       6
    X2714     A27        1
    X2714     G2714      1
    X2714     B14        1
    X2715     COST       6
    X2715     A27        1
    X2715     G2715      1
    X2715     B15        1
    X2716     COST       5
    X2716     A27        1
    X2716     G2716      1
    X2716     B16        1
    X2717     COST       4
    X2717     A27        1
    X2717     G2717      1
    X2717     B17        1
    X2718     COST       4
    X2718     A27        1
    X2718     G2718      1
    X2718     B18        1
    X2719     COST       6
    X2719     A27        1
    X2719     G2719      1
    X2719     B19        1
    X2720     COST       6
    X2720     A27        1
    X2720     G2720      1
    X2720     B20        1
    X2721     COST       3
    X2721     A27        1
    X2721     G2721      1
    X2721     B21        1
    X2722     COST       8
    X2722     A27        1
    X2722     G2722      1
    X2722     B22        1
    X2723     COST       3
    X2723     A27        1
    X2723     G2723      1
    X2723     B23        1
    X2724     COST       8
    X2724     A27        1
    X2724     G2724      1
    X2724     B24        1
    X2725     COST       8
    X2725     A27        1
    X2725     G2725      1
    X2725     B25        1
    X2726     COST       3
    X2726     A27        1
    X2726     G2726      1
    X2726     B26        1
    X2727     COST       3
    X2727     A27        1
    X2727     G2727      1
    X2727     B27        1
    X2728     COST       3
    X2728     A27        1
    X2728     G2728      1
    X2728     B28        1
    X2729     COST       3
    X2729     A27        1
    X2729     G2729      1
    X2729     B29        1
    X2730     COST       8
    X2730     A27        1
    X2730     G2730      1
    X2730     B30        1
    X2731     COST       5
    X2731     A27        1
    X2731     G2731      1
    X2731     B31        1
    X2732     COST       8
    X2732     A27        1
    X2732     G2732      1
    X2732     B32        1
    X2733     COST       8
    X2733     A27        1
    X2733     G2733      1
    X2733     B33        1
    X2734     COST       7
    X2734     A27        1
    X2734     G2734      1
    X2734     B34        1
    X2735     COST       8
    X2735     A27        1
    X2735     G2735      1
    X2735     B35        1
    X2736     COST       5
    X2736     A27        1
    X2736     G2736      1
    X2736     B36        1
    X2737     COST       8
    X2737     A27        1
    X2737     G2737      1
    X2737     B37        1
    X2738     COST       4
    X2738     A27        1
    X2738     G2738      1
    X2738     B38        1
    X2739     COST       8
    X2739     A27        1
    X2739     G2739      1
    X2739     B39        1
    X2740     COST       4
    X2740     A27        1
    X2740     G2740      1
    X2740     B40        1
    X2741     COST       3
    X2741     A27        1
    X2741     G2741      1
    X2741     B41        1
    X2742     COST       3
    X2742     A27        1
    X2742     G2742      1
    X2742     B42        1
    X2743     COST       8
    X2743     A27        1
    X2743     G2743      1
    X2743     B43        1
    X2744     COST       3
    X2744     A27        1
    X2744     G2744      1
    X2744     B44        1
    X2745     COST       8
    X2745     A27        1
    X2745     G2745      1
    X2745     B45        1
    X2746     COST       4
    X2746     A27        1
    X2746     G2746      1
    X2746     B46        1
    X2747     COST       8
    X2747     A27        1
    X2747     G2747      1
    X2747     B47        1
    X2748     COST       6
    X2748     A27        1
    X2748     G2748      1
    X2748     B48        1
    X2749     COST       4
    X2749     A27        1
    X2749     G2749      1
    X2749     B49        1
    X2750     COST       5
    X2750     A27        1
    X2750     G2750      1
    X2750     B50        1
    X2751     COST       7
    X2751     A27        1
    X2751     G2751      1
    X2751     B51        1
    X2752     COST       7
    X2752     A27        1
    X2752     G2752      1
    X2752     B52        1
    X2753     COST       6
    X2753     A27        1
    X2753     G2753      1
    X2753     B53        1
    X2754     COST       6
    X2754     A27        1
    X2754     G2754      1
    X2754     B54        1
    X2755     COST       4
    X2755     A27        1
    X2755     G2755      1
    X2755     B55        1
    X2756     COST       3
    X2756     A27        1
    X2756     G2756      1
    X2756     B56        1
    X2757     COST       7
    X2757     A27        1
    X2757     G2757      1
    X2757     B57        1
    X2758     COST       4
    X2758     A27        1
    X2758     G2758      1
    X2758     B58        1
    X2759     COST       6
    X2759     A27        1
    X2759     G2759      1
    X2759     B59        1
    X2760     COST       4
    X2760     A27        1
    X2760     G2760      1
    X2760     B60        1
    X2761     COST       5
    X2761     A27        1
    X2761     G2761      1
    X2761     B61        1
    X2762     COST       7
    X2762     A27        1
    X2762     G2762      1
    X2762     B62        1
    X2763     COST       3
    X2763     A27        1
    X2763     G2763      1
    X2763     B63        1
    X2764     COST       4
    X2764     A27        1
    X2764     G2764      1
    X2764     B64        1
    X2765     COST       7
    X2765     A27        1
    X2765     G2765      1
    X2765     B65        1
    X2766     COST       6
    X2766     A27        1
    X2766     G2766      1
    X2766     B66        1
    X2767     COST       5
    X2767     A27        1
    X2767     G2767      1
    X2767     B67        1
    X2768     COST       5
    X2768     A27        1
    X2768     G2768      1
    X2768     B68        1
    X2769     COST       7
    X2769     A27        1
    X2769     G2769      1
    X2769     B69        1
    X2770     COST       6
    X2770     A27        1
    X2770     G2770      1
    X2770     B70        1
    X2771     COST       6
    X2771     A27        1
    X2771     G2771      1
    X2771     B71        1
    X2772     COST       7
    X2772     A27        1
    X2772     G2772      1
    X2772     B72        1
    X2773     COST       6
    X2773     A27        1
    X2773     G2773      1
    X2773     B73        1
    X2774     COST       6
    X2774     A27        1
    X2774     G2774      1
    X2774     B74        1
    X2775     COST       7
    X2775     A27        1
    X2775     G2775      1
    X2775     B75        1
    X2776     COST       4
    X2776     A27        1
    X2776     G2776      1
    X2776     B76        1
    X2777     COST       5
    X2777     A27        1
    X2777     G2777      1
    X2777     B77        1
    X2778     COST       7
    X2778     A27        1
    X2778     G2778      1
    X2778     B78        1
    X2779     COST       6
    X2779     A27        1
    X2779     G2779      1
    X2779     B79        1
    X2780     COST       7
    X2780     A27        1
    X2780     G2780      1
    X2780     B80        1
    X2781     COST       4
    X2781     A27        1
    X2781     G2781      1
    X2781     B81        1
    X2782     COST       4
    X2782     A27        1
    X2782     G2782      1
    X2782     B82        1
    X2783     COST       6
    X2783     A27        1
    X2783     G2783      1
    X2783     B83        1
    X2784     COST       6
    X2784     A27        1
    X2784     G2784      1
    X2784     B84        1
    X2785     COST       4
    X2785     A27        1
    X2785     G2785      1
    X2785     B85        1
    X2786     COST       5
    X2786     A27        1
    X2786     G2786      1
    X2786     B86        1
    X2787     COST       6
    X2787     A27        1
    X2787     G2787      1
    X2787     B87        1
    X2788     COST       4
    X2788     A27        1
    X2788     G2788      1
    X2788     B88        1
    X2789     COST       7
    X2789     A27        1
    X2789     G2789      1
    X2789     B89        1
    X2790     COST       5
    X2790     A27        1
    X2790     G2790      1
    X2790     B90        1
    X2791     COST       6
    X2791     A27        1
    X2791     G2791      1
    X2791     B91        1
    X2792     COST       5
    X2792     A27        1
    X2792     G2792      1
    X2792     B92        1
    X2793     COST       7
    X2793     A27        1
    X2793     G2793      1
    X2793     B93        1
    X2794     COST       5
    X2794     A27        1
    X2794     G2794      1
    X2794     B94        1
    X2795     COST       5
    X2795     A27        1
    X2795     G2795      1
    X2795     B95        1
    X2796     COST       4
    X2796     A27        1
    X2796     G2796      1
    X2796     B96        1
    X2797     COST       6
    X2797     A27        1
    X2797     G2797      1
    X2797     B97        1
    X2798     COST       4
    X2798     A27        1
    X2798     G2798      1
    X2798     B98        1
    X2799     COST       5
    X2799     A27        1
    X2799     G2799      1
    X2799     B99        1
    X2800     COST       8
    X2800     A28        1
    X2800     G2800      1
    X2800     B0         1
    X2801     COST       4
    X2801     A28        1
    X2801     G2801      1
    X2801     B1         1
    X2802     COST       3
    X2802     A28        1
    X2802     G2802      1
    X2802     B2         1
    X2803     COST       5
    X2803     A28        1
    X2803     G2803      1
    X2803     B3         1
    X2804     COST       3
    X2804     A28        1
    X2804     G2804      1
    X2804     B4         1
    X2805     COST       6
    X2805     A28        1
    X2805     G2805      1
    X2805     B5         1
    X2806     COST       7
    X2806     A28        1
    X2806     G2806      1
    X2806     B6         1
    X2807     COST       3
    X2807     A28        1
    X2807     G2807      1
    X2807     B7         1
    X2808     COST       3
    X2808     A28        1
    X2808     G2808      1
    X2808     B8         1
    X2809     COST       7
    X2809     A28        1
    X2809     G2809      1
    X2809     B9         1
    X2810     COST       8
    X2810     A28        1
    X2810     G2810      1
    X2810     B10        1
    X2811     COST       4
    X2811     A28        1
    X2811     G2811      1
    X2811     B11        1
    X2812     COST       5
    X2812     A28        1
    X2812     G2812      1
    X2812     B12        1
    X2813     COST       3
    X2813     A28        1
    X2813     G2813      1
    X2813     B13        1
    X2814     COST       5
    X2814     A28        1
    X2814     G2814      1
    X2814     B14        1
    X2815     COST       3
    X2815     A28        1
    X2815     G2815      1
    X2815     B15        1
    X2816     COST       6
    X2816     A28        1
    X2816     G2816      1
    X2816     B16        1
    X2817     COST       5
    X2817     A28        1
    X2817     G2817      1
    X2817     B17        1
    X2818     COST       3
    X2818     A28        1
    X2818     G2818      1
    X2818     B18        1
    X2819     COST       3
    X2819     A28        1
    X2819     G2819      1
    X2819     B19        1
    X2820     COST       6
    X2820     A28        1
    X2820     G2820      1
    X2820     B20        1
    X2821     COST       8
    X2821     A28        1
    X2821     G2821      1
    X2821     B21        1
    X2822     COST       3
    X2822     A28        1
    X2822     G2822      1
    X2822     B22        1
    X2823     COST       8
    X2823     A28        1
    X2823     G2823      1
    X2823     B23        1
    X2824     COST       3
    X2824     A28        1
    X2824     G2824      1
    X2824     B24        1
    X2825     COST       7
    X2825     A28        1
    X2825     G2825      1
    X2825     B25        1
    X2826     COST       7
    X2826     A28        1
    X2826     G2826      1
    X2826     B26        1
    X2827     COST       3
    X2827     A28        1
    X2827     G2827      1
    X2827     B27        1
    X2828     COST       3
    X2828     A28        1
    X2828     G2828      1
    X2828     B28        1
    X2829     COST       3
    X2829     A28        1
    X2829     G2829      1
    X2829     B29        1
    X2830     COST       3
    X2830     A28        1
    X2830     G2830      1
    X2830     B30        1
    X2831     COST       7
    X2831     A28        1
    X2831     G2831      1
    X2831     B31        1
    X2832     COST       3
    X2832     A28        1
    X2832     G2832      1
    X2832     B32        1
    X2833     COST       4
    X2833     A28        1
    X2833     G2833      1
    X2833     B33        1
    X2834     COST       4
    X2834     A28        1
    X2834     G2834      1
    X2834     B34        1
    X2835     COST       4
    X2835     A28        1
    X2835     G2835      1
    X2835     B35        1
    X2836     COST       3
    X2836     A28        1
    X2836     G2836      1
    X2836     B36        1
    X2837     COST       8
    X2837     A28        1
    X2837     G2837      1
    X2837     B37        1
    X2838     COST       4
    X2838     A28        1
    X2838     G2838      1
    X2838     B38        1
    X2839     COST       3
    X2839     A28        1
    X2839     G2839      1
    X2839     B39        1
    X2840     COST       7
    X2840     A28        1
    X2840     G2840      1
    X2840     B40        1
    X2841     COST       8
    X2841     A28        1
    X2841     G2841      1
    X2841     B41        1
    X2842     COST       8
    X2842     A28        1
    X2842     G2842      1
    X2842     B42        1
    X2843     COST       7
    X2843     A28        1
    X2843     G2843      1
    X2843     B43        1
    X2844     COST       3
    X2844     A28        1
    X2844     G2844      1
    X2844     B44        1
    X2845     COST       3
    X2845     A28        1
    X2845     G2845      1
    X2845     B45        1
    X2846     COST       3
    X2846     A28        1
    X2846     G2846      1
    X2846     B46        1
    X2847     COST       3
    X2847     A28        1
    X2847     G2847      1
    X2847     B47        1
    X2848     COST       7
    X2848     A28        1
    X2848     G2848      1
    X2848     B48        1
    X2849     COST       5
    X2849     A28        1
    X2849     G2849      1
    X2849     B49        1
    X2850     COST       3
    X2850     A28        1
    X2850     G2850      1
    X2850     B50        1
    X2851     COST       4
    X2851     A28        1
    X2851     G2851      1
    X2851     B51        1
    X2852     COST       4
    X2852     A28        1
    X2852     G2852      1
    X2852     B52        1
    X2853     COST       5
    X2853     A28        1
    X2853     G2853      1
    X2853     B53        1
    X2854     COST       8
    X2854     A28        1
    X2854     G2854      1
    X2854     B54        1
    X2855     COST       7
    X2855     A28        1
    X2855     G2855      1
    X2855     B55        1
    X2856     COST       5
    X2856     A28        1
    X2856     G2856      1
    X2856     B56        1
    X2857     COST       7
    X2857     A28        1
    X2857     G2857      1
    X2857     B57        1
    X2858     COST       6
    X2858     A28        1
    X2858     G2858      1
    X2858     B58        1
    X2859     COST       5
    X2859     A28        1
    X2859     G2859      1
    X2859     B59        1
    X2860     COST       4
    X2860     A28        1
    X2860     G2860      1
    X2860     B60        1
    X2861     COST       6
    X2861     A28        1
    X2861     G2861      1
    X2861     B61        1
    X2862     COST       4
    X2862     A28        1
    X2862     G2862      1
    X2862     B62        1
    X2863     COST       7
    X2863     A28        1
    X2863     G2863      1
    X2863     B63        1
    X2864     COST       3
    X2864     A28        1
    X2864     G2864      1
    X2864     B64        1
    X2865     COST       3
    X2865     A28        1
    X2865     G2865      1
    X2865     B65        1
    X2866     COST       8
    X2866     A28        1
    X2866     G2866      1
    X2866     B66        1
    X2867     COST       6
    X2867     A28        1
    X2867     G2867      1
    X2867     B67        1
    X2868     COST       6
    X2868     A28        1
    X2868     G2868      1
    X2868     B68        1
    X2869     COST       3
    X2869     A28        1
    X2869     G2869      1
    X2869     B69        1
    X2870     COST       5
    X2870     A28        1
    X2870     G2870      1
    X2870     B70        1
    X2871     COST       3
    X2871     A28        1
    X2871     G2871      1
    X2871     B71        1
    X2872     COST       7
    X2872     A28        1
    X2872     G2872      1
    X2872     B72        1
    X2873     COST       7
    X2873     A28        1
    X2873     G2873      1
    X2873     B73        1
    X2874     COST       5
    X2874     A28        1
    X2874     G2874      1
    X2874     B74        1
    X2875     COST       4
    X2875     A28        1
    X2875     G2875      1
    X2875     B75        1
    X2876     COST       4
    X2876     A28        1
    X2876     G2876      1
    X2876     B76        1
    X2877     COST       6
    X2877     A28        1
    X2877     G2877      1
    X2877     B77        1
    X2878     COST       4
    X2878     A28        1
    X2878     G2878      1
    X2878     B78        1
    X2879     COST       7
    X2879     A28        1
    X2879     G2879      1
    X2879     B79        1
    X2880     COST       6
    X2880     A28        1
    X2880     G2880      1
    X2880     B80        1
    X2881     COST       4
    X2881     A28        1
    X2881     G2881      1
    X2881     B81        1
    X2882     COST       4
    X2882     A28        1
    X2882     G2882      1
    X2882     B82        1
    X2883     COST       6
    X2883     A28        1
    X2883     G2883      1
    X2883     B83        1
    X2884     COST       4
    X2884     A28        1
    X2884     G2884      1
    X2884     B84        1
    X2885     COST       4
    X2885     A28        1
    X2885     G2885      1
    X2885     B85        1
    X2886     COST       6
    X2886     A28        1
    X2886     G2886      1
    X2886     B86        1
    X2887     COST       5
    X2887     A28        1
    X2887     G2887      1
    X2887     B87        1
    X2888     COST       5
    X2888     A28        1
    X2888     G2888      1
    X2888     B88        1
    X2889     COST       7
    X2889     A28        1
    X2889     G2889      1
    X2889     B89        1
    X2890     COST       7
    X2890     A28        1
    X2890     G2890      1
    X2890     B90        1
    X2891     COST       4
    X2891     A28        1
    X2891     G2891      1
    X2891     B91        1
    X2892     COST       7
    X2892     A28        1
    X2892     G2892      1
    X2892     B92        1
    X2893     COST       4
    X2893     A28        1
    X2893     G2893      1
    X2893     B93        1
    X2894     COST       4
    X2894     A28        1
    X2894     G2894      1
    X2894     B94        1
    X2895     COST       6
    X2895     A28        1
    X2895     G2895      1
    X2895     B95        1
    X2896     COST       6
    X2896     A28        1
    X2896     G2896      1
    X2896     B96        1
    X2897     COST       5
    X2897     A28        1
    X2897     G2897      1
    X2897     B97        1
    X2898     COST       7
    X2898     A28        1
    X2898     G2898      1
    X2898     B98        1
    X2899     COST       4
    X2899     A28        1
    X2899     G2899      1
    X2899     B99        1
    X2900     COST       8
    X2900     A29        1
    X2900     G2900      1
    X2900     B0         1
    X2901     COST       7
    X2901     A29        1
    X2901     G2901      1
    X2901     B1         1
    X2902     COST       8
    X2902     A29        1
    X2902     G2902      1
    X2902     B2         1
    X2903     COST       3
    X2903     A29        1
    X2903     G2903      1
    X2903     B3         1
    X2904     COST       3
    X2904     A29        1
    X2904     G2904      1
    X2904     B4         1
    X2905     COST       5
    X2905     A29        1
    X2905     G2905      1
    X2905     B5         1
    X2906     COST       3
    X2906     A29        1
    X2906     G2906      1
    X2906     B6         1
    X2907     COST       3
    X2907     A29        1
    X2907     G2907      1
    X2907     B7         1
    X2908     COST       7
    X2908     A29        1
    X2908     G2908      1
    X2908     B8         1
    X2909     COST       8
    X2909     A29        1
    X2909     G2909      1
    X2909     B9         1
    X2910     COST       8
    X2910     A29        1
    X2910     G2910      1
    X2910     B10        1
    X2911     COST       3
    X2911     A29        1
    X2911     G2911      1
    X2911     B11        1
    X2912     COST       8
    X2912     A29        1
    X2912     G2912      1
    X2912     B12        1
    X2913     COST       8
    X2913     A29        1
    X2913     G2913      1
    X2913     B13        1
    X2914     COST       7
    X2914     A29        1
    X2914     G2914      1
    X2914     B14        1
    X2915     COST       5
    X2915     A29        1
    X2915     G2915      1
    X2915     B15        1
    X2916     COST       6
    X2916     A29        1
    X2916     G2916      1
    X2916     B16        1
    X2917     COST       3
    X2917     A29        1
    X2917     G2917      1
    X2917     B17        1
    X2918     COST       3
    X2918     A29        1
    X2918     G2918      1
    X2918     B18        1
    X2919     COST       6
    X2919     A29        1
    X2919     G2919      1
    X2919     B19        1
    X2920     COST       4
    X2920     A29        1
    X2920     G2920      1
    X2920     B20        1
    X2921     COST       5
    X2921     A29        1
    X2921     G2921      1
    X2921     B21        1
    X2922     COST       5
    X2922     A29        1
    X2922     G2922      1
    X2922     B22        1
    X2923     COST       7
    X2923     A29        1
    X2923     G2923      1
    X2923     B23        1
    X2924     COST       3
    X2924     A29        1
    X2924     G2924      1
    X2924     B24        1
    X2925     COST       4
    X2925     A29        1
    X2925     G2925      1
    X2925     B25        1
    X2926     COST       7
    X2926     A29        1
    X2926     G2926      1
    X2926     B26        1
    X2927     COST       3
    X2927     A29        1
    X2927     G2927      1
    X2927     B27        1
    X2928     COST       4
    X2928     A29        1
    X2928     G2928      1
    X2928     B28        1
    X2929     COST       6
    X2929     A29        1
    X2929     G2929      1
    X2929     B29        1
    X2930     COST       4
    X2930     A29        1
    X2930     G2930      1
    X2930     B30        1
    X2931     COST       3
    X2931     A29        1
    X2931     G2931      1
    X2931     B31        1
    X2932     COST       8
    X2932     A29        1
    X2932     G2932      1
    X2932     B32        1
    X2933     COST       7
    X2933     A29        1
    X2933     G2933      1
    X2933     B33        1
    X2934     COST       7
    X2934     A29        1
    X2934     G2934      1
    X2934     B34        1
    X2935     COST       7
    X2935     A29        1
    X2935     G2935      1
    X2935     B35        1
    X2936     COST       3
    X2936     A29        1
    X2936     G2936      1
    X2936     B36        1
    X2937     COST       8
    X2937     A29        1
    X2937     G2937      1
    X2937     B37        1
    X2938     COST       8
    X2938     A29        1
    X2938     G2938      1
    X2938     B38        1
    X2939     COST       4
    X2939     A29        1
    X2939     G2939      1
    X2939     B39        1
    X2940     COST       8
    X2940     A29        1
    X2940     G2940      1
    X2940     B40        1
    X2941     COST       5
    X2941     A29        1
    X2941     G2941      1
    X2941     B41        1
    X2942     COST       7
    X2942     A29        1
    X2942     G2942      1
    X2942     B42        1
    X2943     COST       5
    X2943     A29        1
    X2943     G2943      1
    X2943     B43        1
    X2944     COST       7
    X2944     A29        1
    X2944     G2944      1
    X2944     B44        1
    X2945     COST       3
    X2945     A29        1
    X2945     G2945      1
    X2945     B45        1
    X2946     COST       3
    X2946     A29        1
    X2946     G2946      1
    X2946     B46        1
    X2947     COST       8
    X2947     A29        1
    X2947     G2947      1
    X2947     B47        1
    X2948     COST       8
    X2948     A29        1
    X2948     G2948      1
    X2948     B48        1
    X2949     COST       3
    X2949     A29        1
    X2949     G2949      1
    X2949     B49        1
    X2950     COST       8
    X2950     A29        1
    X2950     G2950      1
    X2950     B50        1
    X2951     COST       8
    X2951     A29        1
    X2951     G2951      1
    X2951     B51        1
    X2952     COST       4
    X2952     A29        1
    X2952     G2952      1
    X2952     B52        1
    X2953     COST       6
    X2953     A29        1
    X2953     G2953      1
    X2953     B53        1
    X2954     COST       5
    X2954     A29        1
    X2954     G2954      1
    X2954     B54        1
    X2955     COST       4
    X2955     A29        1
    X2955     G2955      1
    X2955     B55        1
    X2956     COST       6
    X2956     A29        1
    X2956     G2956      1
    X2956     B56        1
    X2957     COST       6
    X2957     A29        1
    X2957     G2957      1
    X2957     B57        1
    X2958     COST       7
    X2958     A29        1
    X2958     G2958      1
    X2958     B58        1
    X2959     COST       6
    X2959     A29        1
    X2959     G2959      1
    X2959     B59        1
    X2960     COST       4
    X2960     A29        1
    X2960     G2960      1
    X2960     B60        1
    X2961     COST       4
    X2961     A29        1
    X2961     G2961      1
    X2961     B61        1
    X2962     COST       6
    X2962     A29        1
    X2962     G2962      1
    X2962     B62        1
    X2963     COST       8
    X2963     A29        1
    X2963     G2963      1
    X2963     B63        1
    X2964     COST       5
    X2964     A29        1
    X2964     G2964      1
    X2964     B64        1
    X2965     COST       4
    X2965     A29        1
    X2965     G2965      1
    X2965     B65        1
    X2966     COST       5
    X2966     A29        1
    X2966     G2966      1
    X2966     B66        1
    X2967     COST       6
    X2967     A29        1
    X2967     G2967      1
    X2967     B67        1
    X2968     COST       5
    X2968     A29        1
    X2968     G2968      1
    X2968     B68        1
    X2969     COST       3
    X2969     A29        1
    X2969     G2969      1
    X2969     B69        1
    X2970     COST       3
    X2970     A29        1
    X2970     G2970      1
    X2970     B70        1
    X2971     COST       5
    X2971     A29        1
    X2971     G2971      1
    X2971     B71        1
    X2972     COST       6
    X2972     A29        1
    X2972     G2972      1
    X2972     B72        1
    X2973     COST       4
    X2973     A29        1
    X2973     G2973      1
    X2973     B73        1
    X2974     COST       6
    X2974     A29        1
    X2974     G2974      1
    X2974     B74        1
    X2975     COST       6
    X2975     A29        1
    X2975     G2975      1
    X2975     B75        1
    X2976     COST       5
    X2976     A29        1
    X2976     G2976      1
    X2976     B76        1
    X2977     COST       4
    X2977     A29        1
    X2977     G2977      1
    X2977     B77        1
    X2978     COST       5
    X2978     A29        1
    X2978     G2978      1
    X2978     B78        1
    X2979     COST       7
    X2979     A29        1
    X2979     G2979      1
    X2979     B79        1
    X2980     COST       7
    X2980     A29        1
    X2980     G2980      1
    X2980     B80        1
    X2981     COST       6
    X2981     A29        1
    X2981     G2981      1
    X2981     B81        1
    X2982     COST       7
    X2982     A29        1
    X2982     G2982      1
    X2982     B82        1
    X2983     COST       6
    X2983     A29        1
    X2983     G2983      1
    X2983     B83        1
    X2984     COST       6
    X2984     A29        1
    X2984     G2984      1
    X2984     B84        1
    X2985     COST       6
    X2985     A29        1
    X2985     G2985      1
    X2985     B85        1
    X2986     COST       7
    X2986     A29        1
    X2986     G2986      1
    X2986     B86        1
    X2987     COST       4
    X2987     A29        1
    X2987     G2987      1
    X2987     B87        1
    X2988     COST       7
    X2988     A29        1
    X2988     G2988      1
    X2988     B88        1
    X2989     COST       6
    X2989     A29        1
    X2989     G2989      1
    X2989     B89        1
    X2990     COST       6
    X2990     A29        1
    X2990     G2990      1
    X2990     B90        1
    X2991     COST       5
    X2991     A29        1
    X2991     G2991      1
    X2991     B91        1
    X2992     COST       6
    X2992     A29        1
    X2992     G2992      1
    X2992     B92        1
    X2993     COST       4
    X2993     A29        1
    X2993     G2993      1
    X2993     B93        1
    X2994     COST       4
    X2994     A29        1
    X2994     G2994      1
    X2994     B94        1
    X2995     COST       5
    X2995     A29        1
    X2995     G2995      1
    X2995     B95        1
    X2996     COST       7
    X2996     A29        1
    X2996     G2996      1
    X2996     B96        1
    X2997     COST       4
    X2997     A29        1
    X2997     G2997      1
    X2997     B97        1
    X2998     COST       6
    X2998     A29        1
    X2998     G2998      1
    X2998     B98        1
    X2999     COST       6
    X2999     A29        1
    X2999     G2999      1
    X2999     B99        1
    X3000     COST       8
    X3000     A30        1
    X3000     G3000      1
    X3000     B0         1
    X3001     COST       6
    X3001     A30        1
    X3001     G3001      1
    X3001     B1         1
    X3002     COST       8
    X3002     A30        1
    X3002     G3002      1
    X3002     B2         1
    X3003     COST       7
    X3003     A30        1
    X3003     G3003      1
    X3003     B3         1
    X3004     COST       3
    X3004     A30        1
    X3004     G3004      1
    X3004     B4         1
    X3005     COST       6
    X3005     A30        1
    X3005     G3005      1
    X3005     B5         1
    X3006     COST       7
    X3006     A30        1
    X3006     G3006      1
    X3006     B6         1
    X3007     COST       5
    X3007     A30        1
    X3007     G3007      1
    X3007     B7         1
    X3008     COST       4
    X3008     A30        1
    X3008     G3008      1
    X3008     B8         1
    X3009     COST       4
    X3009     A30        1
    X3009     G3009      1
    X3009     B9         1
    X3010     COST       4
    X3010     A30        1
    X3010     G3010      1
    X3010     B10        1
    X3011     COST       6
    X3011     A30        1
    X3011     G3011      1
    X3011     B11        1
    X3012     COST       3
    X3012     A30        1
    X3012     G3012      1
    X3012     B12        1
    X3013     COST       3
    X3013     A30        1
    X3013     G3013      1
    X3013     B13        1
    X3014     COST       4
    X3014     A30        1
    X3014     G3014      1
    X3014     B14        1
    X3015     COST       4
    X3015     A30        1
    X3015     G3015      1
    X3015     B15        1
    X3016     COST       5
    X3016     A30        1
    X3016     G3016      1
    X3016     B16        1
    X3017     COST       3
    X3017     A30        1
    X3017     G3017      1
    X3017     B17        1
    X3018     COST       8
    X3018     A30        1
    X3018     G3018      1
    X3018     B18        1
    X3019     COST       3
    X3019     A30        1
    X3019     G3019      1
    X3019     B19        1
    X3020     COST       4
    X3020     A30        1
    X3020     G3020      1
    X3020     B20        1
    X3021     COST       5
    X3021     A30        1
    X3021     G3021      1
    X3021     B21        1
    X3022     COST       8
    X3022     A30        1
    X3022     G3022      1
    X3022     B22        1
    X3023     COST       5
    X3023     A30        1
    X3023     G3023      1
    X3023     B23        1
    X3024     COST       8
    X3024     A30        1
    X3024     G3024      1
    X3024     B24        1
    X3025     COST       3
    X3025     A30        1
    X3025     G3025      1
    X3025     B25        1
    X3026     COST       6
    X3026     A30        1
    X3026     G3026      1
    X3026     B26        1
    X3027     COST       4
    X3027     A30        1
    X3027     G3027      1
    X3027     B27        1
    X3028     COST       8
    X3028     A30        1
    X3028     G3028      1
    X3028     B28        1
    X3029     COST       3
    X3029     A30        1
    X3029     G3029      1
    X3029     B29        1
    X3030     COST       4
    X3030     A30        1
    X3030     G3030      1
    X3030     B30        1
    X3031     COST       8
    X3031     A30        1
    X3031     G3031      1
    X3031     B31        1
    X3032     COST       3
    X3032     A30        1
    X3032     G3032      1
    X3032     B32        1
    X3033     COST       3
    X3033     A30        1
    X3033     G3033      1
    X3033     B33        1
    X3034     COST       8
    X3034     A30        1
    X3034     G3034      1
    X3034     B34        1
    X3035     COST       8
    X3035     A30        1
    X3035     G3035      1
    X3035     B35        1
    X3036     COST       4
    X3036     A30        1
    X3036     G3036      1
    X3036     B36        1
    X3037     COST       8
    X3037     A30        1
    X3037     G3037      1
    X3037     B37        1
    X3038     COST       4
    X3038     A30        1
    X3038     G3038      1
    X3038     B38        1
    X3039     COST       4
    X3039     A30        1
    X3039     G3039      1
    X3039     B39        1
    X3040     COST       3
    X3040     A30        1
    X3040     G3040      1
    X3040     B40        1
    X3041     COST       3
    X3041     A30        1
    X3041     G3041      1
    X3041     B41        1
    X3042     COST       5
    X3042     A30        1
    X3042     G3042      1
    X3042     B42        1
    X3043     COST       3
    X3043     A30        1
    X3043     G3043      1
    X3043     B43        1
    X3044     COST       3
    X3044     A30        1
    X3044     G3044      1
    X3044     B44        1
    X3045     COST       8
    X3045     A30        1
    X3045     G3045      1
    X3045     B45        1
    X3046     COST       7
    X3046     A30        1
    X3046     G3046      1
    X3046     B46        1
    X3047     COST       7
    X3047     A30        1
    X3047     G3047      1
    X3047     B47        1
    X3048     COST       8
    X3048     A30        1
    X3048     G3048      1
    X3048     B48        1
    X3049     COST       4
    X3049     A30        1
    X3049     G3049      1
    X3049     B49        1
    X3050     COST       3
    X3050     A30        1
    X3050     G3050      1
    X3050     B50        1
    X3051     COST       7
    X3051     A30        1
    X3051     G3051      1
    X3051     B51        1
    X3052     COST       5
    X3052     A30        1
    X3052     G3052      1
    X3052     B52        1
    X3053     COST       5
    X3053     A30        1
    X3053     G3053      1
    X3053     B53        1
    X3054     COST       4
    X3054     A30        1
    X3054     G3054      1
    X3054     B54        1
    X3055     COST       8
    X3055     A30        1
    X3055     G3055      1
    X3055     B55        1
    X3056     COST       6
    X3056     A30        1
    X3056     G3056      1
    X3056     B56        1
    X3057     COST       8
    X3057     A30        1
    X3057     G3057      1
    X3057     B57        1
    X3058     COST       5
    X3058     A30        1
    X3058     G3058      1
    X3058     B58        1
    X3059     COST       5
    X3059     A30        1
    X3059     G3059      1
    X3059     B59        1
    X3060     COST       3
    X3060     A30        1
    X3060     G3060      1
    X3060     B60        1
    X3061     COST       6
    X3061     A30        1
    X3061     G3061      1
    X3061     B61        1
    X3062     COST       3
    X3062     A30        1
    X3062     G3062      1
    X3062     B62        1
    X3063     COST       4
    X3063     A30        1
    X3063     G3063      1
    X3063     B63        1
    X3064     COST       5
    X3064     A30        1
    X3064     G3064      1
    X3064     B64        1
    X3065     COST       8
    X3065     A30        1
    X3065     G3065      1
    X3065     B65        1
    X3066     COST       7
    X3066     A30        1
    X3066     G3066      1
    X3066     B66        1
    X3067     COST       6
    X3067     A30        1
    X3067     G3067      1
    X3067     B67        1
    X3068     COST       8
    X3068     A30        1
    X3068     G3068      1
    X3068     B68        1
    X3069     COST       8
    X3069     A30        1
    X3069     G3069      1
    X3069     B69        1
    X3070     COST       3
    X3070     A30        1
    X3070     G3070      1
    X3070     B70        1
    X3071     COST       3
    X3071     A30        1
    X3071     G3071      1
    X3071     B71        1
    X3072     COST       6
    X3072     A30        1
    X3072     G3072      1
    X3072     B72        1
    X3073     COST       5
    X3073     A30        1
    X3073     G3073      1
    X3073     B73        1
    X3074     COST       5
    X3074     A30        1
    X3074     G3074      1
    X3074     B74        1
    X3075     COST       6
    X3075     A30        1
    X3075     G3075      1
    X3075     B75        1
    X3076     COST       5
    X3076     A30        1
    X3076     G3076      1
    X3076     B76        1
    X3077     COST       6
    X3077     A30        1
    X3077     G3077      1
    X3077     B77        1
    X3078     COST       6
    X3078     A30        1
    X3078     G3078      1
    X3078     B78        1
    X3079     COST       6
    X3079     A30        1
    X3079     G3079      1
    X3079     B79        1
    X3080     COST       4
    X3080     A30        1
    X3080     G3080      1
    X3080     B80        1
    X3081     COST       5
    X3081     A30        1
    X3081     G3081      1
    X3081     B81        1
    X3082     COST       6
    X3082     A30        1
    X3082     G3082      1
    X3082     B82        1
    X3083     COST       7
    X3083     A30        1
    X3083     G3083      1
    X3083     B83        1
    X3084     COST       4
    X3084     A30        1
    X3084     G3084      1
    X3084     B84        1
    X3085     COST       7
    X3085     A30        1
    X3085     G3085      1
    X3085     B85        1
    X3086     COST       5
    X3086     A30        1
    X3086     G3086      1
    X3086     B86        1
    X3087     COST       5
    X3087     A30        1
    X3087     G3087      1
    X3087     B87        1
    X3088     COST       4
    X3088     A30        1
    X3088     G3088      1
    X3088     B88        1
    X3089     COST       6
    X3089     A30        1
    X3089     G3089      1
    X3089     B89        1
    X3090     COST       5
    X3090     A30        1
    X3090     G3090      1
    X3090     B90        1
    X3091     COST       6
    X3091     A30        1
    X3091     G3091      1
    X3091     B91        1
    X3092     COST       7
    X3092     A30        1
    X3092     G3092      1
    X3092     B92        1
    X3093     COST       6
    X3093     A30        1
    X3093     G3093      1
    X3093     B93        1
    X3094     COST       5
    X3094     A30        1
    X3094     G3094      1
    X3094     B94        1
    X3095     COST       4
    X3095     A30        1
    X3095     G3095      1
    X3095     B95        1
    X3096     COST       4
    X3096     A30        1
    X3096     G3096      1
    X3096     B96        1
    X3097     COST       7
    X3097     A30        1
    X3097     G3097      1
    X3097     B97        1
    X3098     COST       4
    X3098     A30        1
    X3098     G3098      1
    X3098     B98        1
    X3099     COST       3
    X3099     A30        1
    X3099     G3099      1
    X3099     B99        1
    X3100     COST       4
    X3100     A31        1
    X3100     G3100      1
    X3100     B0         1
    X3101     COST       6
    X3101     A31        1
    X3101     G3101      1
    X3101     B1         1
    X3102     COST       8
    X3102     A31        1
    X3102     G3102      1
    X3102     B2         1
    X3103     COST       4
    X3103     A31        1
    X3103     G3103      1
    X3103     B3         1
    X3104     COST       6
    X3104     A31        1
    X3104     G3104      1
    X3104     B4         1
    X3105     COST       4
    X3105     A31        1
    X3105     G3105      1
    X3105     B5         1
    X3106     COST       4
    X3106     A31        1
    X3106     G3106      1
    X3106     B6         1
    X3107     COST       4
    X3107     A31        1
    X3107     G3107      1
    X3107     B7         1
    X3108     COST       8
    X3108     A31        1
    X3108     G3108      1
    X3108     B8         1
    X3109     COST       4
    X3109     A31        1
    X3109     G3109      1
    X3109     B9         1
    X3110     COST       4
    X3110     A31        1
    X3110     G3110      1
    X3110     B10        1
    X3111     COST       8
    X3111     A31        1
    X3111     G3111      1
    X3111     B11        1
    X3112     COST       3
    X3112     A31        1
    X3112     G3112      1
    X3112     B12        1
    X3113     COST       5
    X3113     A31        1
    X3113     G3113      1
    X3113     B13        1
    X3114     COST       8
    X3114     A31        1
    X3114     G3114      1
    X3114     B14        1
    X3115     COST       6
    X3115     A31        1
    X3115     G3115      1
    X3115     B15        1
    X3116     COST       3
    X3116     A31        1
    X3116     G3116      1
    X3116     B16        1
    X3117     COST       5
    X3117     A31        1
    X3117     G3117      1
    X3117     B17        1
    X3118     COST       8
    X3118     A31        1
    X3118     G3118      1
    X3118     B18        1
    X3119     COST       3
    X3119     A31        1
    X3119     G3119      1
    X3119     B19        1
    X3120     COST       8
    X3120     A31        1
    X3120     G3120      1
    X3120     B20        1
    X3121     COST       3
    X3121     A31        1
    X3121     G3121      1
    X3121     B21        1
    X3122     COST       5
    X3122     A31        1
    X3122     G3122      1
    X3122     B22        1
    X3123     COST       4
    X3123     A31        1
    X3123     G3123      1
    X3123     B23        1
    X3124     COST       3
    X3124     A31        1
    X3124     G3124      1
    X3124     B24        1
    X3125     COST       7
    X3125     A31        1
    X3125     G3125      1
    X3125     B25        1
    X3126     COST       4
    X3126     A31        1
    X3126     G3126      1
    X3126     B26        1
    X3127     COST       5
    X3127     A31        1
    X3127     G3127      1
    X3127     B27        1
    X3128     COST       3
    X3128     A31        1
    X3128     G3128      1
    X3128     B28        1
    X3129     COST       4
    X3129     A31        1
    X3129     G3129      1
    X3129     B29        1
    X3130     COST       8
    X3130     A31        1
    X3130     G3130      1
    X3130     B30        1
    X3131     COST       4
    X3131     A31        1
    X3131     G3131      1
    X3131     B31        1
    X3132     COST       7
    X3132     A31        1
    X3132     G3132      1
    X3132     B32        1
    X3133     COST       7
    X3133     A31        1
    X3133     G3133      1
    X3133     B33        1
    X3134     COST       3
    X3134     A31        1
    X3134     G3134      1
    X3134     B34        1
    X3135     COST       4
    X3135     A31        1
    X3135     G3135      1
    X3135     B35        1
    X3136     COST       7
    X3136     A31        1
    X3136     G3136      1
    X3136     B36        1
    X3137     COST       3
    X3137     A31        1
    X3137     G3137      1
    X3137     B37        1
    X3138     COST       4
    X3138     A31        1
    X3138     G3138      1
    X3138     B38        1
    X3139     COST       8
    X3139     A31        1
    X3139     G3139      1
    X3139     B39        1
    X3140     COST       8
    X3140     A31        1
    X3140     G3140      1
    X3140     B40        1
    X3141     COST       7
    X3141     A31        1
    X3141     G3141      1
    X3141     B41        1
    X3142     COST       7
    X3142     A31        1
    X3142     G3142      1
    X3142     B42        1
    X3143     COST       8
    X3143     A31        1
    X3143     G3143      1
    X3143     B43        1
    X3144     COST       4
    X3144     A31        1
    X3144     G3144      1
    X3144     B44        1
    X3145     COST       7
    X3145     A31        1
    X3145     G3145      1
    X3145     B45        1
    X3146     COST       4
    X3146     A31        1
    X3146     G3146      1
    X3146     B46        1
    X3147     COST       3
    X3147     A31        1
    X3147     G3147      1
    X3147     B47        1
    X3148     COST       8
    X3148     A31        1
    X3148     G3148      1
    X3148     B48        1
    X3149     COST       6
    X3149     A31        1
    X3149     G3149      1
    X3149     B49        1
    X3150     COST       7
    X3150     A31        1
    X3150     G3150      1
    X3150     B50        1
    X3151     COST       5
    X3151     A31        1
    X3151     G3151      1
    X3151     B51        1
    X3152     COST       3
    X3152     A31        1
    X3152     G3152      1
    X3152     B52        1
    X3153     COST       7
    X3153     A31        1
    X3153     G3153      1
    X3153     B53        1
    X3154     COST       5
    X3154     A31        1
    X3154     G3154      1
    X3154     B54        1
    X3155     COST       6
    X3155     A31        1
    X3155     G3155      1
    X3155     B55        1
    X3156     COST       5
    X3156     A31        1
    X3156     G3156      1
    X3156     B56        1
    X3157     COST       6
    X3157     A31        1
    X3157     G3157      1
    X3157     B57        1
    X3158     COST       6
    X3158     A31        1
    X3158     G3158      1
    X3158     B58        1
    X3159     COST       5
    X3159     A31        1
    X3159     G3159      1
    X3159     B59        1
    X3160     COST       6
    X3160     A31        1
    X3160     G3160      1
    X3160     B60        1
    X3161     COST       5
    X3161     A31        1
    X3161     G3161      1
    X3161     B61        1
    X3162     COST       3
    X3162     A31        1
    X3162     G3162      1
    X3162     B62        1
    X3163     COST       6
    X3163     A31        1
    X3163     G3163      1
    X3163     B63        1
    X3164     COST       6
    X3164     A31        1
    X3164     G3164      1
    X3164     B64        1
    X3165     COST       7
    X3165     A31        1
    X3165     G3165      1
    X3165     B65        1
    X3166     COST       8
    X3166     A31        1
    X3166     G3166      1
    X3166     B66        1
    X3167     COST       6
    X3167     A31        1
    X3167     G3167      1
    X3167     B67        1
    X3168     COST       3
    X3168     A31        1
    X3168     G3168      1
    X3168     B68        1
    X3169     COST       4
    X3169     A31        1
    X3169     G3169      1
    X3169     B69        1
    X3170     COST       7
    X3170     A31        1
    X3170     G3170      1
    X3170     B70        1
    X3171     COST       7
    X3171     A31        1
    X3171     G3171      1
    X3171     B71        1
    X3172     COST       3
    X3172     A31        1
    X3172     G3172      1
    X3172     B72        1
    X3173     COST       5
    X3173     A31        1
    X3173     G3173      1
    X3173     B73        1
    X3174     COST       5
    X3174     A31        1
    X3174     G3174      1
    X3174     B74        1
    X3175     COST       6
    X3175     A31        1
    X3175     G3175      1
    X3175     B75        1
    X3176     COST       5
    X3176     A31        1
    X3176     G3176      1
    X3176     B76        1
    X3177     COST       8
    X3177     A31        1
    X3177     G3177      1
    X3177     B77        1
    X3178     COST       5
    X3178     A31        1
    X3178     G3178      1
    X3178     B78        1
    X3179     COST       6
    X3179     A31        1
    X3179     G3179      1
    X3179     B79        1
    X3180     COST       5
    X3180     A31        1
    X3180     G3180      1
    X3180     B80        1
    X3181     COST       6
    X3181     A31        1
    X3181     G3181      1
    X3181     B81        1
    X3182     COST       4
    X3182     A31        1
    X3182     G3182      1
    X3182     B82        1
    X3183     COST       6
    X3183     A31        1
    X3183     G3183      1
    X3183     B83        1
    X3184     COST       5
    X3184     A31        1
    X3184     G3184      1
    X3184     B84        1
    X3185     COST       7
    X3185     A31        1
    X3185     G3185      1
    X3185     B85        1
    X3186     COST       6
    X3186     A31        1
    X3186     G3186      1
    X3186     B86        1
    X3187     COST       4
    X3187     A31        1
    X3187     G3187      1
    X3187     B87        1
    X3188     COST       7
    X3188     A31        1
    X3188     G3188      1
    X3188     B88        1
    X3189     COST       7
    X3189     A31        1
    X3189     G3189      1
    X3189     B89        1
    X3190     COST       6
    X3190     A31        1
    X3190     G3190      1
    X3190     B90        1
    X3191     COST       6
    X3191     A31        1
    X3191     G3191      1
    X3191     B91        1
    X3192     COST       5
    X3192     A31        1
    X3192     G3192      1
    X3192     B92        1
    X3193     COST       7
    X3193     A31        1
    X3193     G3193      1
    X3193     B93        1
    X3194     COST       7
    X3194     A31        1
    X3194     G3194      1
    X3194     B94        1
    X3195     COST       5
    X3195     A31        1
    X3195     G3195      1
    X3195     B95        1
    X3196     COST       6
    X3196     A31        1
    X3196     G3196      1
    X3196     B96        1
    X3197     COST       5
    X3197     A31        1
    X3197     G3197      1
    X3197     B97        1
    X3198     COST       6
    X3198     A31        1
    X3198     G3198      1
    X3198     B98        1
    X3199     COST       4
    X3199     A31        1
    X3199     G3199      1
    X3199     B99        1
    X3200     COST       3
    X3200     A32        1
    X3200     G3200      1
    X3200     B0         1
    X3201     COST       8
    X3201     A32        1
    X3201     G3201      1
    X3201     B1         1
    X3202     COST       3
    X3202     A32        1
    X3202     G3202      1
    X3202     B2         1
    X3203     COST       8
    X3203     A32        1
    X3203     G3203      1
    X3203     B3         1
    X3204     COST       3
    X3204     A32        1
    X3204     G3204      1
    X3204     B4         1
    X3205     COST       4
    X3205     A32        1
    X3205     G3205      1
    X3205     B5         1
    X3206     COST       7
    X3206     A32        1
    X3206     G3206      1
    X3206     B6         1
    X3207     COST       4
    X3207     A32        1
    X3207     G3207      1
    X3207     B7         1
    X3208     COST       6
    X3208     A32        1
    X3208     G3208      1
    X3208     B8         1
    X3209     COST       6
    X3209     A32        1
    X3209     G3209      1
    X3209     B9         1
    X3210     COST       7
    X3210     A32        1
    X3210     G3210      1
    X3210     B10        1
    X3211     COST       4
    X3211     A32        1
    X3211     G3211      1
    X3211     B11        1
    X3212     COST       6
    X3212     A32        1
    X3212     G3212      1
    X3212     B12        1
    X3213     COST       6
    X3213     A32        1
    X3213     G3213      1
    X3213     B13        1
    X3214     COST       5
    X3214     A32        1
    X3214     G3214      1
    X3214     B14        1
    X3215     COST       8
    X3215     A32        1
    X3215     G3215      1
    X3215     B15        1
    X3216     COST       8
    X3216     A32        1
    X3216     G3216      1
    X3216     B16        1
    X3217     COST       8
    X3217     A32        1
    X3217     G3217      1
    X3217     B17        1
    X3218     COST       8
    X3218     A32        1
    X3218     G3218      1
    X3218     B18        1
    X3219     COST       4
    X3219     A32        1
    X3219     G3219      1
    X3219     B19        1
    X3220     COST       6
    X3220     A32        1
    X3220     G3220      1
    X3220     B20        1
    X3221     COST       8
    X3221     A32        1
    X3221     G3221      1
    X3221     B21        1
    X3222     COST       5
    X3222     A32        1
    X3222     G3222      1
    X3222     B22        1
    X3223     COST       8
    X3223     A32        1
    X3223     G3223      1
    X3223     B23        1
    X3224     COST       5
    X3224     A32        1
    X3224     G3224      1
    X3224     B24        1
    X3225     COST       5
    X3225     A32        1
    X3225     G3225      1
    X3225     B25        1
    X3226     COST       7
    X3226     A32        1
    X3226     G3226      1
    X3226     B26        1
    X3227     COST       8
    X3227     A32        1
    X3227     G3227      1
    X3227     B27        1
    X3228     COST       4
    X3228     A32        1
    X3228     G3228      1
    X3228     B28        1
    X3229     COST       8
    X3229     A32        1
    X3229     G3229      1
    X3229     B29        1
    X3230     COST       4
    X3230     A32        1
    X3230     G3230      1
    X3230     B30        1
    X3231     COST       4
    X3231     A32        1
    X3231     G3231      1
    X3231     B31        1
    X3232     COST       3
    X3232     A32        1
    X3232     G3232      1
    X3232     B32        1
    X3233     COST       3
    X3233     A32        1
    X3233     G3233      1
    X3233     B33        1
    X3234     COST       8
    X3234     A32        1
    X3234     G3234      1
    X3234     B34        1
    X3235     COST       3
    X3235     A32        1
    X3235     G3235      1
    X3235     B35        1
    X3236     COST       7
    X3236     A32        1
    X3236     G3236      1
    X3236     B36        1
    X3237     COST       4
    X3237     A32        1
    X3237     G3237      1
    X3237     B37        1
    X3238     COST       3
    X3238     A32        1
    X3238     G3238      1
    X3238     B38        1
    X3239     COST       7
    X3239     A32        1
    X3239     G3239      1
    X3239     B39        1
    X3240     COST       3
    X3240     A32        1
    X3240     G3240      1
    X3240     B40        1
    X3241     COST       5
    X3241     A32        1
    X3241     G3241      1
    X3241     B41        1
    X3242     COST       8
    X3242     A32        1
    X3242     G3242      1
    X3242     B42        1
    X3243     COST       4
    X3243     A32        1
    X3243     G3243      1
    X3243     B43        1
    X3244     COST       8
    X3244     A32        1
    X3244     G3244      1
    X3244     B44        1
    X3245     COST       7
    X3245     A32        1
    X3245     G3245      1
    X3245     B45        1
    X3246     COST       3
    X3246     A32        1
    X3246     G3246      1
    X3246     B46        1
    X3247     COST       3
    X3247     A32        1
    X3247     G3247      1
    X3247     B47        1
    X3248     COST       5
    X3248     A32        1
    X3248     G3248      1
    X3248     B48        1
    X3249     COST       5
    X3249     A32        1
    X3249     G3249      1
    X3249     B49        1
    X3250     COST       7
    X3250     A32        1
    X3250     G3250      1
    X3250     B50        1
    X3251     COST       5
    X3251     A32        1
    X3251     G3251      1
    X3251     B51        1
    X3252     COST       5
    X3252     A32        1
    X3252     G3252      1
    X3252     B52        1
    X3253     COST       4
    X3253     A32        1
    X3253     G3253      1
    X3253     B53        1
    X3254     COST       7
    X3254     A32        1
    X3254     G3254      1
    X3254     B54        1
    X3255     COST       7
    X3255     A32        1
    X3255     G3255      1
    X3255     B55        1
    X3256     COST       5
    X3256     A32        1
    X3256     G3256      1
    X3256     B56        1
    X3257     COST       7
    X3257     A32        1
    X3257     G3257      1
    X3257     B57        1
    X3258     COST       7
    X3258     A32        1
    X3258     G3258      1
    X3258     B58        1
    X3259     COST       5
    X3259     A32        1
    X3259     G3259      1
    X3259     B59        1
    X3260     COST       7
    X3260     A32        1
    X3260     G3260      1
    X3260     B60        1
    X3261     COST       6
    X3261     A32        1
    X3261     G3261      1
    X3261     B61        1
    X3262     COST       6
    X3262     A32        1
    X3262     G3262      1
    X3262     B62        1
    X3263     COST       6
    X3263     A32        1
    X3263     G3263      1
    X3263     B63        1
    X3264     COST       6
    X3264     A32        1
    X3264     G3264      1
    X3264     B64        1
    X3265     COST       3
    X3265     A32        1
    X3265     G3265      1
    X3265     B65        1
    X3266     COST       5
    X3266     A32        1
    X3266     G3266      1
    X3266     B66        1
    X3267     COST       5
    X3267     A32        1
    X3267     G3267      1
    X3267     B67        1
    X3268     COST       7
    X3268     A32        1
    X3268     G3268      1
    X3268     B68        1
    X3269     COST       5
    X3269     A32        1
    X3269     G3269      1
    X3269     B69        1
    X3270     COST       8
    X3270     A32        1
    X3270     G3270      1
    X3270     B70        1
    X3271     COST       7
    X3271     A32        1
    X3271     G3271      1
    X3271     B71        1
    X3272     COST       4
    X3272     A32        1
    X3272     G3272      1
    X3272     B72        1
    X3273     COST       6
    X3273     A32        1
    X3273     G3273      1
    X3273     B73        1
    X3274     COST       7
    X3274     A32        1
    X3274     G3274      1
    X3274     B74        1
    X3275     COST       7
    X3275     A32        1
    X3275     G3275      1
    X3275     B75        1
    X3276     COST       7
    X3276     A32        1
    X3276     G3276      1
    X3276     B76        1
    X3277     COST       4
    X3277     A32        1
    X3277     G3277      1
    X3277     B77        1
    X3278     COST       6
    X3278     A32        1
    X3278     G3278      1
    X3278     B78        1
    X3279     COST       4
    X3279     A32        1
    X3279     G3279      1
    X3279     B79        1
    X3280     COST       7
    X3280     A32        1
    X3280     G3280      1
    X3280     B80        1
    X3281     COST       8
    X3281     A32        1
    X3281     G3281      1
    X3281     B81        1
    X3282     COST       4
    X3282     A32        1
    X3282     G3282      1
    X3282     B82        1
    X3283     COST       7
    X3283     A32        1
    X3283     G3283      1
    X3283     B83        1
    X3284     COST       7
    X3284     A32        1
    X3284     G3284      1
    X3284     B84        1
    X3285     COST       6
    X3285     A32        1
    X3285     G3285      1
    X3285     B85        1
    X3286     COST       4
    X3286     A32        1
    X3286     G3286      1
    X3286     B86        1
    X3287     COST       7
    X3287     A32        1
    X3287     G3287      1
    X3287     B87        1
    X3288     COST       4
    X3288     A32        1
    X3288     G3288      1
    X3288     B88        1
    X3289     COST       5
    X3289     A32        1
    X3289     G3289      1
    X3289     B89        1
    X3290     COST       7
    X3290     A32        1
    X3290     G3290      1
    X3290     B90        1
    X3291     COST       4
    X3291     A32        1
    X3291     G3291      1
    X3291     B91        1
    X3292     COST       5
    X3292     A32        1
    X3292     G3292      1
    X3292     B92        1
    X3293     COST       7
    X3293     A32        1
    X3293     G3293      1
    X3293     B93        1
    X3294     COST       7
    X3294     A32        1
    X3294     G3294      1
    X3294     B94        1
    X3295     COST       5
    X3295     A32        1
    X3295     G3295      1
    X3295     B95        1
    X3296     COST       6
    X3296     A32        1
    X3296     G3296      1
    X3296     B96        1
    X3297     COST       5
    X3297     A32        1
    X3297     G3297      1
    X3297     B97        1
    X3298     COST       3
    X3298     A32        1
    X3298     G3298      1
    X3298     B98        1
    X3299     COST       6
    X3299     A32        1
    X3299     G3299      1
    X3299     B99        1
    X3300     COST       5
    X3300     A33        1
    X3300     G3300      1
    X3300     B0         1
    X3301     COST       5
    X3301     A33        1
    X3301     G3301      1
    X3301     B1         1
    X3302     COST       4
    X3302     A33        1
    X3302     G3302      1
    X3302     B2         1
    X3303     COST       7
    X3303     A33        1
    X3303     G3303      1
    X3303     B3         1
    X3304     COST       3
    X3304     A33        1
    X3304     G3304      1
    X3304     B4         1
    X3305     COST       5
    X3305     A33        1
    X3305     G3305      1
    X3305     B5         1
    X3306     COST       5
    X3306     A33        1
    X3306     G3306      1
    X3306     B6         1
    X3307     COST       8
    X3307     A33        1
    X3307     G3307      1
    X3307     B7         1
    X3308     COST       3
    X3308     A33        1
    X3308     G3308      1
    X3308     B8         1
    X3309     COST       7
    X3309     A33        1
    X3309     G3309      1
    X3309     B9         1
    X3310     COST       4
    X3310     A33        1
    X3310     G3310      1
    X3310     B10        1
    X3311     COST       7
    X3311     A33        1
    X3311     G3311      1
    X3311     B11        1
    X3312     COST       8
    X3312     A33        1
    X3312     G3312      1
    X3312     B12        1
    X3313     COST       4
    X3313     A33        1
    X3313     G3313      1
    X3313     B13        1
    X3314     COST       7
    X3314     A33        1
    X3314     G3314      1
    X3314     B14        1
    X3315     COST       3
    X3315     A33        1
    X3315     G3315      1
    X3315     B15        1
    X3316     COST       7
    X3316     A33        1
    X3316     G3316      1
    X3316     B16        1
    X3317     COST       5
    X3317     A33        1
    X3317     G3317      1
    X3317     B17        1
    X3318     COST       3
    X3318     A33        1
    X3318     G3318      1
    X3318     B18        1
    X3319     COST       6
    X3319     A33        1
    X3319     G3319      1
    X3319     B19        1
    X3320     COST       3
    X3320     A33        1
    X3320     G3320      1
    X3320     B20        1
    X3321     COST       6
    X3321     A33        1
    X3321     G3321      1
    X3321     B21        1
    X3322     COST       3
    X3322     A33        1
    X3322     G3322      1
    X3322     B22        1
    X3323     COST       4
    X3323     A33        1
    X3323     G3323      1
    X3323     B23        1
    X3324     COST       8
    X3324     A33        1
    X3324     G3324      1
    X3324     B24        1
    X3325     COST       8
    X3325     A33        1
    X3325     G3325      1
    X3325     B25        1
    X3326     COST       8
    X3326     A33        1
    X3326     G3326      1
    X3326     B26        1
    X3327     COST       4
    X3327     A33        1
    X3327     G3327      1
    X3327     B27        1
    X3328     COST       7
    X3328     A33        1
    X3328     G3328      1
    X3328     B28        1
    X3329     COST       8
    X3329     A33        1
    X3329     G3329      1
    X3329     B29        1
    X3330     COST       4
    X3330     A33        1
    X3330     G3330      1
    X3330     B30        1
    X3331     COST       5
    X3331     A33        1
    X3331     G3331      1
    X3331     B31        1
    X3332     COST       7
    X3332     A33        1
    X3332     G3332      1
    X3332     B32        1
    X3333     COST       4
    X3333     A33        1
    X3333     G3333      1
    X3333     B33        1
    X3334     COST       7
    X3334     A33        1
    X3334     G3334      1
    X3334     B34        1
    X3335     COST       3
    X3335     A33        1
    X3335     G3335      1
    X3335     B35        1
    X3336     COST       8
    X3336     A33        1
    X3336     G3336      1
    X3336     B36        1
    X3337     COST       7
    X3337     A33        1
    X3337     G3337      1
    X3337     B37        1
    X3338     COST       7
    X3338     A33        1
    X3338     G3338      1
    X3338     B38        1
    X3339     COST       8
    X3339     A33        1
    X3339     G3339      1
    X3339     B39        1
    X3340     COST       5
    X3340     A33        1
    X3340     G3340      1
    X3340     B40        1
    X3341     COST       3
    X3341     A33        1
    X3341     G3341      1
    X3341     B41        1
    X3342     COST       7
    X3342     A33        1
    X3342     G3342      1
    X3342     B42        1
    X3343     COST       7
    X3343     A33        1
    X3343     G3343      1
    X3343     B43        1
    X3344     COST       7
    X3344     A33        1
    X3344     G3344      1
    X3344     B44        1
    X3345     COST       4
    X3345     A33        1
    X3345     G3345      1
    X3345     B45        1
    X3346     COST       5
    X3346     A33        1
    X3346     G3346      1
    X3346     B46        1
    X3347     COST       7
    X3347     A33        1
    X3347     G3347      1
    X3347     B47        1
    X3348     COST       8
    X3348     A33        1
    X3348     G3348      1
    X3348     B48        1
    X3349     COST       4
    X3349     A33        1
    X3349     G3349      1
    X3349     B49        1
    X3350     COST       8
    X3350     A33        1
    X3350     G3350      1
    X3350     B50        1
    X3351     COST       5
    X3351     A33        1
    X3351     G3351      1
    X3351     B51        1
    X3352     COST       7
    X3352     A33        1
    X3352     G3352      1
    X3352     B52        1
    X3353     COST       5
    X3353     A33        1
    X3353     G3353      1
    X3353     B53        1
    X3354     COST       3
    X3354     A33        1
    X3354     G3354      1
    X3354     B54        1
    X3355     COST       7
    X3355     A33        1
    X3355     G3355      1
    X3355     B55        1
    X3356     COST       6
    X3356     A33        1
    X3356     G3356      1
    X3356     B56        1
    X3357     COST       5
    X3357     A33        1
    X3357     G3357      1
    X3357     B57        1
    X3358     COST       5
    X3358     A33        1
    X3358     G3358      1
    X3358     B58        1
    X3359     COST       6
    X3359     A33        1
    X3359     G3359      1
    X3359     B59        1
    X3360     COST       7
    X3360     A33        1
    X3360     G3360      1
    X3360     B60        1
    X3361     COST       7
    X3361     A33        1
    X3361     G3361      1
    X3361     B61        1
    X3362     COST       6
    X3362     A33        1
    X3362     G3362      1
    X3362     B62        1
    X3363     COST       3
    X3363     A33        1
    X3363     G3363      1
    X3363     B63        1
    X3364     COST       6
    X3364     A33        1
    X3364     G3364      1
    X3364     B64        1
    X3365     COST       6
    X3365     A33        1
    X3365     G3365      1
    X3365     B65        1
    X3366     COST       8
    X3366     A33        1
    X3366     G3366      1
    X3366     B66        1
    X3367     COST       8
    X3367     A33        1
    X3367     G3367      1
    X3367     B67        1
    X3368     COST       3
    X3368     A33        1
    X3368     G3368      1
    X3368     B68        1
    X3369     COST       5
    X3369     A33        1
    X3369     G3369      1
    X3369     B69        1
    X3370     COST       5
    X3370     A33        1
    X3370     G3370      1
    X3370     B70        1
    X3371     COST       3
    X3371     A33        1
    X3371     G3371      1
    X3371     B71        1
    X3372     COST       6
    X3372     A33        1
    X3372     G3372      1
    X3372     B72        1
    X3373     COST       4
    X3373     A33        1
    X3373     G3373      1
    X3373     B73        1
    X3374     COST       5
    X3374     A33        1
    X3374     G3374      1
    X3374     B74        1
    X3375     COST       3
    X3375     A33        1
    X3375     G3375      1
    X3375     B75        1
    X3376     COST       5
    X3376     A33        1
    X3376     G3376      1
    X3376     B76        1
    X3377     COST       5
    X3377     A33        1
    X3377     G3377      1
    X3377     B77        1
    X3378     COST       7
    X3378     A33        1
    X3378     G3378      1
    X3378     B78        1
    X3379     COST       5
    X3379     A33        1
    X3379     G3379      1
    X3379     B79        1
    X3380     COST       7
    X3380     A33        1
    X3380     G3380      1
    X3380     B80        1
    X3381     COST       7
    X3381     A33        1
    X3381     G3381      1
    X3381     B81        1
    X3382     COST       5
    X3382     A33        1
    X3382     G3382      1
    X3382     B82        1
    X3383     COST       5
    X3383     A33        1
    X3383     G3383      1
    X3383     B83        1
    X3384     COST       7
    X3384     A33        1
    X3384     G3384      1
    X3384     B84        1
    X3385     COST       4
    X3385     A33        1
    X3385     G3385      1
    X3385     B85        1
    X3386     COST       5
    X3386     A33        1
    X3386     G3386      1
    X3386     B86        1
    X3387     COST       7
    X3387     A33        1
    X3387     G3387      1
    X3387     B87        1
    X3388     COST       4
    X3388     A33        1
    X3388     G3388      1
    X3388     B88        1
    X3389     COST       6
    X3389     A33        1
    X3389     G3389      1
    X3389     B89        1
    X3390     COST       6
    X3390     A33        1
    X3390     G3390      1
    X3390     B90        1
    X3391     COST       5
    X3391     A33        1
    X3391     G3391      1
    X3391     B91        1
    X3392     COST       6
    X3392     A33        1
    X3392     G3392      1
    X3392     B92        1
    X3393     COST       6
    X3393     A33        1
    X3393     G3393      1
    X3393     B93        1
    X3394     COST       5
    X3394     A33        1
    X3394     G3394      1
    X3394     B94        1
    X3395     COST       7
    X3395     A33        1
    X3395     G3395      1
    X3395     B95        1
    X3396     COST       6
    X3396     A33        1
    X3396     G3396      1
    X3396     B96        1
    X3397     COST       7
    X3397     A33        1
    X3397     G3397      1
    X3397     B97        1
    X3398     COST       4
    X3398     A33        1
    X3398     G3398      1
    X3398     B98        1
    X3399     COST       7
    X3399     A33        1
    X3399     G3399      1
    X3399     B99        1
    X3400     COST       6
    X3400     A34        1
    X3400     G3400      1
    X3400     B0         1
    X3401     COST       3
    X3401     A34        1
    X3401     G3401      1
    X3401     B1         1
    X3402     COST       3
    X3402     A34        1
    X3402     G3402      1
    X3402     B2         1
    X3403     COST       6
    X3403     A34        1
    X3403     G3403      1
    X3403     B3         1
    X3404     COST       3
    X3404     A34        1
    X3404     G3404      1
    X3404     B4         1
    X3405     COST       4
    X3405     A34        1
    X3405     G3405      1
    X3405     B5         1
    X3406     COST       6
    X3406     A34        1
    X3406     G3406      1
    X3406     B6         1
    X3407     COST       3
    X3407     A34        1
    X3407     G3407      1
    X3407     B7         1
    X3408     COST       3
    X3408     A34        1
    X3408     G3408      1
    X3408     B8         1
    X3409     COST       8
    X3409     A34        1
    X3409     G3409      1
    X3409     B9         1
    X3410     COST       7
    X3410     A34        1
    X3410     G3410      1
    X3410     B10        1
    X3411     COST       3
    X3411     A34        1
    X3411     G3411      1
    X3411     B11        1
    X3412     COST       8
    X3412     A34        1
    X3412     G3412      1
    X3412     B12        1
    X3413     COST       7
    X3413     A34        1
    X3413     G3413      1
    X3413     B13        1
    X3414     COST       8
    X3414     A34        1
    X3414     G3414      1
    X3414     B14        1
    X3415     COST       3
    X3415     A34        1
    X3415     G3415      1
    X3415     B15        1
    X3416     COST       3
    X3416     A34        1
    X3416     G3416      1
    X3416     B16        1
    X3417     COST       8
    X3417     A34        1
    X3417     G3417      1
    X3417     B17        1
    X3418     COST       7
    X3418     A34        1
    X3418     G3418      1
    X3418     B18        1
    X3419     COST       3
    X3419     A34        1
    X3419     G3419      1
    X3419     B19        1
    X3420     COST       6
    X3420     A34        1
    X3420     G3420      1
    X3420     B20        1
    X3421     COST       8
    X3421     A34        1
    X3421     G3421      1
    X3421     B21        1
    X3422     COST       3
    X3422     A34        1
    X3422     G3422      1
    X3422     B22        1
    X3423     COST       4
    X3423     A34        1
    X3423     G3423      1
    X3423     B23        1
    X3424     COST       3
    X3424     A34        1
    X3424     G3424      1
    X3424     B24        1
    X3425     COST       7
    X3425     A34        1
    X3425     G3425      1
    X3425     B25        1
    X3426     COST       8
    X3426     A34        1
    X3426     G3426      1
    X3426     B26        1
    X3427     COST       4
    X3427     A34        1
    X3427     G3427      1
    X3427     B27        1
    X3428     COST       7
    X3428     A34        1
    X3428     G3428      1
    X3428     B28        1
    X3429     COST       4
    X3429     A34        1
    X3429     G3429      1
    X3429     B29        1
    X3430     COST       4
    X3430     A34        1
    X3430     G3430      1
    X3430     B30        1
    X3431     COST       3
    X3431     A34        1
    X3431     G3431      1
    X3431     B31        1
    X3432     COST       4
    X3432     A34        1
    X3432     G3432      1
    X3432     B32        1
    X3433     COST       8
    X3433     A34        1
    X3433     G3433      1
    X3433     B33        1
    X3434     COST       7
    X3434     A34        1
    X3434     G3434      1
    X3434     B34        1
    X3435     COST       8
    X3435     A34        1
    X3435     G3435      1
    X3435     B35        1
    X3436     COST       8
    X3436     A34        1
    X3436     G3436      1
    X3436     B36        1
    X3437     COST       7
    X3437     A34        1
    X3437     G3437      1
    X3437     B37        1
    X3438     COST       3
    X3438     A34        1
    X3438     G3438      1
    X3438     B38        1
    X3439     COST       8
    X3439     A34        1
    X3439     G3439      1
    X3439     B39        1
    X3440     COST       4
    X3440     A34        1
    X3440     G3440      1
    X3440     B40        1
    X3441     COST       8
    X3441     A34        1
    X3441     G3441      1
    X3441     B41        1
    X3442     COST       3
    X3442     A34        1
    X3442     G3442      1
    X3442     B42        1
    X3443     COST       4
    X3443     A34        1
    X3443     G3443      1
    X3443     B43        1
    X3444     COST       4
    X3444     A34        1
    X3444     G3444      1
    X3444     B44        1
    X3445     COST       7
    X3445     A34        1
    X3445     G3445      1
    X3445     B45        1
    X3446     COST       3
    X3446     A34        1
    X3446     G3446      1
    X3446     B46        1
    X3447     COST       4
    X3447     A34        1
    X3447     G3447      1
    X3447     B47        1
    X3448     COST       5
    X3448     A34        1
    X3448     G3448      1
    X3448     B48        1
    X3449     COST       4
    X3449     A34        1
    X3449     G3449      1
    X3449     B49        1
    X3450     COST       8
    X3450     A34        1
    X3450     G3450      1
    X3450     B50        1
    X3451     COST       6
    X3451     A34        1
    X3451     G3451      1
    X3451     B51        1
    X3452     COST       5
    X3452     A34        1
    X3452     G3452      1
    X3452     B52        1
    X3453     COST       6
    X3453     A34        1
    X3453     G3453      1
    X3453     B53        1
    X3454     COST       6
    X3454     A34        1
    X3454     G3454      1
    X3454     B54        1
    X3455     COST       8
    X3455     A34        1
    X3455     G3455      1
    X3455     B55        1
    X3456     COST       5
    X3456     A34        1
    X3456     G3456      1
    X3456     B56        1
    X3457     COST       4
    X3457     A34        1
    X3457     G3457      1
    X3457     B57        1
    X3458     COST       6
    X3458     A34        1
    X3458     G3458      1
    X3458     B58        1
    X3459     COST       8
    X3459     A34        1
    X3459     G3459      1
    X3459     B59        1
    X3460     COST       6
    X3460     A34        1
    X3460     G3460      1
    X3460     B60        1
    X3461     COST       7
    X3461     A34        1
    X3461     G3461      1
    X3461     B61        1
    X3462     COST       8
    X3462     A34        1
    X3462     G3462      1
    X3462     B62        1
    X3463     COST       3
    X3463     A34        1
    X3463     G3463      1
    X3463     B63        1
    X3464     COST       5
    X3464     A34        1
    X3464     G3464      1
    X3464     B64        1
    X3465     COST       5
    X3465     A34        1
    X3465     G3465      1
    X3465     B65        1
    X3466     COST       6
    X3466     A34        1
    X3466     G3466      1
    X3466     B66        1
    X3467     COST       6
    X3467     A34        1
    X3467     G3467      1
    X3467     B67        1
    X3468     COST       3
    X3468     A34        1
    X3468     G3468      1
    X3468     B68        1
    X3469     COST       5
    X3469     A34        1
    X3469     G3469      1
    X3469     B69        1
    X3470     COST       3
    X3470     A34        1
    X3470     G3470      1
    X3470     B70        1
    X3471     COST       6
    X3471     A34        1
    X3471     G3471      1
    X3471     B71        1
    X3472     COST       3
    X3472     A34        1
    X3472     G3472      1
    X3472     B72        1
    X3473     COST       8
    X3473     A34        1
    X3473     G3473      1
    X3473     B73        1
    X3474     COST       3
    X3474     A34        1
    X3474     G3474      1
    X3474     B74        1
    X3475     COST       5
    X3475     A34        1
    X3475     G3475      1
    X3475     B75        1
    X3476     COST       7
    X3476     A34        1
    X3476     G3476      1
    X3476     B76        1
    X3477     COST       5
    X3477     A34        1
    X3477     G3477      1
    X3477     B77        1
    X3478     COST       4
    X3478     A34        1
    X3478     G3478      1
    X3478     B78        1
    X3479     COST       6
    X3479     A34        1
    X3479     G3479      1
    X3479     B79        1
    X3480     COST       6
    X3480     A34        1
    X3480     G3480      1
    X3480     B80        1
    X3481     COST       8
    X3481     A34        1
    X3481     G3481      1
    X3481     B81        1
    X3482     COST       6
    X3482     A34        1
    X3482     G3482      1
    X3482     B82        1
    X3483     COST       4
    X3483     A34        1
    X3483     G3483      1
    X3483     B83        1
    X3484     COST       4
    X3484     A34        1
    X3484     G3484      1
    X3484     B84        1
    X3485     COST       4
    X3485     A34        1
    X3485     G3485      1
    X3485     B85        1
    X3486     COST       8
    X3486     A34        1
    X3486     G3486      1
    X3486     B86        1
    X3487     COST       7
    X3487     A34        1
    X3487     G3487      1
    X3487     B87        1
    X3488     COST       7
    X3488     A34        1
    X3488     G3488      1
    X3488     B88        1
    X3489     COST       6
    X3489     A34        1
    X3489     G3489      1
    X3489     B89        1
    X3490     COST       6
    X3490     A34        1
    X3490     G3490      1
    X3490     B90        1
    X3491     COST       6
    X3491     A34        1
    X3491     G3491      1
    X3491     B91        1
    X3492     COST       7
    X3492     A34        1
    X3492     G3492      1
    X3492     B92        1
    X3493     COST       5
    X3493     A34        1
    X3493     G3493      1
    X3493     B93        1
    X3494     COST       6
    X3494     A34        1
    X3494     G3494      1
    X3494     B94        1
    X3495     COST       6
    X3495     A34        1
    X3495     G3495      1
    X3495     B95        1
    X3496     COST       6
    X3496     A34        1
    X3496     G3496      1
    X3496     B96        1
    X3497     COST       4
    X3497     A34        1
    X3497     G3497      1
    X3497     B97        1
    X3498     COST       5
    X3498     A34        1
    X3498     G3498      1
    X3498     B98        1
    X3499     COST       8
    X3499     A34        1
    X3499     G3499      1
    X3499     B99        1
    X3500     COST       8
    X3500     A35        1
    X3500     G3500      1
    X3500     B0         1
    X3501     COST       5
    X3501     A35        1
    X3501     G3501      1
    X3501     B1         1
    X3502     COST       8
    X3502     A35        1
    X3502     G3502      1
    X3502     B2         1
    X3503     COST       6
    X3503     A35        1
    X3503     G3503      1
    X3503     B3         1
    X3504     COST       8
    X3504     A35        1
    X3504     G3504      1
    X3504     B4         1
    X3505     COST       8
    X3505     A35        1
    X3505     G3505      1
    X3505     B5         1
    X3506     COST       5
    X3506     A35        1
    X3506     G3506      1
    X3506     B6         1
    X3507     COST       6
    X3507     A35        1
    X3507     G3507      1
    X3507     B7         1
    X3508     COST       7
    X3508     A35        1
    X3508     G3508      1
    X3508     B8         1
    X3509     COST       4
    X3509     A35        1
    X3509     G3509      1
    X3509     B9         1
    X3510     COST       8
    X3510     A35        1
    X3510     G3510      1
    X3510     B10        1
    X3511     COST       4
    X3511     A35        1
    X3511     G3511      1
    X3511     B11        1
    X3512     COST       8
    X3512     A35        1
    X3512     G3512      1
    X3512     B12        1
    X3513     COST       6
    X3513     A35        1
    X3513     G3513      1
    X3513     B13        1
    X3514     COST       4
    X3514     A35        1
    X3514     G3514      1
    X3514     B14        1
    X3515     COST       8
    X3515     A35        1
    X3515     G3515      1
    X3515     B15        1
    X3516     COST       3
    X3516     A35        1
    X3516     G3516      1
    X3516     B16        1
    X3517     COST       5
    X3517     A35        1
    X3517     G3517      1
    X3517     B17        1
    X3518     COST       8
    X3518     A35        1
    X3518     G3518      1
    X3518     B18        1
    X3519     COST       6
    X3519     A35        1
    X3519     G3519      1
    X3519     B19        1
    X3520     COST       6
    X3520     A35        1
    X3520     G3520      1
    X3520     B20        1
    X3521     COST       6
    X3521     A35        1
    X3521     G3521      1
    X3521     B21        1
    X3522     COST       3
    X3522     A35        1
    X3522     G3522      1
    X3522     B22        1
    X3523     COST       5
    X3523     A35        1
    X3523     G3523      1
    X3523     B23        1
    X3524     COST       4
    X3524     A35        1
    X3524     G3524      1
    X3524     B24        1
    X3525     COST       3
    X3525     A35        1
    X3525     G3525      1
    X3525     B25        1
    X3526     COST       8
    X3526     A35        1
    X3526     G3526      1
    X3526     B26        1
    X3527     COST       7
    X3527     A35        1
    X3527     G3527      1
    X3527     B27        1
    X3528     COST       3
    X3528     A35        1
    X3528     G3528      1
    X3528     B28        1
    X3529     COST       4
    X3529     A35        1
    X3529     G3529      1
    X3529     B29        1
    X3530     COST       8
    X3530     A35        1
    X3530     G3530      1
    X3530     B30        1
    X3531     COST       3
    X3531     A35        1
    X3531     G3531      1
    X3531     B31        1
    X3532     COST       8
    X3532     A35        1
    X3532     G3532      1
    X3532     B32        1
    X3533     COST       5
    X3533     A35        1
    X3533     G3533      1
    X3533     B33        1
    X3534     COST       4
    X3534     A35        1
    X3534     G3534      1
    X3534     B34        1
    X3535     COST       3
    X3535     A35        1
    X3535     G3535      1
    X3535     B35        1
    X3536     COST       3
    X3536     A35        1
    X3536     G3536      1
    X3536     B36        1
    X3537     COST       3
    X3537     A35        1
    X3537     G3537      1
    X3537     B37        1
    X3538     COST       3
    X3538     A35        1
    X3538     G3538      1
    X3538     B38        1
    X3539     COST       3
    X3539     A35        1
    X3539     G3539      1
    X3539     B39        1
    X3540     COST       4
    X3540     A35        1
    X3540     G3540      1
    X3540     B40        1
    X3541     COST       7
    X3541     A35        1
    X3541     G3541      1
    X3541     B41        1
    X3542     COST       3
    X3542     A35        1
    X3542     G3542      1
    X3542     B42        1
    X3543     COST       8
    X3543     A35        1
    X3543     G3543      1
    X3543     B43        1
    X3544     COST       3
    X3544     A35        1
    X3544     G3544      1
    X3544     B44        1
    X3545     COST       7
    X3545     A35        1
    X3545     G3545      1
    X3545     B45        1
    X3546     COST       3
    X3546     A35        1
    X3546     G3546      1
    X3546     B46        1
    X3547     COST       4
    X3547     A35        1
    X3547     G3547      1
    X3547     B47        1
    X3548     COST       3
    X3548     A35        1
    X3548     G3548      1
    X3548     B48        1
    X3549     COST       8
    X3549     A35        1
    X3549     G3549      1
    X3549     B49        1
    X3550     COST       3
    X3550     A35        1
    X3550     G3550      1
    X3550     B50        1
    X3551     COST       3
    X3551     A35        1
    X3551     G3551      1
    X3551     B51        1
    X3552     COST       8
    X3552     A35        1
    X3552     G3552      1
    X3552     B52        1
    X3553     COST       7
    X3553     A35        1
    X3553     G3553      1
    X3553     B53        1
    X3554     COST       5
    X3554     A35        1
    X3554     G3554      1
    X3554     B54        1
    X3555     COST       7
    X3555     A35        1
    X3555     G3555      1
    X3555     B55        1
    X3556     COST       3
    X3556     A35        1
    X3556     G3556      1
    X3556     B56        1
    X3557     COST       7
    X3557     A35        1
    X3557     G3557      1
    X3557     B57        1
    X3558     COST       3
    X3558     A35        1
    X3558     G3558      1
    X3558     B58        1
    X3559     COST       3
    X3559     A35        1
    X3559     G3559      1
    X3559     B59        1
    X3560     COST       3
    X3560     A35        1
    X3560     G3560      1
    X3560     B60        1
    X3561     COST       3
    X3561     A35        1
    X3561     G3561      1
    X3561     B61        1
    X3562     COST       6
    X3562     A35        1
    X3562     G3562      1
    X3562     B62        1
    X3563     COST       6
    X3563     A35        1
    X3563     G3563      1
    X3563     B63        1
    X3564     COST       4
    X3564     A35        1
    X3564     G3564      1
    X3564     B64        1
    X3565     COST       8
    X3565     A35        1
    X3565     G3565      1
    X3565     B65        1
    X3566     COST       5
    X3566     A35        1
    X3566     G3566      1
    X3566     B66        1
    X3567     COST       5
    X3567     A35        1
    X3567     G3567      1
    X3567     B67        1
    X3568     COST       8
    X3568     A35        1
    X3568     G3568      1
    X3568     B68        1
    X3569     COST       6
    X3569     A35        1
    X3569     G3569      1
    X3569     B69        1
    X3570     COST       7
    X3570     A35        1
    X3570     G3570      1
    X3570     B70        1
    X3571     COST       3
    X3571     A35        1
    X3571     G3571      1
    X3571     B71        1
    X3572     COST       3
    X3572     A35        1
    X3572     G3572      1
    X3572     B72        1
    X3573     COST       8
    X3573     A35        1
    X3573     G3573      1
    X3573     B73        1
    X3574     COST       4
    X3574     A35        1
    X3574     G3574      1
    X3574     B74        1
    X3575     COST       5
    X3575     A35        1
    X3575     G3575      1
    X3575     B75        1
    X3576     COST       4
    X3576     A35        1
    X3576     G3576      1
    X3576     B76        1
    X3577     COST       6
    X3577     A35        1
    X3577     G3577      1
    X3577     B77        1
    X3578     COST       6
    X3578     A35        1
    X3578     G3578      1
    X3578     B78        1
    X3579     COST       6
    X3579     A35        1
    X3579     G3579      1
    X3579     B79        1
    X3580     COST       5
    X3580     A35        1
    X3580     G3580      1
    X3580     B80        1
    X3581     COST       8
    X3581     A35        1
    X3581     G3581      1
    X3581     B81        1
    X3582     COST       6
    X3582     A35        1
    X3582     G3582      1
    X3582     B82        1
    X3583     COST       6
    X3583     A35        1
    X3583     G3583      1
    X3583     B83        1
    X3584     COST       6
    X3584     A35        1
    X3584     G3584      1
    X3584     B84        1
    X3585     COST       6
    X3585     A35        1
    X3585     G3585      1
    X3585     B85        1
    X3586     COST       5
    X3586     A35        1
    X3586     G3586      1
    X3586     B86        1
    X3587     COST       3
    X3587     A35        1
    X3587     G3587      1
    X3587     B87        1
    X3588     COST       7
    X3588     A35        1
    X3588     G3588      1
    X3588     B88        1
    X3589     COST       4
    X3589     A35        1
    X3589     G3589      1
    X3589     B89        1
    X3590     COST       5
    X3590     A35        1
    X3590     G3590      1
    X3590     B90        1
    X3591     COST       5
    X3591     A35        1
    X3591     G3591      1
    X3591     B91        1
    X3592     COST       5
    X3592     A35        1
    X3592     G3592      1
    X3592     B92        1
    X3593     COST       5
    X3593     A35        1
    X3593     G3593      1
    X3593     B93        1
    X3594     COST       7
    X3594     A35        1
    X3594     G3594      1
    X3594     B94        1
    X3595     COST       6
    X3595     A35        1
    X3595     G3595      1
    X3595     B95        1
    X3596     COST       6
    X3596     A35        1
    X3596     G3596      1
    X3596     B96        1
    X3597     COST       5
    X3597     A35        1
    X3597     G3597      1
    X3597     B97        1
    X3598     COST       7
    X3598     A35        1
    X3598     G3598      1
    X3598     B98        1
    X3599     COST       4
    X3599     A35        1
    X3599     G3599      1
    X3599     B99        1
    X3600     COST       6
    X3600     A36        1
    X3600     G3600      1
    X3600     B0         1
    X3601     COST       7
    X3601     A36        1
    X3601     G3601      1
    X3601     B1         1
    X3602     COST       7
    X3602     A36        1
    X3602     G3602      1
    X3602     B2         1
    X3603     COST       3
    X3603     A36        1
    X3603     G3603      1
    X3603     B3         1
    X3604     COST       4
    X3604     A36        1
    X3604     G3604      1
    X3604     B4         1
    X3605     COST       4
    X3605     A36        1
    X3605     G3605      1
    X3605     B5         1
    X3606     COST       6
    X3606     A36        1
    X3606     G3606      1
    X3606     B6         1
    X3607     COST       8
    X3607     A36        1
    X3607     G3607      1
    X3607     B7         1
    X3608     COST       8
    X3608     A36        1
    X3608     G3608      1
    X3608     B8         1
    X3609     COST       7
    X3609     A36        1
    X3609     G3609      1
    X3609     B9         1
    X3610     COST       4
    X3610     A36        1
    X3610     G3610      1
    X3610     B10        1
    X3611     COST       3
    X3611     A36        1
    X3611     G3611      1
    X3611     B11        1
    X3612     COST       3
    X3612     A36        1
    X3612     G3612      1
    X3612     B12        1
    X3613     COST       8
    X3613     A36        1
    X3613     G3613      1
    X3613     B13        1
    X3614     COST       8
    X3614     A36        1
    X3614     G3614      1
    X3614     B14        1
    X3615     COST       7
    X3615     A36        1
    X3615     G3615      1
    X3615     B15        1
    X3616     COST       8
    X3616     A36        1
    X3616     G3616      1
    X3616     B16        1
    X3617     COST       3
    X3617     A36        1
    X3617     G3617      1
    X3617     B17        1
    X3618     COST       7
    X3618     A36        1
    X3618     G3618      1
    X3618     B18        1
    X3619     COST       6
    X3619     A36        1
    X3619     G3619      1
    X3619     B19        1
    X3620     COST       5
    X3620     A36        1
    X3620     G3620      1
    X3620     B20        1
    X3621     COST       3
    X3621     A36        1
    X3621     G3621      1
    X3621     B21        1
    X3622     COST       3
    X3622     A36        1
    X3622     G3622      1
    X3622     B22        1
    X3623     COST       3
    X3623     A36        1
    X3623     G3623      1
    X3623     B23        1
    X3624     COST       6
    X3624     A36        1
    X3624     G3624      1
    X3624     B24        1
    X3625     COST       8
    X3625     A36        1
    X3625     G3625      1
    X3625     B25        1
    X3626     COST       4
    X3626     A36        1
    X3626     G3626      1
    X3626     B26        1
    X3627     COST       4
    X3627     A36        1
    X3627     G3627      1
    X3627     B27        1
    X3628     COST       4
    X3628     A36        1
    X3628     G3628      1
    X3628     B28        1
    X3629     COST       7
    X3629     A36        1
    X3629     G3629      1
    X3629     B29        1
    X3630     COST       3
    X3630     A36        1
    X3630     G3630      1
    X3630     B30        1
    X3631     COST       7
    X3631     A36        1
    X3631     G3631      1
    X3631     B31        1
    X3632     COST       7
    X3632     A36        1
    X3632     G3632      1
    X3632     B32        1
    X3633     COST       8
    X3633     A36        1
    X3633     G3633      1
    X3633     B33        1
    X3634     COST       4
    X3634     A36        1
    X3634     G3634      1
    X3634     B34        1
    X3635     COST       3
    X3635     A36        1
    X3635     G3635      1
    X3635     B35        1
    X3636     COST       4
    X3636     A36        1
    X3636     G3636      1
    X3636     B36        1
    X3637     COST       8
    X3637     A36        1
    X3637     G3637      1
    X3637     B37        1
    X3638     COST       4
    X3638     A36        1
    X3638     G3638      1
    X3638     B38        1
    X3639     COST       4
    X3639     A36        1
    X3639     G3639      1
    X3639     B39        1
    X3640     COST       8
    X3640     A36        1
    X3640     G3640      1
    X3640     B40        1
    X3641     COST       8
    X3641     A36        1
    X3641     G3641      1
    X3641     B41        1
    X3642     COST       4
    X3642     A36        1
    X3642     G3642      1
    X3642     B42        1
    X3643     COST       8
    X3643     A36        1
    X3643     G3643      1
    X3643     B43        1
    X3644     COST       4
    X3644     A36        1
    X3644     G3644      1
    X3644     B44        1
    X3645     COST       3
    X3645     A36        1
    X3645     G3645      1
    X3645     B45        1
    X3646     COST       4
    X3646     A36        1
    X3646     G3646      1
    X3646     B46        1
    X3647     COST       8
    X3647     A36        1
    X3647     G3647      1
    X3647     B47        1
    X3648     COST       4
    X3648     A36        1
    X3648     G3648      1
    X3648     B48        1
    X3649     COST       3
    X3649     A36        1
    X3649     G3649      1
    X3649     B49        1
    X3650     COST       5
    X3650     A36        1
    X3650     G3650      1
    X3650     B50        1
    X3651     COST       6
    X3651     A36        1
    X3651     G3651      1
    X3651     B51        1
    X3652     COST       4
    X3652     A36        1
    X3652     G3652      1
    X3652     B52        1
    X3653     COST       7
    X3653     A36        1
    X3653     G3653      1
    X3653     B53        1
    X3654     COST       3
    X3654     A36        1
    X3654     G3654      1
    X3654     B54        1
    X3655     COST       7
    X3655     A36        1
    X3655     G3655      1
    X3655     B55        1
    X3656     COST       6
    X3656     A36        1
    X3656     G3656      1
    X3656     B56        1
    X3657     COST       5
    X3657     A36        1
    X3657     G3657      1
    X3657     B57        1
    X3658     COST       4
    X3658     A36        1
    X3658     G3658      1
    X3658     B58        1
    X3659     COST       4
    X3659     A36        1
    X3659     G3659      1
    X3659     B59        1
    X3660     COST       7
    X3660     A36        1
    X3660     G3660      1
    X3660     B60        1
    X3661     COST       3
    X3661     A36        1
    X3661     G3661      1
    X3661     B61        1
    X3662     COST       4
    X3662     A36        1
    X3662     G3662      1
    X3662     B62        1
    X3663     COST       7
    X3663     A36        1
    X3663     G3663      1
    X3663     B63        1
    X3664     COST       4
    X3664     A36        1
    X3664     G3664      1
    X3664     B64        1
    X3665     COST       5
    X3665     A36        1
    X3665     G3665      1
    X3665     B65        1
    X3666     COST       5
    X3666     A36        1
    X3666     G3666      1
    X3666     B66        1
    X3667     COST       3
    X3667     A36        1
    X3667     G3667      1
    X3667     B67        1
    X3668     COST       5
    X3668     A36        1
    X3668     G3668      1
    X3668     B68        1
    X3669     COST       5
    X3669     A36        1
    X3669     G3669      1
    X3669     B69        1
    X3670     COST       6
    X3670     A36        1
    X3670     G3670      1
    X3670     B70        1
    X3671     COST       8
    X3671     A36        1
    X3671     G3671      1
    X3671     B71        1
    X3672     COST       8
    X3672     A36        1
    X3672     G3672      1
    X3672     B72        1
    X3673     COST       3
    X3673     A36        1
    X3673     G3673      1
    X3673     B73        1
    X3674     COST       8
    X3674     A36        1
    X3674     G3674      1
    X3674     B74        1
    X3675     COST       8
    X3675     A36        1
    X3675     G3675      1
    X3675     B75        1
    X3676     COST       7
    X3676     A36        1
    X3676     G3676      1
    X3676     B76        1
    X3677     COST       6
    X3677     A36        1
    X3677     G3677      1
    X3677     B77        1
    X3678     COST       4
    X3678     A36        1
    X3678     G3678      1
    X3678     B78        1
    X3679     COST       4
    X3679     A36        1
    X3679     G3679      1
    X3679     B79        1
    X3680     COST       7
    X3680     A36        1
    X3680     G3680      1
    X3680     B80        1
    X3681     COST       5
    X3681     A36        1
    X3681     G3681      1
    X3681     B81        1
    X3682     COST       7
    X3682     A36        1
    X3682     G3682      1
    X3682     B82        1
    X3683     COST       6
    X3683     A36        1
    X3683     G3683      1
    X3683     B83        1
    X3684     COST       7
    X3684     A36        1
    X3684     G3684      1
    X3684     B84        1
    X3685     COST       5
    X3685     A36        1
    X3685     G3685      1
    X3685     B85        1
    X3686     COST       7
    X3686     A36        1
    X3686     G3686      1
    X3686     B86        1
    X3687     COST       7
    X3687     A36        1
    X3687     G3687      1
    X3687     B87        1
    X3688     COST       4
    X3688     A36        1
    X3688     G3688      1
    X3688     B88        1
    X3689     COST       7
    X3689     A36        1
    X3689     G3689      1
    X3689     B89        1
    X3690     COST       7
    X3690     A36        1
    X3690     G3690      1
    X3690     B90        1
    X3691     COST       5
    X3691     A36        1
    X3691     G3691      1
    X3691     B91        1
    X3692     COST       4
    X3692     A36        1
    X3692     G3692      1
    X3692     B92        1
    X3693     COST       6
    X3693     A36        1
    X3693     G3693      1
    X3693     B93        1
    X3694     COST       6
    X3694     A36        1
    X3694     G3694      1
    X3694     B94        1
    X3695     COST       5
    X3695     A36        1
    X3695     G3695      1
    X3695     B95        1
    X3696     COST       4
    X3696     A36        1
    X3696     G3696      1
    X3696     B96        1
    X3697     COST       5
    X3697     A36        1
    X3697     G3697      1
    X3697     B97        1
    X3698     COST       6
    X3698     A36        1
    X3698     G3698      1
    X3698     B98        1
    X3699     COST       6
    X3699     A36        1
    X3699     G3699      1
    X3699     B99        1
    X3700     COST       6
    X3700     A37        1
    X3700     G3700      1
    X3700     B0         1
    X3701     COST       4
    X3701     A37        1
    X3701     G3701      1
    X3701     B1         1
    X3702     COST       8
    X3702     A37        1
    X3702     G3702      1
    X3702     B2         1
    X3703     COST       7
    X3703     A37        1
    X3703     G3703      1
    X3703     B3         1
    X3704     COST       3
    X3704     A37        1
    X3704     G3704      1
    X3704     B4         1
    X3705     COST       3
    X3705     A37        1
    X3705     G3705      1
    X3705     B5         1
    X3706     COST       7
    X3706     A37        1
    X3706     G3706      1
    X3706     B6         1
    X3707     COST       3
    X3707     A37        1
    X3707     G3707      1
    X3707     B7         1
    X3708     COST       3
    X3708     A37        1
    X3708     G3708      1
    X3708     B8         1
    X3709     COST       3
    X3709     A37        1
    X3709     G3709      1
    X3709     B9         1
    X3710     COST       7
    X3710     A37        1
    X3710     G3710      1
    X3710     B10        1
    X3711     COST       8
    X3711     A37        1
    X3711     G3711      1
    X3711     B11        1
    X3712     COST       7
    X3712     A37        1
    X3712     G3712      1
    X3712     B12        1
    X3713     COST       7
    X3713     A37        1
    X3713     G3713      1
    X3713     B13        1
    X3714     COST       8
    X3714     A37        1
    X3714     G3714      1
    X3714     B14        1
    X3715     COST       5
    X3715     A37        1
    X3715     G3715      1
    X3715     B15        1
    X3716     COST       5
    X3716     A37        1
    X3716     G3716      1
    X3716     B16        1
    X3717     COST       7
    X3717     A37        1
    X3717     G3717      1
    X3717     B17        1
    X3718     COST       5
    X3718     A37        1
    X3718     G3718      1
    X3718     B18        1
    X3719     COST       5
    X3719     A37        1
    X3719     G3719      1
    X3719     B19        1
    X3720     COST       3
    X3720     A37        1
    X3720     G3720      1
    X3720     B20        1
    X3721     COST       8
    X3721     A37        1
    X3721     G3721      1
    X3721     B21        1
    X3722     COST       5
    X3722     A37        1
    X3722     G3722      1
    X3722     B22        1
    X3723     COST       5
    X3723     A37        1
    X3723     G3723      1
    X3723     B23        1
    X3724     COST       5
    X3724     A37        1
    X3724     G3724      1
    X3724     B24        1
    X3725     COST       6
    X3725     A37        1
    X3725     G3725      1
    X3725     B25        1
    X3726     COST       6
    X3726     A37        1
    X3726     G3726      1
    X3726     B26        1
    X3727     COST       5
    X3727     A37        1
    X3727     G3727      1
    X3727     B27        1
    X3728     COST       8
    X3728     A37        1
    X3728     G3728      1
    X3728     B28        1
    X3729     COST       4
    X3729     A37        1
    X3729     G3729      1
    X3729     B29        1
    X3730     COST       7
    X3730     A37        1
    X3730     G3730      1
    X3730     B30        1
    X3731     COST       3
    X3731     A37        1
    X3731     G3731      1
    X3731     B31        1
    X3732     COST       7
    X3732     A37        1
    X3732     G3732      1
    X3732     B32        1
    X3733     COST       3
    X3733     A37        1
    X3733     G3733      1
    X3733     B33        1
    X3734     COST       4
    X3734     A37        1
    X3734     G3734      1
    X3734     B34        1
    X3735     COST       7
    X3735     A37        1
    X3735     G3735      1
    X3735     B35        1
    X3736     COST       8
    X3736     A37        1
    X3736     G3736      1
    X3736     B36        1
    X3737     COST       8
    X3737     A37        1
    X3737     G3737      1
    X3737     B37        1
    X3738     COST       7
    X3738     A37        1
    X3738     G3738      1
    X3738     B38        1
    X3739     COST       8
    X3739     A37        1
    X3739     G3739      1
    X3739     B39        1
    X3740     COST       8
    X3740     A37        1
    X3740     G3740      1
    X3740     B40        1
    X3741     COST       4
    X3741     A37        1
    X3741     G3741      1
    X3741     B41        1
    X3742     COST       4
    X3742     A37        1
    X3742     G3742      1
    X3742     B42        1
    X3743     COST       8
    X3743     A37        1
    X3743     G3743      1
    X3743     B43        1
    X3744     COST       3
    X3744     A37        1
    X3744     G3744      1
    X3744     B44        1
    X3745     COST       3
    X3745     A37        1
    X3745     G3745      1
    X3745     B45        1
    X3746     COST       6
    X3746     A37        1
    X3746     G3746      1
    X3746     B46        1
    X3747     COST       7
    X3747     A37        1
    X3747     G3747      1
    X3747     B47        1
    X3748     COST       8
    X3748     A37        1
    X3748     G3748      1
    X3748     B48        1
    X3749     COST       8
    X3749     A37        1
    X3749     G3749      1
    X3749     B49        1
    X3750     COST       8
    X3750     A37        1
    X3750     G3750      1
    X3750     B50        1
    X3751     COST       8
    X3751     A37        1
    X3751     G3751      1
    X3751     B51        1
    X3752     COST       4
    X3752     A37        1
    X3752     G3752      1
    X3752     B52        1
    X3753     COST       5
    X3753     A37        1
    X3753     G3753      1
    X3753     B53        1
    X3754     COST       3
    X3754     A37        1
    X3754     G3754      1
    X3754     B54        1
    X3755     COST       3
    X3755     A37        1
    X3755     G3755      1
    X3755     B55        1
    X3756     COST       4
    X3756     A37        1
    X3756     G3756      1
    X3756     B56        1
    X3757     COST       4
    X3757     A37        1
    X3757     G3757      1
    X3757     B57        1
    X3758     COST       3
    X3758     A37        1
    X3758     G3758      1
    X3758     B58        1
    X3759     COST       4
    X3759     A37        1
    X3759     G3759      1
    X3759     B59        1
    X3760     COST       4
    X3760     A37        1
    X3760     G3760      1
    X3760     B60        1
    X3761     COST       5
    X3761     A37        1
    X3761     G3761      1
    X3761     B61        1
    X3762     COST       5
    X3762     A37        1
    X3762     G3762      1
    X3762     B62        1
    X3763     COST       6
    X3763     A37        1
    X3763     G3763      1
    X3763     B63        1
    X3764     COST       4
    X3764     A37        1
    X3764     G3764      1
    X3764     B64        1
    X3765     COST       8
    X3765     A37        1
    X3765     G3765      1
    X3765     B65        1
    X3766     COST       5
    X3766     A37        1
    X3766     G3766      1
    X3766     B66        1
    X3767     COST       8
    X3767     A37        1
    X3767     G3767      1
    X3767     B67        1
    X3768     COST       5
    X3768     A37        1
    X3768     G3768      1
    X3768     B68        1
    X3769     COST       5
    X3769     A37        1
    X3769     G3769      1
    X3769     B69        1
    X3770     COST       6
    X3770     A37        1
    X3770     G3770      1
    X3770     B70        1
    X3771     COST       8
    X3771     A37        1
    X3771     G3771      1
    X3771     B71        1
    X3772     COST       7
    X3772     A37        1
    X3772     G3772      1
    X3772     B72        1
    X3773     COST       4
    X3773     A37        1
    X3773     G3773      1
    X3773     B73        1
    X3774     COST       8
    X3774     A37        1
    X3774     G3774      1
    X3774     B74        1
    X3775     COST       7
    X3775     A37        1
    X3775     G3775      1
    X3775     B75        1
    X3776     COST       5
    X3776     A37        1
    X3776     G3776      1
    X3776     B76        1
    X3777     COST       8
    X3777     A37        1
    X3777     G3777      1
    X3777     B77        1
    X3778     COST       7
    X3778     A37        1
    X3778     G3778      1
    X3778     B78        1
    X3779     COST       6
    X3779     A37        1
    X3779     G3779      1
    X3779     B79        1
    X3780     COST       7
    X3780     A37        1
    X3780     G3780      1
    X3780     B80        1
    X3781     COST       5
    X3781     A37        1
    X3781     G3781      1
    X3781     B81        1
    X3782     COST       5
    X3782     A37        1
    X3782     G3782      1
    X3782     B82        1
    X3783     COST       4
    X3783     A37        1
    X3783     G3783      1
    X3783     B83        1
    X3784     COST       6
    X3784     A37        1
    X3784     G3784      1
    X3784     B84        1
    X3785     COST       5
    X3785     A37        1
    X3785     G3785      1
    X3785     B85        1
    X3786     COST       7
    X3786     A37        1
    X3786     G3786      1
    X3786     B86        1
    X3787     COST       5
    X3787     A37        1
    X3787     G3787      1
    X3787     B87        1
    X3788     COST       4
    X3788     A37        1
    X3788     G3788      1
    X3788     B88        1
    X3789     COST       5
    X3789     A37        1
    X3789     G3789      1
    X3789     B89        1
    X3790     COST       6
    X3790     A37        1
    X3790     G3790      1
    X3790     B90        1
    X3791     COST       5
    X3791     A37        1
    X3791     G3791      1
    X3791     B91        1
    X3792     COST       4
    X3792     A37        1
    X3792     G3792      1
    X3792     B92        1
    X3793     COST       6
    X3793     A37        1
    X3793     G3793      1
    X3793     B93        1
    X3794     COST       6
    X3794     A37        1
    X3794     G3794      1
    X3794     B94        1
    X3795     COST       5
    X3795     A37        1
    X3795     G3795      1
    X3795     B95        1
    X3796     COST       4
    X3796     A37        1
    X3796     G3796      1
    X3796     B96        1
    X3797     COST       4
    X3797     A37        1
    X3797     G3797      1
    X3797     B97        1
    X3798     COST       5
    X3798     A37        1
    X3798     G3798      1
    X3798     B98        1
    X3799     COST       4
    X3799     A37        1
    X3799     G3799      1
    X3799     B99        1
    X3800     COST       3
    X3800     A38        1
    X3800     G3800      1
    X3800     B0         1
    X3801     COST       3
    X3801     A38        1
    X3801     G3801      1
    X3801     B1         1
    X3802     COST       8
    X3802     A38        1
    X3802     G3802      1
    X3802     B2         1
    X3803     COST       6
    X3803     A38        1
    X3803     G3803      1
    X3803     B3         1
    X3804     COST       5
    X3804     A38        1
    X3804     G3804      1
    X3804     B4         1
    X3805     COST       6
    X3805     A38        1
    X3805     G3805      1
    X3805     B5         1
    X3806     COST       6
    X3806     A38        1
    X3806     G3806      1
    X3806     B6         1
    X3807     COST       5
    X3807     A38        1
    X3807     G3807      1
    X3807     B7         1
    X3808     COST       7
    X3808     A38        1
    X3808     G3808      1
    X3808     B8         1
    X3809     COST       3
    X3809     A38        1
    X3809     G3809      1
    X3809     B9         1
    X3810     COST       7
    X3810     A38        1
    X3810     G3810      1
    X3810     B10        1
    X3811     COST       8
    X3811     A38        1
    X3811     G3811      1
    X3811     B11        1
    X3812     COST       8
    X3812     A38        1
    X3812     G3812      1
    X3812     B12        1
    X3813     COST       3
    X3813     A38        1
    X3813     G3813      1
    X3813     B13        1
    X3814     COST       3
    X3814     A38        1
    X3814     G3814      1
    X3814     B14        1
    X3815     COST       8
    X3815     A38        1
    X3815     G3815      1
    X3815     B15        1
    X3816     COST       5
    X3816     A38        1
    X3816     G3816      1
    X3816     B16        1
    X3817     COST       8
    X3817     A38        1
    X3817     G3817      1
    X3817     B17        1
    X3818     COST       5
    X3818     A38        1
    X3818     G3818      1
    X3818     B18        1
    X3819     COST       8
    X3819     A38        1
    X3819     G3819      1
    X3819     B19        1
    X3820     COST       3
    X3820     A38        1
    X3820     G3820      1
    X3820     B20        1
    X3821     COST       8
    X3821     A38        1
    X3821     G3821      1
    X3821     B21        1
    X3822     COST       5
    X3822     A38        1
    X3822     G3822      1
    X3822     B22        1
    X3823     COST       5
    X3823     A38        1
    X3823     G3823      1
    X3823     B23        1
    X3824     COST       3
    X3824     A38        1
    X3824     G3824      1
    X3824     B24        1
    X3825     COST       8
    X3825     A38        1
    X3825     G3825      1
    X3825     B25        1
    X3826     COST       4
    X3826     A38        1
    X3826     G3826      1
    X3826     B26        1
    X3827     COST       3
    X3827     A38        1
    X3827     G3827      1
    X3827     B27        1
    X3828     COST       4
    X3828     A38        1
    X3828     G3828      1
    X3828     B28        1
    X3829     COST       4
    X3829     A38        1
    X3829     G3829      1
    X3829     B29        1
    X3830     COST       6
    X3830     A38        1
    X3830     G3830      1
    X3830     B30        1
    X3831     COST       7
    X3831     A38        1
    X3831     G3831      1
    X3831     B31        1
    X3832     COST       5
    X3832     A38        1
    X3832     G3832      1
    X3832     B32        1
    X3833     COST       4
    X3833     A38        1
    X3833     G3833      1
    X3833     B33        1
    X3834     COST       8
    X3834     A38        1
    X3834     G3834      1
    X3834     B34        1
    X3835     COST       7
    X3835     A38        1
    X3835     G3835      1
    X3835     B35        1
    X3836     COST       3
    X3836     A38        1
    X3836     G3836      1
    X3836     B36        1
    X3837     COST       8
    X3837     A38        1
    X3837     G3837      1
    X3837     B37        1
    X3838     COST       8
    X3838     A38        1
    X3838     G3838      1
    X3838     B38        1
    X3839     COST       3
    X3839     A38        1
    X3839     G3839      1
    X3839     B39        1
    X3840     COST       7
    X3840     A38        1
    X3840     G3840      1
    X3840     B40        1
    X3841     COST       7
    X3841     A38        1
    X3841     G3841      1
    X3841     B41        1
    X3842     COST       3
    X3842     A38        1
    X3842     G3842      1
    X3842     B42        1
    X3843     COST       4
    X3843     A38        1
    X3843     G3843      1
    X3843     B43        1
    X3844     COST       3
    X3844     A38        1
    X3844     G3844      1
    X3844     B44        1
    X3845     COST       4
    X3845     A38        1
    X3845     G3845      1
    X3845     B45        1
    X3846     COST       7
    X3846     A38        1
    X3846     G3846      1
    X3846     B46        1
    X3847     COST       6
    X3847     A38        1
    X3847     G3847      1
    X3847     B47        1
    X3848     COST       7
    X3848     A38        1
    X3848     G3848      1
    X3848     B48        1
    X3849     COST       8
    X3849     A38        1
    X3849     G3849      1
    X3849     B49        1
    X3850     COST       6
    X3850     A38        1
    X3850     G3850      1
    X3850     B50        1
    X3851     COST       8
    X3851     A38        1
    X3851     G3851      1
    X3851     B51        1
    X3852     COST       4
    X3852     A38        1
    X3852     G3852      1
    X3852     B52        1
    X3853     COST       5
    X3853     A38        1
    X3853     G3853      1
    X3853     B53        1
    X3854     COST       3
    X3854     A38        1
    X3854     G3854      1
    X3854     B54        1
    X3855     COST       6
    X3855     A38        1
    X3855     G3855      1
    X3855     B55        1
    X3856     COST       6
    X3856     A38        1
    X3856     G3856      1
    X3856     B56        1
    X3857     COST       3
    X3857     A38        1
    X3857     G3857      1
    X3857     B57        1
    X3858     COST       7
    X3858     A38        1
    X3858     G3858      1
    X3858     B58        1
    X3859     COST       6
    X3859     A38        1
    X3859     G3859      1
    X3859     B59        1
    X3860     COST       7
    X3860     A38        1
    X3860     G3860      1
    X3860     B60        1
    X3861     COST       7
    X3861     A38        1
    X3861     G3861      1
    X3861     B61        1
    X3862     COST       7
    X3862     A38        1
    X3862     G3862      1
    X3862     B62        1
    X3863     COST       6
    X3863     A38        1
    X3863     G3863      1
    X3863     B63        1
    X3864     COST       7
    X3864     A38        1
    X3864     G3864      1
    X3864     B64        1
    X3865     COST       8
    X3865     A38        1
    X3865     G3865      1
    X3865     B65        1
    X3866     COST       6
    X3866     A38        1
    X3866     G3866      1
    X3866     B66        1
    X3867     COST       6
    X3867     A38        1
    X3867     G3867      1
    X3867     B67        1
    X3868     COST       6
    X3868     A38        1
    X3868     G3868      1
    X3868     B68        1
    X3869     COST       3
    X3869     A38        1
    X3869     G3869      1
    X3869     B69        1
    X3870     COST       3
    X3870     A38        1
    X3870     G3870      1
    X3870     B70        1
    X3871     COST       5
    X3871     A38        1
    X3871     G3871      1
    X3871     B71        1
    X3872     COST       3
    X3872     A38        1
    X3872     G3872      1
    X3872     B72        1
    X3873     COST       6
    X3873     A38        1
    X3873     G3873      1
    X3873     B73        1
    X3874     COST       8
    X3874     A38        1
    X3874     G3874      1
    X3874     B74        1
    X3875     COST       5
    X3875     A38        1
    X3875     G3875      1
    X3875     B75        1
    X3876     COST       5
    X3876     A38        1
    X3876     G3876      1
    X3876     B76        1
    X3877     COST       6
    X3877     A38        1
    X3877     G3877      1
    X3877     B77        1
    X3878     COST       8
    X3878     A38        1
    X3878     G3878      1
    X3878     B78        1
    X3879     COST       5
    X3879     A38        1
    X3879     G3879      1
    X3879     B79        1
    X3880     COST       6
    X3880     A38        1
    X3880     G3880      1
    X3880     B80        1
    X3881     COST       4
    X3881     A38        1
    X3881     G3881      1
    X3881     B81        1
    X3882     COST       4
    X3882     A38        1
    X3882     G3882      1
    X3882     B82        1
    X3883     COST       7
    X3883     A38        1
    X3883     G3883      1
    X3883     B83        1
    X3884     COST       6
    X3884     A38        1
    X3884     G3884      1
    X3884     B84        1
    X3885     COST       4
    X3885     A38        1
    X3885     G3885      1
    X3885     B85        1
    X3886     COST       5
    X3886     A38        1
    X3886     G3886      1
    X3886     B86        1
    X3887     COST       6
    X3887     A38        1
    X3887     G3887      1
    X3887     B87        1
    X3888     COST       5
    X3888     A38        1
    X3888     G3888      1
    X3888     B88        1
    X3889     COST       4
    X3889     A38        1
    X3889     G3889      1
    X3889     B89        1
    X3890     COST       6
    X3890     A38        1
    X3890     G3890      1
    X3890     B90        1
    X3891     COST       7
    X3891     A38        1
    X3891     G3891      1
    X3891     B91        1
    X3892     COST       7
    X3892     A38        1
    X3892     G3892      1
    X3892     B92        1
    X3893     COST       6
    X3893     A38        1
    X3893     G3893      1
    X3893     B93        1
    X3894     COST       4
    X3894     A38        1
    X3894     G3894      1
    X3894     B94        1
    X3895     COST       4
    X3895     A38        1
    X3895     G3895      1
    X3895     B95        1
    X3896     COST       7
    X3896     A38        1
    X3896     G3896      1
    X3896     B96        1
    X3897     COST       6
    X3897     A38        1
    X3897     G3897      1
    X3897     B97        1
    X3898     COST       5
    X3898     A38        1
    X3898     G3898      1
    X3898     B98        1
    X3899     COST       3
    X3899     A38        1
    X3899     G3899      1
    X3899     B99        1
    X3900     COST       8
    X3900     A39        1
    X3900     G3900      1
    X3900     B0         1
    X3901     COST       4
    X3901     A39        1
    X3901     G3901      1
    X3901     B1         1
    X3902     COST       5
    X3902     A39        1
    X3902     G3902      1
    X3902     B2         1
    X3903     COST       8
    X3903     A39        1
    X3903     G3903      1
    X3903     B3         1
    X3904     COST       5
    X3904     A39        1
    X3904     G3904      1
    X3904     B4         1
    X3905     COST       5
    X3905     A39        1
    X3905     G3905      1
    X3905     B5         1
    X3906     COST       5
    X3906     A39        1
    X3906     G3906      1
    X3906     B6         1
    X3907     COST       5
    X3907     A39        1
    X3907     G3907      1
    X3907     B7         1
    X3908     COST       5
    X3908     A39        1
    X3908     G3908      1
    X3908     B8         1
    X3909     COST       3
    X3909     A39        1
    X3909     G3909      1
    X3909     B9         1
    X3910     COST       4
    X3910     A39        1
    X3910     G3910      1
    X3910     B10        1
    X3911     COST       4
    X3911     A39        1
    X3911     G3911      1
    X3911     B11        1
    X3912     COST       6
    X3912     A39        1
    X3912     G3912      1
    X3912     B12        1
    X3913     COST       6
    X3913     A39        1
    X3913     G3913      1
    X3913     B13        1
    X3914     COST       7
    X3914     A39        1
    X3914     G3914      1
    X3914     B14        1
    X3915     COST       8
    X3915     A39        1
    X3915     G3915      1
    X3915     B15        1
    X3916     COST       6
    X3916     A39        1
    X3916     G3916      1
    X3916     B16        1
    X3917     COST       8
    X3917     A39        1
    X3917     G3917      1
    X3917     B17        1
    X3918     COST       3
    X3918     A39        1
    X3918     G3918      1
    X3918     B18        1
    X3919     COST       6
    X3919     A39        1
    X3919     G3919      1
    X3919     B19        1
    X3920     COST       8
    X3920     A39        1
    X3920     G3920      1
    X3920     B20        1
    X3921     COST       8
    X3921     A39        1
    X3921     G3921      1
    X3921     B21        1
    X3922     COST       5
    X3922     A39        1
    X3922     G3922      1
    X3922     B22        1
    X3923     COST       5
    X3923     A39        1
    X3923     G3923      1
    X3923     B23        1
    X3924     COST       8
    X3924     A39        1
    X3924     G3924      1
    X3924     B24        1
    X3925     COST       8
    X3925     A39        1
    X3925     G3925      1
    X3925     B25        1
    X3926     COST       8
    X3926     A39        1
    X3926     G3926      1
    X3926     B26        1
    X3927     COST       6
    X3927     A39        1
    X3927     G3927      1
    X3927     B27        1
    X3928     COST       8
    X3928     A39        1
    X3928     G3928      1
    X3928     B28        1
    X3929     COST       4
    X3929     A39        1
    X3929     G3929      1
    X3929     B29        1
    X3930     COST       6
    X3930     A39        1
    X3930     G3930      1
    X3930     B30        1
    X3931     COST       7
    X3931     A39        1
    X3931     G3931      1
    X3931     B31        1
    X3932     COST       8
    X3932     A39        1
    X3932     G3932      1
    X3932     B32        1
    X3933     COST       3
    X3933     A39        1
    X3933     G3933      1
    X3933     B33        1
    X3934     COST       3
    X3934     A39        1
    X3934     G3934      1
    X3934     B34        1
    X3935     COST       7
    X3935     A39        1
    X3935     G3935      1
    X3935     B35        1
    X3936     COST       7
    X3936     A39        1
    X3936     G3936      1
    X3936     B36        1
    X3937     COST       7
    X3937     A39        1
    X3937     G3937      1
    X3937     B37        1
    X3938     COST       3
    X3938     A39        1
    X3938     G3938      1
    X3938     B38        1
    X3939     COST       3
    X3939     A39        1
    X3939     G3939      1
    X3939     B39        1
    X3940     COST       8
    X3940     A39        1
    X3940     G3940      1
    X3940     B40        1
    X3941     COST       7
    X3941     A39        1
    X3941     G3941      1
    X3941     B41        1
    X3942     COST       3
    X3942     A39        1
    X3942     G3942      1
    X3942     B42        1
    X3943     COST       8
    X3943     A39        1
    X3943     G3943      1
    X3943     B43        1
    X3944     COST       8
    X3944     A39        1
    X3944     G3944      1
    X3944     B44        1
    X3945     COST       7
    X3945     A39        1
    X3945     G3945      1
    X3945     B45        1
    X3946     COST       4
    X3946     A39        1
    X3946     G3946      1
    X3946     B46        1
    X3947     COST       3
    X3947     A39        1
    X3947     G3947      1
    X3947     B47        1
    X3948     COST       7
    X3948     A39        1
    X3948     G3948      1
    X3948     B48        1
    X3949     COST       4
    X3949     A39        1
    X3949     G3949      1
    X3949     B49        1
    X3950     COST       6
    X3950     A39        1
    X3950     G3950      1
    X3950     B50        1
    X3951     COST       7
    X3951     A39        1
    X3951     G3951      1
    X3951     B51        1
    X3952     COST       6
    X3952     A39        1
    X3952     G3952      1
    X3952     B52        1
    X3953     COST       3
    X3953     A39        1
    X3953     G3953      1
    X3953     B53        1
    X3954     COST       3
    X3954     A39        1
    X3954     G3954      1
    X3954     B54        1
    X3955     COST       8
    X3955     A39        1
    X3955     G3955      1
    X3955     B55        1
    X3956     COST       8
    X3956     A39        1
    X3956     G3956      1
    X3956     B56        1
    X3957     COST       8
    X3957     A39        1
    X3957     G3957      1
    X3957     B57        1
    X3958     COST       4
    X3958     A39        1
    X3958     G3958      1
    X3958     B58        1
    X3959     COST       3
    X3959     A39        1
    X3959     G3959      1
    X3959     B59        1
    X3960     COST       8
    X3960     A39        1
    X3960     G3960      1
    X3960     B60        1
    X3961     COST       7
    X3961     A39        1
    X3961     G3961      1
    X3961     B61        1
    X3962     COST       4
    X3962     A39        1
    X3962     G3962      1
    X3962     B62        1
    X3963     COST       6
    X3963     A39        1
    X3963     G3963      1
    X3963     B63        1
    X3964     COST       3
    X3964     A39        1
    X3964     G3964      1
    X3964     B64        1
    X3965     COST       6
    X3965     A39        1
    X3965     G3965      1
    X3965     B65        1
    X3966     COST       6
    X3966     A39        1
    X3966     G3966      1
    X3966     B66        1
    X3967     COST       8
    X3967     A39        1
    X3967     G3967      1
    X3967     B67        1
    X3968     COST       6
    X3968     A39        1
    X3968     G3968      1
    X3968     B68        1
    X3969     COST       8
    X3969     A39        1
    X3969     G3969      1
    X3969     B69        1
    X3970     COST       3
    X3970     A39        1
    X3970     G3970      1
    X3970     B70        1
    X3971     COST       3
    X3971     A39        1
    X3971     G3971      1
    X3971     B71        1
    X3972     COST       6
    X3972     A39        1
    X3972     G3972      1
    X3972     B72        1
    X3973     COST       5
    X3973     A39        1
    X3973     G3973      1
    X3973     B73        1
    X3974     COST       3
    X3974     A39        1
    X3974     G3974      1
    X3974     B74        1
    X3975     COST       3
    X3975     A39        1
    X3975     G3975      1
    X3975     B75        1
    X3976     COST       8
    X3976     A39        1
    X3976     G3976      1
    X3976     B76        1
    X3977     COST       4
    X3977     A39        1
    X3977     G3977      1
    X3977     B77        1
    X3978     COST       5
    X3978     A39        1
    X3978     G3978      1
    X3978     B78        1
    X3979     COST       7
    X3979     A39        1
    X3979     G3979      1
    X3979     B79        1
    X3980     COST       8
    X3980     A39        1
    X3980     G3980      1
    X3980     B80        1
    X3981     COST       4
    X3981     A39        1
    X3981     G3981      1
    X3981     B81        1
    X3982     COST       7
    X3982     A39        1
    X3982     G3982      1
    X3982     B82        1
    X3983     COST       5
    X3983     A39        1
    X3983     G3983      1
    X3983     B83        1
    X3984     COST       6
    X3984     A39        1
    X3984     G3984      1
    X3984     B84        1
    X3985     COST       4
    X3985     A39        1
    X3985     G3985      1
    X3985     B85        1
    X3986     COST       7
    X3986     A39        1
    X3986     G3986      1
    X3986     B86        1
    X3987     COST       4
    X3987     A39        1
    X3987     G3987      1
    X3987     B87        1
    X3988     COST       4
    X3988     A39        1
    X3988     G3988      1
    X3988     B88        1
    X3989     COST       6
    X3989     A39        1
    X3989     G3989      1
    X3989     B89        1
    X3990     COST       7
    X3990     A39        1
    X3990     G3990      1
    X3990     B90        1
    X3991     COST       5
    X3991     A39        1
    X3991     G3991      1
    X3991     B91        1
    X3992     COST       4
    X3992     A39        1
    X3992     G3992      1
    X3992     B92        1
    X3993     COST       4
    X3993     A39        1
    X3993     G3993      1
    X3993     B93        1
    X3994     COST       6
    X3994     A39        1
    X3994     G3994      1
    X3994     B94        1
    X3995     COST       6
    X3995     A39        1
    X3995     G3995      1
    X3995     B95        1
    X3996     COST       6
    X3996     A39        1
    X3996     G3996      1
    X3996     B96        1
    X3997     COST       5
    X3997     A39        1
    X3997     G3997      1
    X3997     B97        1
    X3998     COST       4
    X3998     A39        1
    X3998     G3998      1
    X3998     B98        1
    X3999     COST       5
    X3999     A39        1
    X3999     G3999      1
    X3999     B99        1
    X4000     COST       8
    X4000     A40        1
    X4000     G4000      1
    X4000     B0         1
    X4001     COST       3
    X4001     A40        1
    X4001     G4001      1
    X4001     B1         1
    X4002     COST       8
    X4002     A40        1
    X4002     G4002      1
    X4002     B2         1
    X4003     COST       6
    X4003     A40        1
    X4003     G4003      1
    X4003     B3         1
    X4004     COST       5
    X4004     A40        1
    X4004     G4004      1
    X4004     B4         1
    X4005     COST       5
    X4005     A40        1
    X4005     G4005      1
    X4005     B5         1
    X4006     COST       4
    X4006     A40        1
    X4006     G4006      1
    X4006     B6         1
    X4007     COST       5
    X4007     A40        1
    X4007     G4007      1
    X4007     B7         1
    X4008     COST       6
    X4008     A40        1
    X4008     G4008      1
    X4008     B8         1
    X4009     COST       5
    X4009     A40        1
    X4009     G4009      1
    X4009     B9         1
    X4010     COST       8
    X4010     A40        1
    X4010     G4010      1
    X4010     B10        1
    X4011     COST       3
    X4011     A40        1
    X4011     G4011      1
    X4011     B11        1
    X4012     COST       3
    X4012     A40        1
    X4012     G4012      1
    X4012     B12        1
    X4013     COST       8
    X4013     A40        1
    X4013     G4013      1
    X4013     B13        1
    X4014     COST       4
    X4014     A40        1
    X4014     G4014      1
    X4014     B14        1
    X4015     COST       7
    X4015     A40        1
    X4015     G4015      1
    X4015     B15        1
    X4016     COST       8
    X4016     A40        1
    X4016     G4016      1
    X4016     B16        1
    X4017     COST       5
    X4017     A40        1
    X4017     G4017      1
    X4017     B17        1
    X4018     COST       6
    X4018     A40        1
    X4018     G4018      1
    X4018     B18        1
    X4019     COST       3
    X4019     A40        1
    X4019     G4019      1
    X4019     B19        1
    X4020     COST       4
    X4020     A40        1
    X4020     G4020      1
    X4020     B20        1
    X4021     COST       8
    X4021     A40        1
    X4021     G4021      1
    X4021     B21        1
    X4022     COST       3
    X4022     A40        1
    X4022     G4022      1
    X4022     B22        1
    X4023     COST       3
    X4023     A40        1
    X4023     G4023      1
    X4023     B23        1
    X4024     COST       4
    X4024     A40        1
    X4024     G4024      1
    X4024     B24        1
    X4025     COST       4
    X4025     A40        1
    X4025     G4025      1
    X4025     B25        1
    X4026     COST       3
    X4026     A40        1
    X4026     G4026      1
    X4026     B26        1
    X4027     COST       8
    X4027     A40        1
    X4027     G4027      1
    X4027     B27        1
    X4028     COST       8
    X4028     A40        1
    X4028     G4028      1
    X4028     B28        1
    X4029     COST       7
    X4029     A40        1
    X4029     G4029      1
    X4029     B29        1
    X4030     COST       3
    X4030     A40        1
    X4030     G4030      1
    X4030     B30        1
    X4031     COST       8
    X4031     A40        1
    X4031     G4031      1
    X4031     B31        1
    X4032     COST       3
    X4032     A40        1
    X4032     G4032      1
    X4032     B32        1
    X4033     COST       7
    X4033     A40        1
    X4033     G4033      1
    X4033     B33        1
    X4034     COST       7
    X4034     A40        1
    X4034     G4034      1
    X4034     B34        1
    X4035     COST       7
    X4035     A40        1
    X4035     G4035      1
    X4035     B35        1
    X4036     COST       8
    X4036     A40        1
    X4036     G4036      1
    X4036     B36        1
    X4037     COST       3
    X4037     A40        1
    X4037     G4037      1
    X4037     B37        1
    X4038     COST       4
    X4038     A40        1
    X4038     G4038      1
    X4038     B38        1
    X4039     COST       8
    X4039     A40        1
    X4039     G4039      1
    X4039     B39        1
    X4040     COST       7
    X4040     A40        1
    X4040     G4040      1
    X4040     B40        1
    X4041     COST       7
    X4041     A40        1
    X4041     G4041      1
    X4041     B41        1
    X4042     COST       4
    X4042     A40        1
    X4042     G4042      1
    X4042     B42        1
    X4043     COST       3
    X4043     A40        1
    X4043     G4043      1
    X4043     B43        1
    X4044     COST       8
    X4044     A40        1
    X4044     G4044      1
    X4044     B44        1
    X4045     COST       8
    X4045     A40        1
    X4045     G4045      1
    X4045     B45        1
    X4046     COST       6
    X4046     A40        1
    X4046     G4046      1
    X4046     B46        1
    X4047     COST       8
    X4047     A40        1
    X4047     G4047      1
    X4047     B47        1
    X4048     COST       5
    X4048     A40        1
    X4048     G4048      1
    X4048     B48        1
    X4049     COST       4
    X4049     A40        1
    X4049     G4049      1
    X4049     B49        1
    X4050     COST       3
    X4050     A40        1
    X4050     G4050      1
    X4050     B50        1
    X4051     COST       3
    X4051     A40        1
    X4051     G4051      1
    X4051     B51        1
    X4052     COST       4
    X4052     A40        1
    X4052     G4052      1
    X4052     B52        1
    X4053     COST       5
    X4053     A40        1
    X4053     G4053      1
    X4053     B53        1
    X4054     COST       6
    X4054     A40        1
    X4054     G4054      1
    X4054     B54        1
    X4055     COST       6
    X4055     A40        1
    X4055     G4055      1
    X4055     B55        1
    X4056     COST       3
    X4056     A40        1
    X4056     G4056      1
    X4056     B56        1
    X4057     COST       6
    X4057     A40        1
    X4057     G4057      1
    X4057     B57        1
    X4058     COST       5
    X4058     A40        1
    X4058     G4058      1
    X4058     B58        1
    X4059     COST       7
    X4059     A40        1
    X4059     G4059      1
    X4059     B59        1
    X4060     COST       5
    X4060     A40        1
    X4060     G4060      1
    X4060     B60        1
    X4061     COST       8
    X4061     A40        1
    X4061     G4061      1
    X4061     B61        1
    X4062     COST       5
    X4062     A40        1
    X4062     G4062      1
    X4062     B62        1
    X4063     COST       3
    X4063     A40        1
    X4063     G4063      1
    X4063     B63        1
    X4064     COST       8
    X4064     A40        1
    X4064     G4064      1
    X4064     B64        1
    X4065     COST       5
    X4065     A40        1
    X4065     G4065      1
    X4065     B65        1
    X4066     COST       5
    X4066     A40        1
    X4066     G4066      1
    X4066     B66        1
    X4067     COST       6
    X4067     A40        1
    X4067     G4067      1
    X4067     B67        1
    X4068     COST       8
    X4068     A40        1
    X4068     G4068      1
    X4068     B68        1
    X4069     COST       8
    X4069     A40        1
    X4069     G4069      1
    X4069     B69        1
    X4070     COST       3
    X4070     A40        1
    X4070     G4070      1
    X4070     B70        1
    X4071     COST       5
    X4071     A40        1
    X4071     G4071      1
    X4071     B71        1
    X4072     COST       5
    X4072     A40        1
    X4072     G4072      1
    X4072     B72        1
    X4073     COST       4
    X4073     A40        1
    X4073     G4073      1
    X4073     B73        1
    X4074     COST       4
    X4074     A40        1
    X4074     G4074      1
    X4074     B74        1
    X4075     COST       4
    X4075     A40        1
    X4075     G4075      1
    X4075     B75        1
    X4076     COST       7
    X4076     A40        1
    X4076     G4076      1
    X4076     B76        1
    X4077     COST       5
    X4077     A40        1
    X4077     G4077      1
    X4077     B77        1
    X4078     COST       4
    X4078     A40        1
    X4078     G4078      1
    X4078     B78        1
    X4079     COST       6
    X4079     A40        1
    X4079     G4079      1
    X4079     B79        1
    X4080     COST       6
    X4080     A40        1
    X4080     G4080      1
    X4080     B80        1
    X4081     COST       7
    X4081     A40        1
    X4081     G4081      1
    X4081     B81        1
    X4082     COST       6
    X4082     A40        1
    X4082     G4082      1
    X4082     B82        1
    X4083     COST       5
    X4083     A40        1
    X4083     G4083      1
    X4083     B83        1
    X4084     COST       5
    X4084     A40        1
    X4084     G4084      1
    X4084     B84        1
    X4085     COST       5
    X4085     A40        1
    X4085     G4085      1
    X4085     B85        1
    X4086     COST       6
    X4086     A40        1
    X4086     G4086      1
    X4086     B86        1
    X4087     COST       4
    X4087     A40        1
    X4087     G4087      1
    X4087     B87        1
    X4088     COST       4
    X4088     A40        1
    X4088     G4088      1
    X4088     B88        1
    X4089     COST       4
    X4089     A40        1
    X4089     G4089      1
    X4089     B89        1
    X4090     COST       7
    X4090     A40        1
    X4090     G4090      1
    X4090     B90        1
    X4091     COST       5
    X4091     A40        1
    X4091     G4091      1
    X4091     B91        1
    X4092     COST       4
    X4092     A40        1
    X4092     G4092      1
    X4092     B92        1
    X4093     COST       7
    X4093     A40        1
    X4093     G4093      1
    X4093     B93        1
    X4094     COST       7
    X4094     A40        1
    X4094     G4094      1
    X4094     B94        1
    X4095     COST       5
    X4095     A40        1
    X4095     G4095      1
    X4095     B95        1
    X4096     COST       7
    X4096     A40        1
    X4096     G4096      1
    X4096     B96        1
    X4097     COST       4
    X4097     A40        1
    X4097     G4097      1
    X4097     B97        1
    X4098     COST       7
    X4098     A40        1
    X4098     G4098      1
    X4098     B98        1
    X4099     COST       7
    X4099     A40        1
    X4099     G4099      1
    X4099     B99        1
    X4100     COST       7
    X4100     A41        1
    X4100     G4100      1
    X4100     B0         1
    X4101     COST       8
    X4101     A41        1
    X4101     G4101      1
    X4101     B1         1
    X4102     COST       6
    X4102     A41        1
    X4102     G4102      1
    X4102     B2         1
    X4103     COST       5
    X4103     A41        1
    X4103     G4103      1
    X4103     B3         1
    X4104     COST       4
    X4104     A41        1
    X4104     G4104      1
    X4104     B4         1
    X4105     COST       5
    X4105     A41        1
    X4105     G4105      1
    X4105     B5         1
    X4106     COST       5
    X4106     A41        1
    X4106     G4106      1
    X4106     B6         1
    X4107     COST       8
    X4107     A41        1
    X4107     G4107      1
    X4107     B7         1
    X4108     COST       8
    X4108     A41        1
    X4108     G4108      1
    X4108     B8         1
    X4109     COST       7
    X4109     A41        1
    X4109     G4109      1
    X4109     B9         1
    X4110     COST       8
    X4110     A41        1
    X4110     G4110      1
    X4110     B10        1
    X4111     COST       8
    X4111     A41        1
    X4111     G4111      1
    X4111     B11        1
    X4112     COST       4
    X4112     A41        1
    X4112     G4112      1
    X4112     B12        1
    X4113     COST       8
    X4113     A41        1
    X4113     G4113      1
    X4113     B13        1
    X4114     COST       3
    X4114     A41        1
    X4114     G4114      1
    X4114     B14        1
    X4115     COST       8
    X4115     A41        1
    X4115     G4115      1
    X4115     B15        1
    X4116     COST       8
    X4116     A41        1
    X4116     G4116      1
    X4116     B16        1
    X4117     COST       3
    X4117     A41        1
    X4117     G4117      1
    X4117     B17        1
    X4118     COST       3
    X4118     A41        1
    X4118     G4118      1
    X4118     B18        1
    X4119     COST       3
    X4119     A41        1
    X4119     G4119      1
    X4119     B19        1
    X4120     COST       8
    X4120     A41        1
    X4120     G4120      1
    X4120     B20        1
    X4121     COST       8
    X4121     A41        1
    X4121     G4121      1
    X4121     B21        1
    X4122     COST       8
    X4122     A41        1
    X4122     G4122      1
    X4122     B22        1
    X4123     COST       8
    X4123     A41        1
    X4123     G4123      1
    X4123     B23        1
    X4124     COST       4
    X4124     A41        1
    X4124     G4124      1
    X4124     B24        1
    X4125     COST       4
    X4125     A41        1
    X4125     G4125      1
    X4125     B25        1
    X4126     COST       7
    X4126     A41        1
    X4126     G4126      1
    X4126     B26        1
    X4127     COST       3
    X4127     A41        1
    X4127     G4127      1
    X4127     B27        1
    X4128     COST       4
    X4128     A41        1
    X4128     G4128      1
    X4128     B28        1
    X4129     COST       6
    X4129     A41        1
    X4129     G4129      1
    X4129     B29        1
    X4130     COST       8
    X4130     A41        1
    X4130     G4130      1
    X4130     B30        1
    X4131     COST       7
    X4131     A41        1
    X4131     G4131      1
    X4131     B31        1
    X4132     COST       7
    X4132     A41        1
    X4132     G4132      1
    X4132     B32        1
    X4133     COST       7
    X4133     A41        1
    X4133     G4133      1
    X4133     B33        1
    X4134     COST       8
    X4134     A41        1
    X4134     G4134      1
    X4134     B34        1
    X4135     COST       4
    X4135     A41        1
    X4135     G4135      1
    X4135     B35        1
    X4136     COST       8
    X4136     A41        1
    X4136     G4136      1
    X4136     B36        1
    X4137     COST       3
    X4137     A41        1
    X4137     G4137      1
    X4137     B37        1
    X4138     COST       7
    X4138     A41        1
    X4138     G4138      1
    X4138     B38        1
    X4139     COST       4
    X4139     A41        1
    X4139     G4139      1
    X4139     B39        1
    X4140     COST       4
    X4140     A41        1
    X4140     G4140      1
    X4140     B40        1
    X4141     COST       8
    X4141     A41        1
    X4141     G4141      1
    X4141     B41        1
    X4142     COST       4
    X4142     A41        1
    X4142     G4142      1
    X4142     B42        1
    X4143     COST       4
    X4143     A41        1
    X4143     G4143      1
    X4143     B43        1
    X4144     COST       7
    X4144     A41        1
    X4144     G4144      1
    X4144     B44        1
    X4145     COST       4
    X4145     A41        1
    X4145     G4145      1
    X4145     B45        1
    X4146     COST       3
    X4146     A41        1
    X4146     G4146      1
    X4146     B46        1
    X4147     COST       7
    X4147     A41        1
    X4147     G4147      1
    X4147     B47        1
    X4148     COST       7
    X4148     A41        1
    X4148     G4148      1
    X4148     B48        1
    X4149     COST       3
    X4149     A41        1
    X4149     G4149      1
    X4149     B49        1
    X4150     COST       5
    X4150     A41        1
    X4150     G4150      1
    X4150     B50        1
    X4151     COST       3
    X4151     A41        1
    X4151     G4151      1
    X4151     B51        1
    X4152     COST       3
    X4152     A41        1
    X4152     G4152      1
    X4152     B52        1
    X4153     COST       7
    X4153     A41        1
    X4153     G4153      1
    X4153     B53        1
    X4154     COST       8
    X4154     A41        1
    X4154     G4154      1
    X4154     B54        1
    X4155     COST       5
    X4155     A41        1
    X4155     G4155      1
    X4155     B55        1
    X4156     COST       7
    X4156     A41        1
    X4156     G4156      1
    X4156     B56        1
    X4157     COST       6
    X4157     A41        1
    X4157     G4157      1
    X4157     B57        1
    X4158     COST       7
    X4158     A41        1
    X4158     G4158      1
    X4158     B58        1
    X4159     COST       5
    X4159     A41        1
    X4159     G4159      1
    X4159     B59        1
    X4160     COST       3
    X4160     A41        1
    X4160     G4160      1
    X4160     B60        1
    X4161     COST       3
    X4161     A41        1
    X4161     G4161      1
    X4161     B61        1
    X4162     COST       3
    X4162     A41        1
    X4162     G4162      1
    X4162     B62        1
    X4163     COST       7
    X4163     A41        1
    X4163     G4163      1
    X4163     B63        1
    X4164     COST       4
    X4164     A41        1
    X4164     G4164      1
    X4164     B64        1
    X4165     COST       6
    X4165     A41        1
    X4165     G4165      1
    X4165     B65        1
    X4166     COST       6
    X4166     A41        1
    X4166     G4166      1
    X4166     B66        1
    X4167     COST       5
    X4167     A41        1
    X4167     G4167      1
    X4167     B67        1
    X4168     COST       4
    X4168     A41        1
    X4168     G4168      1
    X4168     B68        1
    X4169     COST       5
    X4169     A41        1
    X4169     G4169      1
    X4169     B69        1
    X4170     COST       6
    X4170     A41        1
    X4170     G4170      1
    X4170     B70        1
    X4171     COST       5
    X4171     A41        1
    X4171     G4171      1
    X4171     B71        1
    X4172     COST       6
    X4172     A41        1
    X4172     G4172      1
    X4172     B72        1
    X4173     COST       6
    X4173     A41        1
    X4173     G4173      1
    X4173     B73        1
    X4174     COST       6
    X4174     A41        1
    X4174     G4174      1
    X4174     B74        1
    X4175     COST       3
    X4175     A41        1
    X4175     G4175      1
    X4175     B75        1
    X4176     COST       5
    X4176     A41        1
    X4176     G4176      1
    X4176     B76        1
    X4177     COST       5
    X4177     A41        1
    X4177     G4177      1
    X4177     B77        1
    X4178     COST       6
    X4178     A41        1
    X4178     G4178      1
    X4178     B78        1
    X4179     COST       3
    X4179     A41        1
    X4179     G4179      1
    X4179     B79        1
    X4180     COST       4
    X4180     A41        1
    X4180     G4180      1
    X4180     B80        1
    X4181     COST       6
    X4181     A41        1
    X4181     G4181      1
    X4181     B81        1
    X4182     COST       5
    X4182     A41        1
    X4182     G4182      1
    X4182     B82        1
    X4183     COST       5
    X4183     A41        1
    X4183     G4183      1
    X4183     B83        1
    X4184     COST       6
    X4184     A41        1
    X4184     G4184      1
    X4184     B84        1
    X4185     COST       4
    X4185     A41        1
    X4185     G4185      1
    X4185     B85        1
    X4186     COST       6
    X4186     A41        1
    X4186     G4186      1
    X4186     B86        1
    X4187     COST       8
    X4187     A41        1
    X4187     G4187      1
    X4187     B87        1
    X4188     COST       7
    X4188     A41        1
    X4188     G4188      1
    X4188     B88        1
    X4189     COST       4
    X4189     A41        1
    X4189     G4189      1
    X4189     B89        1
    X4190     COST       4
    X4190     A41        1
    X4190     G4190      1
    X4190     B90        1
    X4191     COST       3
    X4191     A41        1
    X4191     G4191      1
    X4191     B91        1
    X4192     COST       5
    X4192     A41        1
    X4192     G4192      1
    X4192     B92        1
    X4193     COST       4
    X4193     A41        1
    X4193     G4193      1
    X4193     B93        1
    X4194     COST       4
    X4194     A41        1
    X4194     G4194      1
    X4194     B94        1
    X4195     COST       5
    X4195     A41        1
    X4195     G4195      1
    X4195     B95        1
    X4196     COST       7
    X4196     A41        1
    X4196     G4196      1
    X4196     B96        1
    X4197     COST       6
    X4197     A41        1
    X4197     G4197      1
    X4197     B97        1
    X4198     COST       5
    X4198     A41        1
    X4198     G4198      1
    X4198     B98        1
    X4199     COST       3
    X4199     A41        1
    X4199     G4199      1
    X4199     B99        1
    X4200     COST       4
    X4200     A42        1
    X4200     G4200      1
    X4200     B0         1
    X4201     COST       8
    X4201     A42        1
    X4201     G4201      1
    X4201     B1         1
    X4202     COST       5
    X4202     A42        1
    X4202     G4202      1
    X4202     B2         1
    X4203     COST       3
    X4203     A42        1
    X4203     G4203      1
    X4203     B3         1
    X4204     COST       5
    X4204     A42        1
    X4204     G4204      1
    X4204     B4         1
    X4205     COST       5
    X4205     A42        1
    X4205     G4205      1
    X4205     B5         1
    X4206     COST       6
    X4206     A42        1
    X4206     G4206      1
    X4206     B6         1
    X4207     COST       6
    X4207     A42        1
    X4207     G4207      1
    X4207     B7         1
    X4208     COST       3
    X4208     A42        1
    X4208     G4208      1
    X4208     B8         1
    X4209     COST       4
    X4209     A42        1
    X4209     G4209      1
    X4209     B9         1
    X4210     COST       8
    X4210     A42        1
    X4210     G4210      1
    X4210     B10        1
    X4211     COST       3
    X4211     A42        1
    X4211     G4211      1
    X4211     B11        1
    X4212     COST       8
    X4212     A42        1
    X4212     G4212      1
    X4212     B12        1
    X4213     COST       5
    X4213     A42        1
    X4213     G4213      1
    X4213     B13        1
    X4214     COST       8
    X4214     A42        1
    X4214     G4214      1
    X4214     B14        1
    X4215     COST       6
    X4215     A42        1
    X4215     G4215      1
    X4215     B15        1
    X4216     COST       6
    X4216     A42        1
    X4216     G4216      1
    X4216     B16        1
    X4217     COST       5
    X4217     A42        1
    X4217     G4217      1
    X4217     B17        1
    X4218     COST       8
    X4218     A42        1
    X4218     G4218      1
    X4218     B18        1
    X4219     COST       3
    X4219     A42        1
    X4219     G4219      1
    X4219     B19        1
    X4220     COST       3
    X4220     A42        1
    X4220     G4220      1
    X4220     B20        1
    X4221     COST       8
    X4221     A42        1
    X4221     G4221      1
    X4221     B21        1
    X4222     COST       8
    X4222     A42        1
    X4222     G4222      1
    X4222     B22        1
    X4223     COST       3
    X4223     A42        1
    X4223     G4223      1
    X4223     B23        1
    X4224     COST       5
    X4224     A42        1
    X4224     G4224      1
    X4224     B24        1
    X4225     COST       3
    X4225     A42        1
    X4225     G4225      1
    X4225     B25        1
    X4226     COST       3
    X4226     A42        1
    X4226     G4226      1
    X4226     B26        1
    X4227     COST       4
    X4227     A42        1
    X4227     G4227      1
    X4227     B27        1
    X4228     COST       3
    X4228     A42        1
    X4228     G4228      1
    X4228     B28        1
    X4229     COST       8
    X4229     A42        1
    X4229     G4229      1
    X4229     B29        1
    X4230     COST       8
    X4230     A42        1
    X4230     G4230      1
    X4230     B30        1
    X4231     COST       3
    X4231     A42        1
    X4231     G4231      1
    X4231     B31        1
    X4232     COST       4
    X4232     A42        1
    X4232     G4232      1
    X4232     B32        1
    X4233     COST       7
    X4233     A42        1
    X4233     G4233      1
    X4233     B33        1
    X4234     COST       7
    X4234     A42        1
    X4234     G4234      1
    X4234     B34        1
    X4235     COST       7
    X4235     A42        1
    X4235     G4235      1
    X4235     B35        1
    X4236     COST       4
    X4236     A42        1
    X4236     G4236      1
    X4236     B36        1
    X4237     COST       4
    X4237     A42        1
    X4237     G4237      1
    X4237     B37        1
    X4238     COST       7
    X4238     A42        1
    X4238     G4238      1
    X4238     B38        1
    X4239     COST       8
    X4239     A42        1
    X4239     G4239      1
    X4239     B39        1
    X4240     COST       4
    X4240     A42        1
    X4240     G4240      1
    X4240     B40        1
    X4241     COST       3
    X4241     A42        1
    X4241     G4241      1
    X4241     B41        1
    X4242     COST       3
    X4242     A42        1
    X4242     G4242      1
    X4242     B42        1
    X4243     COST       3
    X4243     A42        1
    X4243     G4243      1
    X4243     B43        1
    X4244     COST       3
    X4244     A42        1
    X4244     G4244      1
    X4244     B44        1
    X4245     COST       8
    X4245     A42        1
    X4245     G4245      1
    X4245     B45        1
    X4246     COST       8
    X4246     A42        1
    X4246     G4246      1
    X4246     B46        1
    X4247     COST       3
    X4247     A42        1
    X4247     G4247      1
    X4247     B47        1
    X4248     COST       3
    X4248     A42        1
    X4248     G4248      1
    X4248     B48        1
    X4249     COST       7
    X4249     A42        1
    X4249     G4249      1
    X4249     B49        1
    X4250     COST       6
    X4250     A42        1
    X4250     G4250      1
    X4250     B50        1
    X4251     COST       3
    X4251     A42        1
    X4251     G4251      1
    X4251     B51        1
    X4252     COST       4
    X4252     A42        1
    X4252     G4252      1
    X4252     B52        1
    X4253     COST       3
    X4253     A42        1
    X4253     G4253      1
    X4253     B53        1
    X4254     COST       6
    X4254     A42        1
    X4254     G4254      1
    X4254     B54        1
    X4255     COST       8
    X4255     A42        1
    X4255     G4255      1
    X4255     B55        1
    X4256     COST       4
    X4256     A42        1
    X4256     G4256      1
    X4256     B56        1
    X4257     COST       8
    X4257     A42        1
    X4257     G4257      1
    X4257     B57        1
    X4258     COST       4
    X4258     A42        1
    X4258     G4258      1
    X4258     B58        1
    X4259     COST       3
    X4259     A42        1
    X4259     G4259      1
    X4259     B59        1
    X4260     COST       5
    X4260     A42        1
    X4260     G4260      1
    X4260     B60        1
    X4261     COST       7
    X4261     A42        1
    X4261     G4261      1
    X4261     B61        1
    X4262     COST       5
    X4262     A42        1
    X4262     G4262      1
    X4262     B62        1
    X4263     COST       6
    X4263     A42        1
    X4263     G4263      1
    X4263     B63        1
    X4264     COST       6
    X4264     A42        1
    X4264     G4264      1
    X4264     B64        1
    X4265     COST       8
    X4265     A42        1
    X4265     G4265      1
    X4265     B65        1
    X4266     COST       5
    X4266     A42        1
    X4266     G4266      1
    X4266     B66        1
    X4267     COST       6
    X4267     A42        1
    X4267     G4267      1
    X4267     B67        1
    X4268     COST       8
    X4268     A42        1
    X4268     G4268      1
    X4268     B68        1
    X4269     COST       3
    X4269     A42        1
    X4269     G4269      1
    X4269     B69        1
    X4270     COST       6
    X4270     A42        1
    X4270     G4270      1
    X4270     B70        1
    X4271     COST       5
    X4271     A42        1
    X4271     G4271      1
    X4271     B71        1
    X4272     COST       6
    X4272     A42        1
    X4272     G4272      1
    X4272     B72        1
    X4273     COST       5
    X4273     A42        1
    X4273     G4273      1
    X4273     B73        1
    X4274     COST       5
    X4274     A42        1
    X4274     G4274      1
    X4274     B74        1
    X4275     COST       7
    X4275     A42        1
    X4275     G4275      1
    X4275     B75        1
    X4276     COST       4
    X4276     A42        1
    X4276     G4276      1
    X4276     B76        1
    X4277     COST       4
    X4277     A42        1
    X4277     G4277      1
    X4277     B77        1
    X4278     COST       8
    X4278     A42        1
    X4278     G4278      1
    X4278     B78        1
    X4279     COST       4
    X4279     A42        1
    X4279     G4279      1
    X4279     B79        1
    X4280     COST       5
    X4280     A42        1
    X4280     G4280      1
    X4280     B80        1
    X4281     COST       5
    X4281     A42        1
    X4281     G4281      1
    X4281     B81        1
    X4282     COST       6
    X4282     A42        1
    X4282     G4282      1
    X4282     B82        1
    X4283     COST       6
    X4283     A42        1
    X4283     G4283      1
    X4283     B83        1
    X4284     COST       5
    X4284     A42        1
    X4284     G4284      1
    X4284     B84        1
    X4285     COST       6
    X4285     A42        1
    X4285     G4285      1
    X4285     B85        1
    X4286     COST       4
    X4286     A42        1
    X4286     G4286      1
    X4286     B86        1
    X4287     COST       7
    X4287     A42        1
    X4287     G4287      1
    X4287     B87        1
    X4288     COST       5
    X4288     A42        1
    X4288     G4288      1
    X4288     B88        1
    X4289     COST       4
    X4289     A42        1
    X4289     G4289      1
    X4289     B89        1
    X4290     COST       4
    X4290     A42        1
    X4290     G4290      1
    X4290     B90        1
    X4291     COST       5
    X4291     A42        1
    X4291     G4291      1
    X4291     B91        1
    X4292     COST       7
    X4292     A42        1
    X4292     G4292      1
    X4292     B92        1
    X4293     COST       4
    X4293     A42        1
    X4293     G4293      1
    X4293     B93        1
    X4294     COST       6
    X4294     A42        1
    X4294     G4294      1
    X4294     B94        1
    X4295     COST       4
    X4295     A42        1
    X4295     G4295      1
    X4295     B95        1
    X4296     COST       7
    X4296     A42        1
    X4296     G4296      1
    X4296     B96        1
    X4297     COST       5
    X4297     A42        1
    X4297     G4297      1
    X4297     B97        1
    X4298     COST       7
    X4298     A42        1
    X4298     G4298      1
    X4298     B98        1
    X4299     COST       6
    X4299     A42        1
    X4299     G4299      1
    X4299     B99        1
    X4300     COST       3
    X4300     A43        1
    X4300     G4300      1
    X4300     B0         1
    X4301     COST       3
    X4301     A43        1
    X4301     G4301      1
    X4301     B1         1
    X4302     COST       3
    X4302     A43        1
    X4302     G4302      1
    X4302     B2         1
    X4303     COST       4
    X4303     A43        1
    X4303     G4303      1
    X4303     B3         1
    X4304     COST       6
    X4304     A43        1
    X4304     G4304      1
    X4304     B4         1
    X4305     COST       5
    X4305     A43        1
    X4305     G4305      1
    X4305     B5         1
    X4306     COST       3
    X4306     A43        1
    X4306     G4306      1
    X4306     B6         1
    X4307     COST       3
    X4307     A43        1
    X4307     G4307      1
    X4307     B7         1
    X4308     COST       3
    X4308     A43        1
    X4308     G4308      1
    X4308     B8         1
    X4309     COST       5
    X4309     A43        1
    X4309     G4309      1
    X4309     B9         1
    X4310     COST       5
    X4310     A43        1
    X4310     G4310      1
    X4310     B10        1
    X4311     COST       8
    X4311     A43        1
    X4311     G4311      1
    X4311     B11        1
    X4312     COST       7
    X4312     A43        1
    X4312     G4312      1
    X4312     B12        1
    X4313     COST       3
    X4313     A43        1
    X4313     G4313      1
    X4313     B13        1
    X4314     COST       3
    X4314     A43        1
    X4314     G4314      1
    X4314     B14        1
    X4315     COST       6
    X4315     A43        1
    X4315     G4315      1
    X4315     B15        1
    X4316     COST       6
    X4316     A43        1
    X4316     G4316      1
    X4316     B16        1
    X4317     COST       5
    X4317     A43        1
    X4317     G4317      1
    X4317     B17        1
    X4318     COST       3
    X4318     A43        1
    X4318     G4318      1
    X4318     B18        1
    X4319     COST       6
    X4319     A43        1
    X4319     G4319      1
    X4319     B19        1
    X4320     COST       4
    X4320     A43        1
    X4320     G4320      1
    X4320     B20        1
    X4321     COST       6
    X4321     A43        1
    X4321     G4321      1
    X4321     B21        1
    X4322     COST       8
    X4322     A43        1
    X4322     G4322      1
    X4322     B22        1
    X4323     COST       3
    X4323     A43        1
    X4323     G4323      1
    X4323     B23        1
    X4324     COST       7
    X4324     A43        1
    X4324     G4324      1
    X4324     B24        1
    X4325     COST       3
    X4325     A43        1
    X4325     G4325      1
    X4325     B25        1
    X4326     COST       8
    X4326     A43        1
    X4326     G4326      1
    X4326     B26        1
    X4327     COST       8
    X4327     A43        1
    X4327     G4327      1
    X4327     B27        1
    X4328     COST       4
    X4328     A43        1
    X4328     G4328      1
    X4328     B28        1
    X4329     COST       4
    X4329     A43        1
    X4329     G4329      1
    X4329     B29        1
    X4330     COST       3
    X4330     A43        1
    X4330     G4330      1
    X4330     B30        1
    X4331     COST       4
    X4331     A43        1
    X4331     G4331      1
    X4331     B31        1
    X4332     COST       3
    X4332     A43        1
    X4332     G4332      1
    X4332     B32        1
    X4333     COST       8
    X4333     A43        1
    X4333     G4333      1
    X4333     B33        1
    X4334     COST       5
    X4334     A43        1
    X4334     G4334      1
    X4334     B34        1
    X4335     COST       4
    X4335     A43        1
    X4335     G4335      1
    X4335     B35        1
    X4336     COST       8
    X4336     A43        1
    X4336     G4336      1
    X4336     B36        1
    X4337     COST       7
    X4337     A43        1
    X4337     G4337      1
    X4337     B37        1
    X4338     COST       4
    X4338     A43        1
    X4338     G4338      1
    X4338     B38        1
    X4339     COST       8
    X4339     A43        1
    X4339     G4339      1
    X4339     B39        1
    X4340     COST       7
    X4340     A43        1
    X4340     G4340      1
    X4340     B40        1
    X4341     COST       7
    X4341     A43        1
    X4341     G4341      1
    X4341     B41        1
    X4342     COST       3
    X4342     A43        1
    X4342     G4342      1
    X4342     B42        1
    X4343     COST       7
    X4343     A43        1
    X4343     G4343      1
    X4343     B43        1
    X4344     COST       4
    X4344     A43        1
    X4344     G4344      1
    X4344     B44        1
    X4345     COST       7
    X4345     A43        1
    X4345     G4345      1
    X4345     B45        1
    X4346     COST       3
    X4346     A43        1
    X4346     G4346      1
    X4346     B46        1
    X4347     COST       3
    X4347     A43        1
    X4347     G4347      1
    X4347     B47        1
    X4348     COST       5
    X4348     A43        1
    X4348     G4348      1
    X4348     B48        1
    X4349     COST       3
    X4349     A43        1
    X4349     G4349      1
    X4349     B49        1
    X4350     COST       3
    X4350     A43        1
    X4350     G4350      1
    X4350     B50        1
    X4351     COST       7
    X4351     A43        1
    X4351     G4351      1
    X4351     B51        1
    X4352     COST       6
    X4352     A43        1
    X4352     G4352      1
    X4352     B52        1
    X4353     COST       4
    X4353     A43        1
    X4353     G4353      1
    X4353     B53        1
    X4354     COST       3
    X4354     A43        1
    X4354     G4354      1
    X4354     B54        1
    X4355     COST       3
    X4355     A43        1
    X4355     G4355      1
    X4355     B55        1
    X4356     COST       8
    X4356     A43        1
    X4356     G4356      1
    X4356     B56        1
    X4357     COST       5
    X4357     A43        1
    X4357     G4357      1
    X4357     B57        1
    X4358     COST       3
    X4358     A43        1
    X4358     G4358      1
    X4358     B58        1
    X4359     COST       5
    X4359     A43        1
    X4359     G4359      1
    X4359     B59        1
    X4360     COST       8
    X4360     A43        1
    X4360     G4360      1
    X4360     B60        1
    X4361     COST       8
    X4361     A43        1
    X4361     G4361      1
    X4361     B61        1
    X4362     COST       4
    X4362     A43        1
    X4362     G4362      1
    X4362     B62        1
    X4363     COST       6
    X4363     A43        1
    X4363     G4363      1
    X4363     B63        1
    X4364     COST       6
    X4364     A43        1
    X4364     G4364      1
    X4364     B64        1
    X4365     COST       5
    X4365     A43        1
    X4365     G4365      1
    X4365     B65        1
    X4366     COST       6
    X4366     A43        1
    X4366     G4366      1
    X4366     B66        1
    X4367     COST       5
    X4367     A43        1
    X4367     G4367      1
    X4367     B67        1
    X4368     COST       5
    X4368     A43        1
    X4368     G4368      1
    X4368     B68        1
    X4369     COST       5
    X4369     A43        1
    X4369     G4369      1
    X4369     B69        1
    X4370     COST       3
    X4370     A43        1
    X4370     G4370      1
    X4370     B70        1
    X4371     COST       3
    X4371     A43        1
    X4371     G4371      1
    X4371     B71        1
    X4372     COST       5
    X4372     A43        1
    X4372     G4372      1
    X4372     B72        1
    X4373     COST       7
    X4373     A43        1
    X4373     G4373      1
    X4373     B73        1
    X4374     COST       6
    X4374     A43        1
    X4374     G4374      1
    X4374     B74        1
    X4375     COST       3
    X4375     A43        1
    X4375     G4375      1
    X4375     B75        1
    X4376     COST       5
    X4376     A43        1
    X4376     G4376      1
    X4376     B76        1
    X4377     COST       5
    X4377     A43        1
    X4377     G4377      1
    X4377     B77        1
    X4378     COST       6
    X4378     A43        1
    X4378     G4378      1
    X4378     B78        1
    X4379     COST       4
    X4379     A43        1
    X4379     G4379      1
    X4379     B79        1
    X4380     COST       4
    X4380     A43        1
    X4380     G4380      1
    X4380     B80        1
    X4381     COST       4
    X4381     A43        1
    X4381     G4381      1
    X4381     B81        1
    X4382     COST       8
    X4382     A43        1
    X4382     G4382      1
    X4382     B82        1
    X4383     COST       7
    X4383     A43        1
    X4383     G4383      1
    X4383     B83        1
    X4384     COST       6
    X4384     A43        1
    X4384     G4384      1
    X4384     B84        1
    X4385     COST       4
    X4385     A43        1
    X4385     G4385      1
    X4385     B85        1
    X4386     COST       7
    X4386     A43        1
    X4386     G4386      1
    X4386     B86        1
    X4387     COST       5
    X4387     A43        1
    X4387     G4387      1
    X4387     B87        1
    X4388     COST       7
    X4388     A43        1
    X4388     G4388      1
    X4388     B88        1
    X4389     COST       5
    X4389     A43        1
    X4389     G4389      1
    X4389     B89        1
    X4390     COST       6
    X4390     A43        1
    X4390     G4390      1
    X4390     B90        1
    X4391     COST       5
    X4391     A43        1
    X4391     G4391      1
    X4391     B91        1
    X4392     COST       5
    X4392     A43        1
    X4392     G4392      1
    X4392     B92        1
    X4393     COST       7
    X4393     A43        1
    X4393     G4393      1
    X4393     B93        1
    X4394     COST       7
    X4394     A43        1
    X4394     G4394      1
    X4394     B94        1
    X4395     COST       4
    X4395     A43        1
    X4395     G4395      1
    X4395     B95        1
    X4396     COST       5
    X4396     A43        1
    X4396     G4396      1
    X4396     B96        1
    X4397     COST       5
    X4397     A43        1
    X4397     G4397      1
    X4397     B97        1
    X4398     COST       5
    X4398     A43        1
    X4398     G4398      1
    X4398     B98        1
    X4399     COST       3
    X4399     A43        1
    X4399     G4399      1
    X4399     B99        1
    X4400     COST       8
    X4400     A44        1
    X4400     G4400      1
    X4400     B0         1
    X4401     COST       8
    X4401     A44        1
    X4401     G4401      1
    X4401     B1         1
    X4402     COST       3
    X4402     A44        1
    X4402     G4402      1
    X4402     B2         1
    X4403     COST       3
    X4403     A44        1
    X4403     G4403      1
    X4403     B3         1
    X4404     COST       6
    X4404     A44        1
    X4404     G4404      1
    X4404     B4         1
    X4405     COST       4
    X4405     A44        1
    X4405     G4405      1
    X4405     B5         1
    X4406     COST       4
    X4406     A44        1
    X4406     G4406      1
    X4406     B6         1
    X4407     COST       8
    X4407     A44        1
    X4407     G4407      1
    X4407     B7         1
    X4408     COST       4
    X4408     A44        1
    X4408     G4408      1
    X4408     B8         1
    X4409     COST       7
    X4409     A44        1
    X4409     G4409      1
    X4409     B9         1
    X4410     COST       4
    X4410     A44        1
    X4410     G4410      1
    X4410     B10        1
    X4411     COST       3
    X4411     A44        1
    X4411     G4411      1
    X4411     B11        1
    X4412     COST       3
    X4412     A44        1
    X4412     G4412      1
    X4412     B12        1
    X4413     COST       5
    X4413     A44        1
    X4413     G4413      1
    X4413     B13        1
    X4414     COST       8
    X4414     A44        1
    X4414     G4414      1
    X4414     B14        1
    X4415     COST       3
    X4415     A44        1
    X4415     G4415      1
    X4415     B15        1
    X4416     COST       8
    X4416     A44        1
    X4416     G4416      1
    X4416     B16        1
    X4417     COST       6
    X4417     A44        1
    X4417     G4417      1
    X4417     B17        1
    X4418     COST       6
    X4418     A44        1
    X4418     G4418      1
    X4418     B18        1
    X4419     COST       8
    X4419     A44        1
    X4419     G4419      1
    X4419     B19        1
    X4420     COST       3
    X4420     A44        1
    X4420     G4420      1
    X4420     B20        1
    X4421     COST       3
    X4421     A44        1
    X4421     G4421      1
    X4421     B21        1
    X4422     COST       8
    X4422     A44        1
    X4422     G4422      1
    X4422     B22        1
    X4423     COST       3
    X4423     A44        1
    X4423     G4423      1
    X4423     B23        1
    X4424     COST       8
    X4424     A44        1
    X4424     G4424      1
    X4424     B24        1
    X4425     COST       5
    X4425     A44        1
    X4425     G4425      1
    X4425     B25        1
    X4426     COST       4
    X4426     A44        1
    X4426     G4426      1
    X4426     B26        1
    X4427     COST       3
    X4427     A44        1
    X4427     G4427      1
    X4427     B27        1
    X4428     COST       8
    X4428     A44        1
    X4428     G4428      1
    X4428     B28        1
    X4429     COST       3
    X4429     A44        1
    X4429     G4429      1
    X4429     B29        1
    X4430     COST       4
    X4430     A44        1
    X4430     G4430      1
    X4430     B30        1
    X4431     COST       8
    X4431     A44        1
    X4431     G4431      1
    X4431     B31        1
    X4432     COST       3
    X4432     A44        1
    X4432     G4432      1
    X4432     B32        1
    X4433     COST       3
    X4433     A44        1
    X4433     G4433      1
    X4433     B33        1
    X4434     COST       7
    X4434     A44        1
    X4434     G4434      1
    X4434     B34        1
    X4435     COST       7
    X4435     A44        1
    X4435     G4435      1
    X4435     B35        1
    X4436     COST       8
    X4436     A44        1
    X4436     G4436      1
    X4436     B36        1
    X4437     COST       3
    X4437     A44        1
    X4437     G4437      1
    X4437     B37        1
    X4438     COST       7
    X4438     A44        1
    X4438     G4438      1
    X4438     B38        1
    X4439     COST       8
    X4439     A44        1
    X4439     G4439      1
    X4439     B39        1
    X4440     COST       7
    X4440     A44        1
    X4440     G4440      1
    X4440     B40        1
    X4441     COST       3
    X4441     A44        1
    X4441     G4441      1
    X4441     B41        1
    X4442     COST       8
    X4442     A44        1
    X4442     G4442      1
    X4442     B42        1
    X4443     COST       7
    X4443     A44        1
    X4443     G4443      1
    X4443     B43        1
    X4444     COST       4
    X4444     A44        1
    X4444     G4444      1
    X4444     B44        1
    X4445     COST       8
    X4445     A44        1
    X4445     G4445      1
    X4445     B45        1
    X4446     COST       3
    X4446     A44        1
    X4446     G4446      1
    X4446     B46        1
    X4447     COST       3
    X4447     A44        1
    X4447     G4447      1
    X4447     B47        1
    X4448     COST       3
    X4448     A44        1
    X4448     G4448      1
    X4448     B48        1
    X4449     COST       7
    X4449     A44        1
    X4449     G4449      1
    X4449     B49        1
    X4450     COST       4
    X4450     A44        1
    X4450     G4450      1
    X4450     B50        1
    X4451     COST       3
    X4451     A44        1
    X4451     G4451      1
    X4451     B51        1
    X4452     COST       5
    X4452     A44        1
    X4452     G4452      1
    X4452     B52        1
    X4453     COST       6
    X4453     A44        1
    X4453     G4453      1
    X4453     B53        1
    X4454     COST       6
    X4454     A44        1
    X4454     G4454      1
    X4454     B54        1
    X4455     COST       8
    X4455     A44        1
    X4455     G4455      1
    X4455     B55        1
    X4456     COST       8
    X4456     A44        1
    X4456     G4456      1
    X4456     B56        1
    X4457     COST       8
    X4457     A44        1
    X4457     G4457      1
    X4457     B57        1
    X4458     COST       8
    X4458     A44        1
    X4458     G4458      1
    X4458     B58        1
    X4459     COST       8
    X4459     A44        1
    X4459     G4459      1
    X4459     B59        1
    X4460     COST       4
    X4460     A44        1
    X4460     G4460      1
    X4460     B60        1
    X4461     COST       6
    X4461     A44        1
    X4461     G4461      1
    X4461     B61        1
    X4462     COST       3
    X4462     A44        1
    X4462     G4462      1
    X4462     B62        1
    X4463     COST       8
    X4463     A44        1
    X4463     G4463      1
    X4463     B63        1
    X4464     COST       7
    X4464     A44        1
    X4464     G4464      1
    X4464     B64        1
    X4465     COST       8
    X4465     A44        1
    X4465     G4465      1
    X4465     B65        1
    X4466     COST       3
    X4466     A44        1
    X4466     G4466      1
    X4466     B66        1
    X4467     COST       7
    X4467     A44        1
    X4467     G4467      1
    X4467     B67        1
    X4468     COST       3
    X4468     A44        1
    X4468     G4468      1
    X4468     B68        1
    X4469     COST       6
    X4469     A44        1
    X4469     G4469      1
    X4469     B69        1
    X4470     COST       5
    X4470     A44        1
    X4470     G4470      1
    X4470     B70        1
    X4471     COST       7
    X4471     A44        1
    X4471     G4471      1
    X4471     B71        1
    X4472     COST       4
    X4472     A44        1
    X4472     G4472      1
    X4472     B72        1
    X4473     COST       5
    X4473     A44        1
    X4473     G4473      1
    X4473     B73        1
    X4474     COST       6
    X4474     A44        1
    X4474     G4474      1
    X4474     B74        1
    X4475     COST       5
    X4475     A44        1
    X4475     G4475      1
    X4475     B75        1
    X4476     COST       6
    X4476     A44        1
    X4476     G4476      1
    X4476     B76        1
    X4477     COST       7
    X4477     A44        1
    X4477     G4477      1
    X4477     B77        1
    X4478     COST       4
    X4478     A44        1
    X4478     G4478      1
    X4478     B78        1
    X4479     COST       4
    X4479     A44        1
    X4479     G4479      1
    X4479     B79        1
    X4480     COST       8
    X4480     A44        1
    X4480     G4480      1
    X4480     B80        1
    X4481     COST       6
    X4481     A44        1
    X4481     G4481      1
    X4481     B81        1
    X4482     COST       5
    X4482     A44        1
    X4482     G4482      1
    X4482     B82        1
    X4483     COST       4
    X4483     A44        1
    X4483     G4483      1
    X4483     B83        1
    X4484     COST       4
    X4484     A44        1
    X4484     G4484      1
    X4484     B84        1
    X4485     COST       6
    X4485     A44        1
    X4485     G4485      1
    X4485     B85        1
    X4486     COST       4
    X4486     A44        1
    X4486     G4486      1
    X4486     B86        1
    X4487     COST       7
    X4487     A44        1
    X4487     G4487      1
    X4487     B87        1
    X4488     COST       4
    X4488     A44        1
    X4488     G4488      1
    X4488     B88        1
    X4489     COST       6
    X4489     A44        1
    X4489     G4489      1
    X4489     B89        1
    X4490     COST       7
    X4490     A44        1
    X4490     G4490      1
    X4490     B90        1
    X4491     COST       7
    X4491     A44        1
    X4491     G4491      1
    X4491     B91        1
    X4492     COST       5
    X4492     A44        1
    X4492     G4492      1
    X4492     B92        1
    X4493     COST       4
    X4493     A44        1
    X4493     G4493      1
    X4493     B93        1
    X4494     COST       5
    X4494     A44        1
    X4494     G4494      1
    X4494     B94        1
    X4495     COST       4
    X4495     A44        1
    X4495     G4495      1
    X4495     B95        1
    X4496     COST       7
    X4496     A44        1
    X4496     G4496      1
    X4496     B96        1
    X4497     COST       4
    X4497     A44        1
    X4497     G4497      1
    X4497     B97        1
    X4498     COST       5
    X4498     A44        1
    X4498     G4498      1
    X4498     B98        1
    X4499     COST       6
    X4499     A44        1
    X4499     G4499      1
    X4499     B99        1
    X4500     COST       7
    X4500     A45        1
    X4500     G4500      1
    X4500     B0         1
    X4501     COST       5
    X4501     A45        1
    X4501     G4501      1
    X4501     B1         1
    X4502     COST       4
    X4502     A45        1
    X4502     G4502      1
    X4502     B2         1
    X4503     COST       3
    X4503     A45        1
    X4503     G4503      1
    X4503     B3         1
    X4504     COST       3
    X4504     A45        1
    X4504     G4504      1
    X4504     B4         1
    X4505     COST       5
    X4505     A45        1
    X4505     G4505      1
    X4505     B5         1
    X4506     COST       6
    X4506     A45        1
    X4506     G4506      1
    X4506     B6         1
    X4507     COST       3
    X4507     A45        1
    X4507     G4507      1
    X4507     B7         1
    X4508     COST       6
    X4508     A45        1
    X4508     G4508      1
    X4508     B8         1
    X4509     COST       8
    X4509     A45        1
    X4509     G4509      1
    X4509     B9         1
    X4510     COST       6
    X4510     A45        1
    X4510     G4510      1
    X4510     B10        1
    X4511     COST       5
    X4511     A45        1
    X4511     G4511      1
    X4511     B11        1
    X4512     COST       6
    X4512     A45        1
    X4512     G4512      1
    X4512     B12        1
    X4513     COST       5
    X4513     A45        1
    X4513     G4513      1
    X4513     B13        1
    X4514     COST       8
    X4514     A45        1
    X4514     G4514      1
    X4514     B14        1
    X4515     COST       3
    X4515     A45        1
    X4515     G4515      1
    X4515     B15        1
    X4516     COST       7
    X4516     A45        1
    X4516     G4516      1
    X4516     B16        1
    X4517     COST       5
    X4517     A45        1
    X4517     G4517      1
    X4517     B17        1
    X4518     COST       3
    X4518     A45        1
    X4518     G4518      1
    X4518     B18        1
    X4519     COST       8
    X4519     A45        1
    X4519     G4519      1
    X4519     B19        1
    X4520     COST       5
    X4520     A45        1
    X4520     G4520      1
    X4520     B20        1
    X4521     COST       6
    X4521     A45        1
    X4521     G4521      1
    X4521     B21        1
    X4522     COST       7
    X4522     A45        1
    X4522     G4522      1
    X4522     B22        1
    X4523     COST       5
    X4523     A45        1
    X4523     G4523      1
    X4523     B23        1
    X4524     COST       8
    X4524     A45        1
    X4524     G4524      1
    X4524     B24        1
    X4525     COST       3
    X4525     A45        1
    X4525     G4525      1
    X4525     B25        1
    X4526     COST       4
    X4526     A45        1
    X4526     G4526      1
    X4526     B26        1
    X4527     COST       3
    X4527     A45        1
    X4527     G4527      1
    X4527     B27        1
    X4528     COST       8
    X4528     A45        1
    X4528     G4528      1
    X4528     B28        1
    X4529     COST       3
    X4529     A45        1
    X4529     G4529      1
    X4529     B29        1
    X4530     COST       4
    X4530     A45        1
    X4530     G4530      1
    X4530     B30        1
    X4531     COST       7
    X4531     A45        1
    X4531     G4531      1
    X4531     B31        1
    X4532     COST       3
    X4532     A45        1
    X4532     G4532      1
    X4532     B32        1
    X4533     COST       6
    X4533     A45        1
    X4533     G4533      1
    X4533     B33        1
    X4534     COST       7
    X4534     A45        1
    X4534     G4534      1
    X4534     B34        1
    X4535     COST       4
    X4535     A45        1
    X4535     G4535      1
    X4535     B35        1
    X4536     COST       8
    X4536     A45        1
    X4536     G4536      1
    X4536     B36        1
    X4537     COST       7
    X4537     A45        1
    X4537     G4537      1
    X4537     B37        1
    X4538     COST       7
    X4538     A45        1
    X4538     G4538      1
    X4538     B38        1
    X4539     COST       3
    X4539     A45        1
    X4539     G4539      1
    X4539     B39        1
    X4540     COST       7
    X4540     A45        1
    X4540     G4540      1
    X4540     B40        1
    X4541     COST       7
    X4541     A45        1
    X4541     G4541      1
    X4541     B41        1
    X4542     COST       4
    X4542     A45        1
    X4542     G4542      1
    X4542     B42        1
    X4543     COST       4
    X4543     A45        1
    X4543     G4543      1
    X4543     B43        1
    X4544     COST       7
    X4544     A45        1
    X4544     G4544      1
    X4544     B44        1
    X4545     COST       4
    X4545     A45        1
    X4545     G4545      1
    X4545     B45        1
    X4546     COST       7
    X4546     A45        1
    X4546     G4546      1
    X4546     B46        1
    X4547     COST       7
    X4547     A45        1
    X4547     G4547      1
    X4547     B47        1
    X4548     COST       7
    X4548     A45        1
    X4548     G4548      1
    X4548     B48        1
    X4549     COST       5
    X4549     A45        1
    X4549     G4549      1
    X4549     B49        1
    X4550     COST       8
    X4550     A45        1
    X4550     G4550      1
    X4550     B50        1
    X4551     COST       6
    X4551     A45        1
    X4551     G4551      1
    X4551     B51        1
    X4552     COST       3
    X4552     A45        1
    X4552     G4552      1
    X4552     B52        1
    X4553     COST       5
    X4553     A45        1
    X4553     G4553      1
    X4553     B53        1
    X4554     COST       3
    X4554     A45        1
    X4554     G4554      1
    X4554     B54        1
    X4555     COST       4
    X4555     A45        1
    X4555     G4555      1
    X4555     B55        1
    X4556     COST       5
    X4556     A45        1
    X4556     G4556      1
    X4556     B56        1
    X4557     COST       4
    X4557     A45        1
    X4557     G4557      1
    X4557     B57        1
    X4558     COST       4
    X4558     A45        1
    X4558     G4558      1
    X4558     B58        1
    X4559     COST       6
    X4559     A45        1
    X4559     G4559      1
    X4559     B59        1
    X4560     COST       5
    X4560     A45        1
    X4560     G4560      1
    X4560     B60        1
    X4561     COST       4
    X4561     A45        1
    X4561     G4561      1
    X4561     B61        1
    X4562     COST       3
    X4562     A45        1
    X4562     G4562      1
    X4562     B62        1
    X4563     COST       8
    X4563     A45        1
    X4563     G4563      1
    X4563     B63        1
    X4564     COST       5
    X4564     A45        1
    X4564     G4564      1
    X4564     B64        1
    X4565     COST       8
    X4565     A45        1
    X4565     G4565      1
    X4565     B65        1
    X4566     COST       3
    X4566     A45        1
    X4566     G4566      1
    X4566     B66        1
    X4567     COST       7
    X4567     A45        1
    X4567     G4567      1
    X4567     B67        1
    X4568     COST       8
    X4568     A45        1
    X4568     G4568      1
    X4568     B68        1
    X4569     COST       8
    X4569     A45        1
    X4569     G4569      1
    X4569     B69        1
    X4570     COST       5
    X4570     A45        1
    X4570     G4570      1
    X4570     B70        1
    X4571     COST       3
    X4571     A45        1
    X4571     G4571      1
    X4571     B71        1
    X4572     COST       7
    X4572     A45        1
    X4572     G4572      1
    X4572     B72        1
    X4573     COST       8
    X4573     A45        1
    X4573     G4573      1
    X4573     B73        1
    X4574     COST       7
    X4574     A45        1
    X4574     G4574      1
    X4574     B74        1
    X4575     COST       6
    X4575     A45        1
    X4575     G4575      1
    X4575     B75        1
    X4576     COST       7
    X4576     A45        1
    X4576     G4576      1
    X4576     B76        1
    X4577     COST       7
    X4577     A45        1
    X4577     G4577      1
    X4577     B77        1
    X4578     COST       4
    X4578     A45        1
    X4578     G4578      1
    X4578     B78        1
    X4579     COST       7
    X4579     A45        1
    X4579     G4579      1
    X4579     B79        1
    X4580     COST       3
    X4580     A45        1
    X4580     G4580      1
    X4580     B80        1
    X4581     COST       4
    X4581     A45        1
    X4581     G4581      1
    X4581     B81        1
    X4582     COST       6
    X4582     A45        1
    X4582     G4582      1
    X4582     B82        1
    X4583     COST       7
    X4583     A45        1
    X4583     G4583      1
    X4583     B83        1
    X4584     COST       6
    X4584     A45        1
    X4584     G4584      1
    X4584     B84        1
    X4585     COST       3
    X4585     A45        1
    X4585     G4585      1
    X4585     B85        1
    X4586     COST       7
    X4586     A45        1
    X4586     G4586      1
    X4586     B86        1
    X4587     COST       6
    X4587     A45        1
    X4587     G4587      1
    X4587     B87        1
    X4588     COST       7
    X4588     A45        1
    X4588     G4588      1
    X4588     B88        1
    X4589     COST       6
    X4589     A45        1
    X4589     G4589      1
    X4589     B89        1
    X4590     COST       5
    X4590     A45        1
    X4590     G4590      1
    X4590     B90        1
    X4591     COST       6
    X4591     A45        1
    X4591     G4591      1
    X4591     B91        1
    X4592     COST       7
    X4592     A45        1
    X4592     G4592      1
    X4592     B92        1
    X4593     COST       7
    X4593     A45        1
    X4593     G4593      1
    X4593     B93        1
    X4594     COST       6
    X4594     A45        1
    X4594     G4594      1
    X4594     B94        1
    X4595     COST       4
    X4595     A45        1
    X4595     G4595      1
    X4595     B95        1
    X4596     COST       4
    X4596     A45        1
    X4596     G4596      1
    X4596     B96        1
    X4597     COST       7
    X4597     A45        1
    X4597     G4597      1
    X4597     B97        1
    X4598     COST       7
    X4598     A45        1
    X4598     G4598      1
    X4598     B98        1
    X4599     COST       5
    X4599     A45        1
    X4599     G4599      1
    X4599     B99        1
    X4600     COST       4
    X4600     A46        1
    X4600     G4600      1
    X4600     B0         1
    X4601     COST       7
    X4601     A46        1
    X4601     G4601      1
    X4601     B1         1
    X4602     COST       3
    X4602     A46        1
    X4602     G4602      1
    X4602     B2         1
    X4603     COST       5
    X4603     A46        1
    X4603     G4603      1
    X4603     B3         1
    X4604     COST       8
    X4604     A46        1
    X4604     G4604      1
    X4604     B4         1
    X4605     COST       8
    X4605     A46        1
    X4605     G4605      1
    X4605     B5         1
    X4606     COST       3
    X4606     A46        1
    X4606     G4606      1
    X4606     B6         1
    X4607     COST       8
    X4607     A46        1
    X4607     G4607      1
    X4607     B7         1
    X4608     COST       8
    X4608     A46        1
    X4608     G4608      1
    X4608     B8         1
    X4609     COST       3
    X4609     A46        1
    X4609     G4609      1
    X4609     B9         1
    X4610     COST       3
    X4610     A46        1
    X4610     G4610      1
    X4610     B10        1
    X4611     COST       7
    X4611     A46        1
    X4611     G4611      1
    X4611     B11        1
    X4612     COST       3
    X4612     A46        1
    X4612     G4612      1
    X4612     B12        1
    X4613     COST       5
    X4613     A46        1
    X4613     G4613      1
    X4613     B13        1
    X4614     COST       3
    X4614     A46        1
    X4614     G4614      1
    X4614     B14        1
    X4615     COST       8
    X4615     A46        1
    X4615     G4615      1
    X4615     B15        1
    X4616     COST       8
    X4616     A46        1
    X4616     G4616      1
    X4616     B16        1
    X4617     COST       3
    X4617     A46        1
    X4617     G4617      1
    X4617     B17        1
    X4618     COST       6
    X4618     A46        1
    X4618     G4618      1
    X4618     B18        1
    X4619     COST       4
    X4619     A46        1
    X4619     G4619      1
    X4619     B19        1
    X4620     COST       3
    X4620     A46        1
    X4620     G4620      1
    X4620     B20        1
    X4621     COST       3
    X4621     A46        1
    X4621     G4621      1
    X4621     B21        1
    X4622     COST       3
    X4622     A46        1
    X4622     G4622      1
    X4622     B22        1
    X4623     COST       3
    X4623     A46        1
    X4623     G4623      1
    X4623     B23        1
    X4624     COST       4
    X4624     A46        1
    X4624     G4624      1
    X4624     B24        1
    X4625     COST       8
    X4625     A46        1
    X4625     G4625      1
    X4625     B25        1
    X4626     COST       3
    X4626     A46        1
    X4626     G4626      1
    X4626     B26        1
    X4627     COST       4
    X4627     A46        1
    X4627     G4627      1
    X4627     B27        1
    X4628     COST       7
    X4628     A46        1
    X4628     G4628      1
    X4628     B28        1
    X4629     COST       8
    X4629     A46        1
    X4629     G4629      1
    X4629     B29        1
    X4630     COST       4
    X4630     A46        1
    X4630     G4630      1
    X4630     B30        1
    X4631     COST       3
    X4631     A46        1
    X4631     G4631      1
    X4631     B31        1
    X4632     COST       3
    X4632     A46        1
    X4632     G4632      1
    X4632     B32        1
    X4633     COST       7
    X4633     A46        1
    X4633     G4633      1
    X4633     B33        1
    X4634     COST       7
    X4634     A46        1
    X4634     G4634      1
    X4634     B34        1
    X4635     COST       4
    X4635     A46        1
    X4635     G4635      1
    X4635     B35        1
    X4636     COST       4
    X4636     A46        1
    X4636     G4636      1
    X4636     B36        1
    X4637     COST       8
    X4637     A46        1
    X4637     G4637      1
    X4637     B37        1
    X4638     COST       6
    X4638     A46        1
    X4638     G4638      1
    X4638     B38        1
    X4639     COST       8
    X4639     A46        1
    X4639     G4639      1
    X4639     B39        1
    X4640     COST       4
    X4640     A46        1
    X4640     G4640      1
    X4640     B40        1
    X4641     COST       3
    X4641     A46        1
    X4641     G4641      1
    X4641     B41        1
    X4642     COST       4
    X4642     A46        1
    X4642     G4642      1
    X4642     B42        1
    X4643     COST       3
    X4643     A46        1
    X4643     G4643      1
    X4643     B43        1
    X4644     COST       6
    X4644     A46        1
    X4644     G4644      1
    X4644     B44        1
    X4645     COST       7
    X4645     A46        1
    X4645     G4645      1
    X4645     B45        1
    X4646     COST       4
    X4646     A46        1
    X4646     G4646      1
    X4646     B46        1
    X4647     COST       7
    X4647     A46        1
    X4647     G4647      1
    X4647     B47        1
    X4648     COST       7
    X4648     A46        1
    X4648     G4648      1
    X4648     B48        1
    X4649     COST       3
    X4649     A46        1
    X4649     G4649      1
    X4649     B49        1
    X4650     COST       7
    X4650     A46        1
    X4650     G4650      1
    X4650     B50        1
    X4651     COST       6
    X4651     A46        1
    X4651     G4651      1
    X4651     B51        1
    X4652     COST       4
    X4652     A46        1
    X4652     G4652      1
    X4652     B52        1
    X4653     COST       5
    X4653     A46        1
    X4653     G4653      1
    X4653     B53        1
    X4654     COST       8
    X4654     A46        1
    X4654     G4654      1
    X4654     B54        1
    X4655     COST       6
    X4655     A46        1
    X4655     G4655      1
    X4655     B55        1
    X4656     COST       6
    X4656     A46        1
    X4656     G4656      1
    X4656     B56        1
    X4657     COST       4
    X4657     A46        1
    X4657     G4657      1
    X4657     B57        1
    X4658     COST       6
    X4658     A46        1
    X4658     G4658      1
    X4658     B58        1
    X4659     COST       5
    X4659     A46        1
    X4659     G4659      1
    X4659     B59        1
    X4660     COST       8
    X4660     A46        1
    X4660     G4660      1
    X4660     B60        1
    X4661     COST       5
    X4661     A46        1
    X4661     G4661      1
    X4661     B61        1
    X4662     COST       4
    X4662     A46        1
    X4662     G4662      1
    X4662     B62        1
    X4663     COST       6
    X4663     A46        1
    X4663     G4663      1
    X4663     B63        1
    X4664     COST       8
    X4664     A46        1
    X4664     G4664      1
    X4664     B64        1
    X4665     COST       6
    X4665     A46        1
    X4665     G4665      1
    X4665     B65        1
    X4666     COST       5
    X4666     A46        1
    X4666     G4666      1
    X4666     B66        1
    X4667     COST       8
    X4667     A46        1
    X4667     G4667      1
    X4667     B67        1
    X4668     COST       8
    X4668     A46        1
    X4668     G4668      1
    X4668     B68        1
    X4669     COST       3
    X4669     A46        1
    X4669     G4669      1
    X4669     B69        1
    X4670     COST       3
    X4670     A46        1
    X4670     G4670      1
    X4670     B70        1
    X4671     COST       3
    X4671     A46        1
    X4671     G4671      1
    X4671     B71        1
    X4672     COST       5
    X4672     A46        1
    X4672     G4672      1
    X4672     B72        1
    X4673     COST       6
    X4673     A46        1
    X4673     G4673      1
    X4673     B73        1
    X4674     COST       6
    X4674     A46        1
    X4674     G4674      1
    X4674     B74        1
    X4675     COST       5
    X4675     A46        1
    X4675     G4675      1
    X4675     B75        1
    X4676     COST       5
    X4676     A46        1
    X4676     G4676      1
    X4676     B76        1
    X4677     COST       5
    X4677     A46        1
    X4677     G4677      1
    X4677     B77        1
    X4678     COST       7
    X4678     A46        1
    X4678     G4678      1
    X4678     B78        1
    X4679     COST       8
    X4679     A46        1
    X4679     G4679      1
    X4679     B79        1
    X4680     COST       6
    X4680     A46        1
    X4680     G4680      1
    X4680     B80        1
    X4681     COST       7
    X4681     A46        1
    X4681     G4681      1
    X4681     B81        1
    X4682     COST       6
    X4682     A46        1
    X4682     G4682      1
    X4682     B82        1
    X4683     COST       4
    X4683     A46        1
    X4683     G4683      1
    X4683     B83        1
    X4684     COST       6
    X4684     A46        1
    X4684     G4684      1
    X4684     B84        1
    X4685     COST       4
    X4685     A46        1
    X4685     G4685      1
    X4685     B85        1
    X4686     COST       5
    X4686     A46        1
    X4686     G4686      1
    X4686     B86        1
    X4687     COST       4
    X4687     A46        1
    X4687     G4687      1
    X4687     B87        1
    X4688     COST       5
    X4688     A46        1
    X4688     G4688      1
    X4688     B88        1
    X4689     COST       6
    X4689     A46        1
    X4689     G4689      1
    X4689     B89        1
    X4690     COST       5
    X4690     A46        1
    X4690     G4690      1
    X4690     B90        1
    X4691     COST       4
    X4691     A46        1
    X4691     G4691      1
    X4691     B91        1
    X4692     COST       4
    X4692     A46        1
    X4692     G4692      1
    X4692     B92        1
    X4693     COST       6
    X4693     A46        1
    X4693     G4693      1
    X4693     B93        1
    X4694     COST       4
    X4694     A46        1
    X4694     G4694      1
    X4694     B94        1
    X4695     COST       5
    X4695     A46        1
    X4695     G4695      1
    X4695     B95        1
    X4696     COST       6
    X4696     A46        1
    X4696     G4696      1
    X4696     B96        1
    X4697     COST       5
    X4697     A46        1
    X4697     G4697      1
    X4697     B97        1
    X4698     COST       5
    X4698     A46        1
    X4698     G4698      1
    X4698     B98        1
    X4699     COST       4
    X4699     A46        1
    X4699     G4699      1
    X4699     B99        1
    X4700     COST       5
    X4700     A47        1
    X4700     G4700      1
    X4700     B0         1
    X4701     COST       3
    X4701     A47        1
    X4701     G4701      1
    X4701     B1         1
    X4702     COST       8
    X4702     A47        1
    X4702     G4702      1
    X4702     B2         1
    X4703     COST       6
    X4703     A47        1
    X4703     G4703      1
    X4703     B3         1
    X4704     COST       6
    X4704     A47        1
    X4704     G4704      1
    X4704     B4         1
    X4705     COST       8
    X4705     A47        1
    X4705     G4705      1
    X4705     B5         1
    X4706     COST       6
    X4706     A47        1
    X4706     G4706      1
    X4706     B6         1
    X4707     COST       8
    X4707     A47        1
    X4707     G4707      1
    X4707     B7         1
    X4708     COST       8
    X4708     A47        1
    X4708     G4708      1
    X4708     B8         1
    X4709     COST       8
    X4709     A47        1
    X4709     G4709      1
    X4709     B9         1
    X4710     COST       3
    X4710     A47        1
    X4710     G4710      1
    X4710     B10        1
    X4711     COST       3
    X4711     A47        1
    X4711     G4711      1
    X4711     B11        1
    X4712     COST       7
    X4712     A47        1
    X4712     G4712      1
    X4712     B12        1
    X4713     COST       5
    X4713     A47        1
    X4713     G4713      1
    X4713     B13        1
    X4714     COST       5
    X4714     A47        1
    X4714     G4714      1
    X4714     B14        1
    X4715     COST       6
    X4715     A47        1
    X4715     G4715      1
    X4715     B15        1
    X4716     COST       8
    X4716     A47        1
    X4716     G4716      1
    X4716     B16        1
    X4717     COST       8
    X4717     A47        1
    X4717     G4717      1
    X4717     B17        1
    X4718     COST       5
    X4718     A47        1
    X4718     G4718      1
    X4718     B18        1
    X4719     COST       3
    X4719     A47        1
    X4719     G4719      1
    X4719     B19        1
    X4720     COST       6
    X4720     A47        1
    X4720     G4720      1
    X4720     B20        1
    X4721     COST       3
    X4721     A47        1
    X4721     G4721      1
    X4721     B21        1
    X4722     COST       8
    X4722     A47        1
    X4722     G4722      1
    X4722     B22        1
    X4723     COST       7
    X4723     A47        1
    X4723     G4723      1
    X4723     B23        1
    X4724     COST       3
    X4724     A47        1
    X4724     G4724      1
    X4724     B24        1
    X4725     COST       8
    X4725     A47        1
    X4725     G4725      1
    X4725     B25        1
    X4726     COST       3
    X4726     A47        1
    X4726     G4726      1
    X4726     B26        1
    X4727     COST       4
    X4727     A47        1
    X4727     G4727      1
    X4727     B27        1
    X4728     COST       5
    X4728     A47        1
    X4728     G4728      1
    X4728     B28        1
    X4729     COST       8
    X4729     A47        1
    X4729     G4729      1
    X4729     B29        1
    X4730     COST       8
    X4730     A47        1
    X4730     G4730      1
    X4730     B30        1
    X4731     COST       3
    X4731     A47        1
    X4731     G4731      1
    X4731     B31        1
    X4732     COST       7
    X4732     A47        1
    X4732     G4732      1
    X4732     B32        1
    X4733     COST       3
    X4733     A47        1
    X4733     G4733      1
    X4733     B33        1
    X4734     COST       4
    X4734     A47        1
    X4734     G4734      1
    X4734     B34        1
    X4735     COST       3
    X4735     A47        1
    X4735     G4735      1
    X4735     B35        1
    X4736     COST       4
    X4736     A47        1
    X4736     G4736      1
    X4736     B36        1
    X4737     COST       8
    X4737     A47        1
    X4737     G4737      1
    X4737     B37        1
    X4738     COST       8
    X4738     A47        1
    X4738     G4738      1
    X4738     B38        1
    X4739     COST       4
    X4739     A47        1
    X4739     G4739      1
    X4739     B39        1
    X4740     COST       4
    X4740     A47        1
    X4740     G4740      1
    X4740     B40        1
    X4741     COST       7
    X4741     A47        1
    X4741     G4741      1
    X4741     B41        1
    X4742     COST       7
    X4742     A47        1
    X4742     G4742      1
    X4742     B42        1
    X4743     COST       4
    X4743     A47        1
    X4743     G4743      1
    X4743     B43        1
    X4744     COST       3
    X4744     A47        1
    X4744     G4744      1
    X4744     B44        1
    X4745     COST       7
    X4745     A47        1
    X4745     G4745      1
    X4745     B45        1
    X4746     COST       8
    X4746     A47        1
    X4746     G4746      1
    X4746     B46        1
    X4747     COST       7
    X4747     A47        1
    X4747     G4747      1
    X4747     B47        1
    X4748     COST       8
    X4748     A47        1
    X4748     G4748      1
    X4748     B48        1
    X4749     COST       7
    X4749     A47        1
    X4749     G4749      1
    X4749     B49        1
    X4750     COST       5
    X4750     A47        1
    X4750     G4750      1
    X4750     B50        1
    X4751     COST       3
    X4751     A47        1
    X4751     G4751      1
    X4751     B51        1
    X4752     COST       5
    X4752     A47        1
    X4752     G4752      1
    X4752     B52        1
    X4753     COST       5
    X4753     A47        1
    X4753     G4753      1
    X4753     B53        1
    X4754     COST       4
    X4754     A47        1
    X4754     G4754      1
    X4754     B54        1
    X4755     COST       6
    X4755     A47        1
    X4755     G4755      1
    X4755     B55        1
    X4756     COST       8
    X4756     A47        1
    X4756     G4756      1
    X4756     B56        1
    X4757     COST       8
    X4757     A47        1
    X4757     G4757      1
    X4757     B57        1
    X4758     COST       4
    X4758     A47        1
    X4758     G4758      1
    X4758     B58        1
    X4759     COST       6
    X4759     A47        1
    X4759     G4759      1
    X4759     B59        1
    X4760     COST       5
    X4760     A47        1
    X4760     G4760      1
    X4760     B60        1
    X4761     COST       6
    X4761     A47        1
    X4761     G4761      1
    X4761     B61        1
    X4762     COST       8
    X4762     A47        1
    X4762     G4762      1
    X4762     B62        1
    X4763     COST       4
    X4763     A47        1
    X4763     G4763      1
    X4763     B63        1
    X4764     COST       5
    X4764     A47        1
    X4764     G4764      1
    X4764     B64        1
    X4765     COST       3
    X4765     A47        1
    X4765     G4765      1
    X4765     B65        1
    X4766     COST       8
    X4766     A47        1
    X4766     G4766      1
    X4766     B66        1
    X4767     COST       8
    X4767     A47        1
    X4767     G4767      1
    X4767     B67        1
    X4768     COST       6
    X4768     A47        1
    X4768     G4768      1
    X4768     B68        1
    X4769     COST       8
    X4769     A47        1
    X4769     G4769      1
    X4769     B69        1
    X4770     COST       6
    X4770     A47        1
    X4770     G4770      1
    X4770     B70        1
    X4771     COST       3
    X4771     A47        1
    X4771     G4771      1
    X4771     B71        1
    X4772     COST       8
    X4772     A47        1
    X4772     G4772      1
    X4772     B72        1
    X4773     COST       5
    X4773     A47        1
    X4773     G4773      1
    X4773     B73        1
    X4774     COST       8
    X4774     A47        1
    X4774     G4774      1
    X4774     B74        1
    X4775     COST       4
    X4775     A47        1
    X4775     G4775      1
    X4775     B75        1
    X4776     COST       6
    X4776     A47        1
    X4776     G4776      1
    X4776     B76        1
    X4777     COST       3
    X4777     A47        1
    X4777     G4777      1
    X4777     B77        1
    X4778     COST       6
    X4778     A47        1
    X4778     G4778      1
    X4778     B78        1
    X4779     COST       5
    X4779     A47        1
    X4779     G4779      1
    X4779     B79        1
    X4780     COST       7
    X4780     A47        1
    X4780     G4780      1
    X4780     B80        1
    X4781     COST       6
    X4781     A47        1
    X4781     G4781      1
    X4781     B81        1
    X4782     COST       5
    X4782     A47        1
    X4782     G4782      1
    X4782     B82        1
    X4783     COST       4
    X4783     A47        1
    X4783     G4783      1
    X4783     B83        1
    X4784     COST       6
    X4784     A47        1
    X4784     G4784      1
    X4784     B84        1
    X4785     COST       5
    X4785     A47        1
    X4785     G4785      1
    X4785     B85        1
    X4786     COST       3
    X4786     A47        1
    X4786     G4786      1
    X4786     B86        1
    X4787     COST       4
    X4787     A47        1
    X4787     G4787      1
    X4787     B87        1
    X4788     COST       5
    X4788     A47        1
    X4788     G4788      1
    X4788     B88        1
    X4789     COST       6
    X4789     A47        1
    X4789     G4789      1
    X4789     B89        1
    X4790     COST       5
    X4790     A47        1
    X4790     G4790      1
    X4790     B90        1
    X4791     COST       7
    X4791     A47        1
    X4791     G4791      1
    X4791     B91        1
    X4792     COST       6
    X4792     A47        1
    X4792     G4792      1
    X4792     B92        1
    X4793     COST       5
    X4793     A47        1
    X4793     G4793      1
    X4793     B93        1
    X4794     COST       5
    X4794     A47        1
    X4794     G4794      1
    X4794     B94        1
    X4795     COST       7
    X4795     A47        1
    X4795     G4795      1
    X4795     B95        1
    X4796     COST       6
    X4796     A47        1
    X4796     G4796      1
    X4796     B96        1
    X4797     COST       5
    X4797     A47        1
    X4797     G4797      1
    X4797     B97        1
    X4798     COST       7
    X4798     A47        1
    X4798     G4798      1
    X4798     B98        1
    X4799     COST       7
    X4799     A47        1
    X4799     G4799      1
    X4799     B99        1
    X4800     COST       6
    X4800     A48        1
    X4800     G4800      1
    X4800     B0         1
    X4801     COST       4
    X4801     A48        1
    X4801     G4801      1
    X4801     B1         1
    X4802     COST       8
    X4802     A48        1
    X4802     G4802      1
    X4802     B2         1
    X4803     COST       5
    X4803     A48        1
    X4803     G4803      1
    X4803     B3         1
    X4804     COST       8
    X4804     A48        1
    X4804     G4804      1
    X4804     B4         1
    X4805     COST       8
    X4805     A48        1
    X4805     G4805      1
    X4805     B5         1
    X4806     COST       5
    X4806     A48        1
    X4806     G4806      1
    X4806     B6         1
    X4807     COST       6
    X4807     A48        1
    X4807     G4807      1
    X4807     B7         1
    X4808     COST       3
    X4808     A48        1
    X4808     G4808      1
    X4808     B8         1
    X4809     COST       5
    X4809     A48        1
    X4809     G4809      1
    X4809     B9         1
    X4810     COST       3
    X4810     A48        1
    X4810     G4810      1
    X4810     B10        1
    X4811     COST       4
    X4811     A48        1
    X4811     G4811      1
    X4811     B11        1
    X4812     COST       7
    X4812     A48        1
    X4812     G4812      1
    X4812     B12        1
    X4813     COST       4
    X4813     A48        1
    X4813     G4813      1
    X4813     B13        1
    X4814     COST       5
    X4814     A48        1
    X4814     G4814      1
    X4814     B14        1
    X4815     COST       3
    X4815     A48        1
    X4815     G4815      1
    X4815     B15        1
    X4816     COST       3
    X4816     A48        1
    X4816     G4816      1
    X4816     B16        1
    X4817     COST       7
    X4817     A48        1
    X4817     G4817      1
    X4817     B17        1
    X4818     COST       5
    X4818     A48        1
    X4818     G4818      1
    X4818     B18        1
    X4819     COST       3
    X4819     A48        1
    X4819     G4819      1
    X4819     B19        1
    X4820     COST       6
    X4820     A48        1
    X4820     G4820      1
    X4820     B20        1
    X4821     COST       5
    X4821     A48        1
    X4821     G4821      1
    X4821     B21        1
    X4822     COST       3
    X4822     A48        1
    X4822     G4822      1
    X4822     B22        1
    X4823     COST       8
    X4823     A48        1
    X4823     G4823      1
    X4823     B23        1
    X4824     COST       5
    X4824     A48        1
    X4824     G4824      1
    X4824     B24        1
    X4825     COST       3
    X4825     A48        1
    X4825     G4825      1
    X4825     B25        1
    X4826     COST       8
    X4826     A48        1
    X4826     G4826      1
    X4826     B26        1
    X4827     COST       7
    X4827     A48        1
    X4827     G4827      1
    X4827     B27        1
    X4828     COST       3
    X4828     A48        1
    X4828     G4828      1
    X4828     B28        1
    X4829     COST       4
    X4829     A48        1
    X4829     G4829      1
    X4829     B29        1
    X4830     COST       7
    X4830     A48        1
    X4830     G4830      1
    X4830     B30        1
    X4831     COST       3
    X4831     A48        1
    X4831     G4831      1
    X4831     B31        1
    X4832     COST       8
    X4832     A48        1
    X4832     G4832      1
    X4832     B32        1
    X4833     COST       4
    X4833     A48        1
    X4833     G4833      1
    X4833     B33        1
    X4834     COST       7
    X4834     A48        1
    X4834     G4834      1
    X4834     B34        1
    X4835     COST       7
    X4835     A48        1
    X4835     G4835      1
    X4835     B35        1
    X4836     COST       7
    X4836     A48        1
    X4836     G4836      1
    X4836     B36        1
    X4837     COST       5
    X4837     A48        1
    X4837     G4837      1
    X4837     B37        1
    X4838     COST       8
    X4838     A48        1
    X4838     G4838      1
    X4838     B38        1
    X4839     COST       3
    X4839     A48        1
    X4839     G4839      1
    X4839     B39        1
    X4840     COST       8
    X4840     A48        1
    X4840     G4840      1
    X4840     B40        1
    X4841     COST       7
    X4841     A48        1
    X4841     G4841      1
    X4841     B41        1
    X4842     COST       8
    X4842     A48        1
    X4842     G4842      1
    X4842     B42        1
    X4843     COST       8
    X4843     A48        1
    X4843     G4843      1
    X4843     B43        1
    X4844     COST       4
    X4844     A48        1
    X4844     G4844      1
    X4844     B44        1
    X4845     COST       7
    X4845     A48        1
    X4845     G4845      1
    X4845     B45        1
    X4846     COST       7
    X4846     A48        1
    X4846     G4846      1
    X4846     B46        1
    X4847     COST       6
    X4847     A48        1
    X4847     G4847      1
    X4847     B47        1
    X4848     COST       8
    X4848     A48        1
    X4848     G4848      1
    X4848     B48        1
    X4849     COST       4
    X4849     A48        1
    X4849     G4849      1
    X4849     B49        1
    X4850     COST       4
    X4850     A48        1
    X4850     G4850      1
    X4850     B50        1
    X4851     COST       4
    X4851     A48        1
    X4851     G4851      1
    X4851     B51        1
    X4852     COST       8
    X4852     A48        1
    X4852     G4852      1
    X4852     B52        1
    X4853     COST       6
    X4853     A48        1
    X4853     G4853      1
    X4853     B53        1
    X4854     COST       5
    X4854     A48        1
    X4854     G4854      1
    X4854     B54        1
    X4855     COST       7
    X4855     A48        1
    X4855     G4855      1
    X4855     B55        1
    X4856     COST       7
    X4856     A48        1
    X4856     G4856      1
    X4856     B56        1
    X4857     COST       3
    X4857     A48        1
    X4857     G4857      1
    X4857     B57        1
    X4858     COST       5
    X4858     A48        1
    X4858     G4858      1
    X4858     B58        1
    X4859     COST       8
    X4859     A48        1
    X4859     G4859      1
    X4859     B59        1
    X4860     COST       6
    X4860     A48        1
    X4860     G4860      1
    X4860     B60        1
    X4861     COST       6
    X4861     A48        1
    X4861     G4861      1
    X4861     B61        1
    X4862     COST       8
    X4862     A48        1
    X4862     G4862      1
    X4862     B62        1
    X4863     COST       8
    X4863     A48        1
    X4863     G4863      1
    X4863     B63        1
    X4864     COST       3
    X4864     A48        1
    X4864     G4864      1
    X4864     B64        1
    X4865     COST       6
    X4865     A48        1
    X4865     G4865      1
    X4865     B65        1
    X4866     COST       6
    X4866     A48        1
    X4866     G4866      1
    X4866     B66        1
    X4867     COST       6
    X4867     A48        1
    X4867     G4867      1
    X4867     B67        1
    X4868     COST       8
    X4868     A48        1
    X4868     G4868      1
    X4868     B68        1
    X4869     COST       6
    X4869     A48        1
    X4869     G4869      1
    X4869     B69        1
    X4870     COST       5
    X4870     A48        1
    X4870     G4870      1
    X4870     B70        1
    X4871     COST       5
    X4871     A48        1
    X4871     G4871      1
    X4871     B71        1
    X4872     COST       7
    X4872     A48        1
    X4872     G4872      1
    X4872     B72        1
    X4873     COST       6
    X4873     A48        1
    X4873     G4873      1
    X4873     B73        1
    X4874     COST       4
    X4874     A48        1
    X4874     G4874      1
    X4874     B74        1
    X4875     COST       5
    X4875     A48        1
    X4875     G4875      1
    X4875     B75        1
    X4876     COST       6
    X4876     A48        1
    X4876     G4876      1
    X4876     B76        1
    X4877     COST       5
    X4877     A48        1
    X4877     G4877      1
    X4877     B77        1
    X4878     COST       4
    X4878     A48        1
    X4878     G4878      1
    X4878     B78        1
    X4879     COST       7
    X4879     A48        1
    X4879     G4879      1
    X4879     B79        1
    X4880     COST       5
    X4880     A48        1
    X4880     G4880      1
    X4880     B80        1
    X4881     COST       7
    X4881     A48        1
    X4881     G4881      1
    X4881     B81        1
    X4882     COST       7
    X4882     A48        1
    X4882     G4882      1
    X4882     B82        1
    X4883     COST       6
    X4883     A48        1
    X4883     G4883      1
    X4883     B83        1
    X4884     COST       7
    X4884     A48        1
    X4884     G4884      1
    X4884     B84        1
    X4885     COST       4
    X4885     A48        1
    X4885     G4885      1
    X4885     B85        1
    X4886     COST       7
    X4886     A48        1
    X4886     G4886      1
    X4886     B86        1
    X4887     COST       6
    X4887     A48        1
    X4887     G4887      1
    X4887     B87        1
    X4888     COST       7
    X4888     A48        1
    X4888     G4888      1
    X4888     B88        1
    X4889     COST       6
    X4889     A48        1
    X4889     G4889      1
    X4889     B89        1
    X4890     COST       6
    X4890     A48        1
    X4890     G4890      1
    X4890     B90        1
    X4891     COST       7
    X4891     A48        1
    X4891     G4891      1
    X4891     B91        1
    X4892     COST       4
    X4892     A48        1
    X4892     G4892      1
    X4892     B92        1
    X4893     COST       5
    X4893     A48        1
    X4893     G4893      1
    X4893     B93        1
    X4894     COST       7
    X4894     A48        1
    X4894     G4894      1
    X4894     B94        1
    X4895     COST       6
    X4895     A48        1
    X4895     G4895      1
    X4895     B95        1
    X4896     COST       4
    X4896     A48        1
    X4896     G4896      1
    X4896     B96        1
    X4897     COST       7
    X4897     A48        1
    X4897     G4897      1
    X4897     B97        1
    X4898     COST       7
    X4898     A48        1
    X4898     G4898      1
    X4898     B98        1
    X4899     COST       3
    X4899     A48        1
    X4899     G4899      1
    X4899     B99        1
    X4900     COST       5
    X4900     A49        1
    X4900     G4900      1
    X4900     B0         1
    X4901     COST       3
    X4901     A49        1
    X4901     G4901      1
    X4901     B1         1
    X4902     COST       7
    X4902     A49        1
    X4902     G4902      1
    X4902     B2         1
    X4903     COST       5
    X4903     A49        1
    X4903     G4903      1
    X4903     B3         1
    X4904     COST       5
    X4904     A49        1
    X4904     G4904      1
    X4904     B4         1
    X4905     COST       8
    X4905     A49        1
    X4905     G4905      1
    X4905     B5         1
    X4906     COST       8
    X4906     A49        1
    X4906     G4906      1
    X4906     B6         1
    X4907     COST       5
    X4907     A49        1
    X4907     G4907      1
    X4907     B7         1
    X4908     COST       3
    X4908     A49        1
    X4908     G4908      1
    X4908     B8         1
    X4909     COST       3
    X4909     A49        1
    X4909     G4909      1
    X4909     B9         1
    X4910     COST       7
    X4910     A49        1
    X4910     G4910      1
    X4910     B10        1
    X4911     COST       4
    X4911     A49        1
    X4911     G4911      1
    X4911     B11        1
    X4912     COST       3
    X4912     A49        1
    X4912     G4912      1
    X4912     B12        1
    X4913     COST       6
    X4913     A49        1
    X4913     G4913      1
    X4913     B13        1
    X4914     COST       3
    X4914     A49        1
    X4914     G4914      1
    X4914     B14        1
    X4915     COST       7
    X4915     A49        1
    X4915     G4915      1
    X4915     B15        1
    X4916     COST       8
    X4916     A49        1
    X4916     G4916      1
    X4916     B16        1
    X4917     COST       5
    X4917     A49        1
    X4917     G4917      1
    X4917     B17        1
    X4918     COST       5
    X4918     A49        1
    X4918     G4918      1
    X4918     B18        1
    X4919     COST       6
    X4919     A49        1
    X4919     G4919      1
    X4919     B19        1
    X4920     COST       3
    X4920     A49        1
    X4920     G4920      1
    X4920     B20        1
    X4921     COST       3
    X4921     A49        1
    X4921     G4921      1
    X4921     B21        1
    X4922     COST       8
    X4922     A49        1
    X4922     G4922      1
    X4922     B22        1
    X4923     COST       6
    X4923     A49        1
    X4923     G4923      1
    X4923     B23        1
    X4924     COST       6
    X4924     A49        1
    X4924     G4924      1
    X4924     B24        1
    X4925     COST       8
    X4925     A49        1
    X4925     G4925      1
    X4925     B25        1
    X4926     COST       8
    X4926     A49        1
    X4926     G4926      1
    X4926     B26        1
    X4927     COST       4
    X4927     A49        1
    X4927     G4927      1
    X4927     B27        1
    X4928     COST       5
    X4928     A49        1
    X4928     G4928      1
    X4928     B28        1
    X4929     COST       7
    X4929     A49        1
    X4929     G4929      1
    X4929     B29        1
    X4930     COST       7
    X4930     A49        1
    X4930     G4930      1
    X4930     B30        1
    X4931     COST       8
    X4931     A49        1
    X4931     G4931      1
    X4931     B31        1
    X4932     COST       4
    X4932     A49        1
    X4932     G4932      1
    X4932     B32        1
    X4933     COST       8
    X4933     A49        1
    X4933     G4933      1
    X4933     B33        1
    X4934     COST       4
    X4934     A49        1
    X4934     G4934      1
    X4934     B34        1
    X4935     COST       4
    X4935     A49        1
    X4935     G4935      1
    X4935     B35        1
    X4936     COST       3
    X4936     A49        1
    X4936     G4936      1
    X4936     B36        1
    X4937     COST       4
    X4937     A49        1
    X4937     G4937      1
    X4937     B37        1
    X4938     COST       3
    X4938     A49        1
    X4938     G4938      1
    X4938     B38        1
    X4939     COST       3
    X4939     A49        1
    X4939     G4939      1
    X4939     B39        1
    X4940     COST       8
    X4940     A49        1
    X4940     G4940      1
    X4940     B40        1
    X4941     COST       3
    X4941     A49        1
    X4941     G4941      1
    X4941     B41        1
    X4942     COST       7
    X4942     A49        1
    X4942     G4942      1
    X4942     B42        1
    X4943     COST       6
    X4943     A49        1
    X4943     G4943      1
    X4943     B43        1
    X4944     COST       7
    X4944     A49        1
    X4944     G4944      1
    X4944     B44        1
    X4945     COST       4
    X4945     A49        1
    X4945     G4945      1
    X4945     B45        1
    X4946     COST       3
    X4946     A49        1
    X4946     G4946      1
    X4946     B46        1
    X4947     COST       7
    X4947     A49        1
    X4947     G4947      1
    X4947     B47        1
    X4948     COST       3
    X4948     A49        1
    X4948     G4948      1
    X4948     B48        1
    X4949     COST       6
    X4949     A49        1
    X4949     G4949      1
    X4949     B49        1
    X4950     COST       3
    X4950     A49        1
    X4950     G4950      1
    X4950     B50        1
    X4951     COST       5
    X4951     A49        1
    X4951     G4951      1
    X4951     B51        1
    X4952     COST       5
    X4952     A49        1
    X4952     G4952      1
    X4952     B52        1
    X4953     COST       6
    X4953     A49        1
    X4953     G4953      1
    X4953     B53        1
    X4954     COST       6
    X4954     A49        1
    X4954     G4954      1
    X4954     B54        1
    X4955     COST       3
    X4955     A49        1
    X4955     G4955      1
    X4955     B55        1
    X4956     COST       8
    X4956     A49        1
    X4956     G4956      1
    X4956     B56        1
    X4957     COST       4
    X4957     A49        1
    X4957     G4957      1
    X4957     B57        1
    X4958     COST       7
    X4958     A49        1
    X4958     G4958      1
    X4958     B58        1
    X4959     COST       7
    X4959     A49        1
    X4959     G4959      1
    X4959     B59        1
    X4960     COST       4
    X4960     A49        1
    X4960     G4960      1
    X4960     B60        1
    X4961     COST       5
    X4961     A49        1
    X4961     G4961      1
    X4961     B61        1
    X4962     COST       3
    X4962     A49        1
    X4962     G4962      1
    X4962     B62        1
    X4963     COST       6
    X4963     A49        1
    X4963     G4963      1
    X4963     B63        1
    X4964     COST       4
    X4964     A49        1
    X4964     G4964      1
    X4964     B64        1
    X4965     COST       6
    X4965     A49        1
    X4965     G4965      1
    X4965     B65        1
    X4966     COST       5
    X4966     A49        1
    X4966     G4966      1
    X4966     B66        1
    X4967     COST       8
    X4967     A49        1
    X4967     G4967      1
    X4967     B67        1
    X4968     COST       5
    X4968     A49        1
    X4968     G4968      1
    X4968     B68        1
    X4969     COST       3
    X4969     A49        1
    X4969     G4969      1
    X4969     B69        1
    X4970     COST       8
    X4970     A49        1
    X4970     G4970      1
    X4970     B70        1
    X4971     COST       4
    X4971     A49        1
    X4971     G4971      1
    X4971     B71        1
    X4972     COST       7
    X4972     A49        1
    X4972     G4972      1
    X4972     B72        1
    X4973     COST       6
    X4973     A49        1
    X4973     G4973      1
    X4973     B73        1
    X4974     COST       6
    X4974     A49        1
    X4974     G4974      1
    X4974     B74        1
    X4975     COST       5
    X4975     A49        1
    X4975     G4975      1
    X4975     B75        1
    X4976     COST       6
    X4976     A49        1
    X4976     G4976      1
    X4976     B76        1
    X4977     COST       5
    X4977     A49        1
    X4977     G4977      1
    X4977     B77        1
    X4978     COST       6
    X4978     A49        1
    X4978     G4978      1
    X4978     B78        1
    X4979     COST       6
    X4979     A49        1
    X4979     G4979      1
    X4979     B79        1
    X4980     COST       7
    X4980     A49        1
    X4980     G4980      1
    X4980     B80        1
    X4981     COST       5
    X4981     A49        1
    X4981     G4981      1
    X4981     B81        1
    X4982     COST       8
    X4982     A49        1
    X4982     G4982      1
    X4982     B82        1
    X4983     COST       4
    X4983     A49        1
    X4983     G4983      1
    X4983     B83        1
    X4984     COST       7
    X4984     A49        1
    X4984     G4984      1
    X4984     B84        1
    X4985     COST       3
    X4985     A49        1
    X4985     G4985      1
    X4985     B85        1
    X4986     COST       7
    X4986     A49        1
    X4986     G4986      1
    X4986     B86        1
    X4987     COST       5
    X4987     A49        1
    X4987     G4987      1
    X4987     B87        1
    X4988     COST       4
    X4988     A49        1
    X4988     G4988      1
    X4988     B88        1
    X4989     COST       6
    X4989     A49        1
    X4989     G4989      1
    X4989     B89        1
    X4990     COST       7
    X4990     A49        1
    X4990     G4990      1
    X4990     B90        1
    X4991     COST       5
    X4991     A49        1
    X4991     G4991      1
    X4991     B91        1
    X4992     COST       6
    X4992     A49        1
    X4992     G4992      1
    X4992     B92        1
    X4993     COST       8
    X4993     A49        1
    X4993     G4993      1
    X4993     B93        1
    X4994     COST       7
    X4994     A49        1
    X4994     G4994      1
    X4994     B94        1
    X4995     COST       4
    X4995     A49        1
    X4995     G4995      1
    X4995     B95        1
    X4996     COST       5
    X4996     A49        1
    X4996     G4996      1
    X4996     B96        1
    X4997     COST       6
    X4997     A49        1
    X4997     G4997      1
    X4997     B97        1
    X4998     COST       6
    X4998     A49        1
    X4998     G4998      1
    X4998     B98        1
    X4999     COST       7
    X4999     A49        1
    X4999     G4999      1
    X4999     B99        1
    MARK      'MARKER'                 'INTORG'
    Y0        COST       9810
    Y0        G0         -43
    Y1        COST       14534
    Y1        G1         -302
    Y2        COST       25209
    Y2        G2         -176
    Y3        COST       22667
    Y3        G3         -302
    Y4        COST       25210
    Y4        G4         -93
    Y5        COST       10227
    Y5        G5         -91
    Y6        COST       21988
    Y6        G6         -302
    Y7        COST       18316
    Y7        G7         -123
    Y8        COST       17036
    Y8        G8         -302
    Y9        COST       17927
    Y9        G9         -302
    Y10       COST       20681
    Y10       G10        -159
    Y11       COST       12819
    Y11       G11        -302
    Y12       COST       23298
    Y12       G12        -218
    Y13       COST       13825
    Y13       G13        -154
    Y14       COST       20960
    Y14       G14        -302
    Y15       COST       19922
    Y15       G15        -152
    Y16       COST       21046
    Y16       G16        -302
    Y17       COST       11553
    Y17       G17        -302
    Y18       COST       20422
    Y18       G18        -66
    Y19       COST       12830
    Y19       G19        -302
    Y20       COST       25542
    Y20       G20        -159
    Y21       COST       11546
    Y21       G21        -86
    Y22       COST       10673
    Y22       G22        -235
    Y23       COST       23639
    Y23       G23        -302
    Y24       COST       20882
    Y24       G24        -302
    Y25       COST       23675
    Y25       G25        -302
    Y26       COST       20961
    Y26       G26        -274
    Y27       COST       8381
    Y27       G27        -302
    Y28       COST       13766
    Y28       G28        -302
    Y29       COST       13476
    Y29       G29        -302
    Y30       COST       20026
    Y30       G30        -302
    Y31       COST       22515
    Y31       G31        -283
    Y32       COST       16218
    Y32       G32        -108
    Y33       COST       10672
    Y33       G33        -128
    Y34       COST       23964
    Y34       G34        -20
    Y35       COST       18501
    Y35       G35        -302
    Y36       COST       22444
    Y36       G36        -302
    Y37       COST       11931
    Y37       G37        -302
    Y38       COST       19630
    Y38       G38        -302
    Y39       COST       8387
    Y39       G39        -111
    Y40       COST       20368
    Y40       G40        -123
    Y41       COST       13269
    Y41       G41        -152
    Y42       COST       14717
    Y42       G42        -302
    Y43       COST       12360
    Y43       G43        -240
    Y44       COST       13518
    Y44       G44        -302
    Y45       COST       9744
    Y45       G45        -33
    Y46       COST       15317
    Y46       G46        -24
    Y47       COST       12169
    Y47       G47        -302
    Y48       COST       21799
    Y48       G48        -302
    Y49       COST       13514
    Y49       G49        -136
    Y50       COST       10881
    Y50       G50        -302
    Y51       COST       23427
    Y51       G51        -302
    Y52       COST       10858
    Y52       G52        -302
    Y53       COST       10350
    Y53       G53        -302
    Y54       COST       13925
    Y54       G54        -196
    Y55       COST       16021
    Y55       G55        -302
    Y56       COST       8335
    Y56       G56        -302
    Y57       COST       21886
    Y57       G57        -248
    Y58       COST       21896
    Y58       G58        -302
    Y59       COST       20923
    Y59       G59        -302
    Y60       COST       22011
    Y60       G60        -94
    Y61       COST       6582
    Y61       G61        -302
    Y62       COST       14023
    Y62       G62        -263
    Y63       COST       10062
    Y63       G63        -185
    Y64       COST       6668
    Y64       G64        -302
    Y65       COST       14669
    Y65       G65        -256
    Y66       COST       25070
    Y66       G66        -238
    Y67       COST       11431
    Y67       G67        -25
    Y68       COST       6956
    Y68       G68        -302
    Y69       COST       23925
    Y69       G69        -302
    Y70       COST       14764
    Y70       G70        -296
    Y71       COST       24600
    Y71       G71        -95
    Y72       COST       7031
    Y72       G72        -302
    Y73       COST       23729
    Y73       G73        -302
    Y74       COST       22788
    Y74       G74        -302
    Y75       COST       16814
    Y75       G75        -286
    Y76       COST       22898
    Y76       G76        -5
    Y77       COST       22306
    Y77       G77        -302
    Y78       COST       18348
    Y78       G78        -31
    Y79       COST       16321
    Y79       G79        -250
    Y80       COST       8182
    Y80       G80        -152
    Y81       COST       10437
    Y81       G81        -302
    Y82       COST       23830
    Y82       G82        -38
    Y83       COST       7113
    Y83       G83        -6
    Y84       COST       25094
    Y84       G84        -302
    Y85       COST       17210
    Y85       G85        -109
    Y86       COST       6670
    Y86       G86        -302
    Y87       COST       11144
    Y87       G87        -302
    Y88       COST       24893
    Y88       G88        -147
    Y89       COST       20188
    Y89       G89        -302
    Y90       COST       8885
    Y90       G90        -302
    Y91       COST       22342
    Y91       G91        -302
    Y92       COST       12855
    Y92       G92        -302
    Y93       COST       21624
    Y93       G93        -302
    Y94       COST       18005
    Y94       G94        -130
    Y95       COST       16864
    Y95       G95        -302
    Y96       COST       17240
    Y96       G96        -258
    Y97       COST       9115
    Y97       G97        -16
    Y98       COST       15660
    Y98       G98        -205
    Y99       COST       25053
    Y99       G99        -302
    Y100      COST       21312
    Y100      G100       -43
    Y101      COST       21760
    Y101      G101       -402
    Y102      COST       15788
    Y102      G102       -176
    Y103      COST       12283
    Y103      G103       -526
    Y104      COST       21547
    Y104      G104       -93
    Y105      COST       8447
    Y105      G105       -91
    Y106      COST       22643
    Y106      G106       -1200
    Y107      COST       21304
    Y107      G107       -123
    Y108      COST       14645
    Y108      G108       -435
    Y109      COST       24277
    Y109      G109       -461
    Y110      COST       17434
    Y110      G110       -159
    Y111      COST       9425
    Y111      G111       -509
    Y112      COST       17856
    Y112      G112       -218
    Y113      COST       19686
    Y113      G113       -154
    Y114      COST       14346
    Y114      G114       -516
    Y115      COST       18212
    Y115      G115       -152
    Y116      COST       10969
    Y116      G116       -580
    Y117      COST       11554
    Y117      G117       -1171
    Y118      COST       17786
    Y118      G118       -66
    Y119      COST       12455
    Y119      G119       -796
    Y120      COST       17673
    Y120      G120       -159
    Y121      COST       11588
    Y121      G121       -86
    Y122      COST       24523
    Y122      G122       -235
    Y123      COST       15829
    Y123      G123       -737
    Y124      COST       18237
    Y124      G124       -1793
    Y125      COST       23237
    Y125      G125       -1261
    Y126      COST       9708
    Y126      G126       -274
    Y127      COST       22377
    Y127      G127       -1181
    Y128      COST       9497
    Y128      G128       -364
    Y129      COST       11540
    Y129      G129       -1061
    Y130      COST       16961
    Y130      G130       -325
    Y131      COST       20767
    Y131      G131       -283
    Y132      COST       11972
    Y132      G132       -108
    Y133      COST       12494
    Y133      G133       -128
    Y134      COST       24333
    Y134      G134       -20
    Y135      COST       23577
    Y135      G135       -1461
    Y136      COST       11034
    Y136      G136       -499
    Y137      COST       21837
    Y137      G137       -1211
    Y138      COST       12349
    Y138      G138       -324
    Y139      COST       14179
    Y139      G139       -111
    Y140      COST       14263
    Y140      G140       -123
    Y141      COST       19004
    Y141      G141       -152
    Y142      COST       19484
    Y142      G142       -441
    Y143      COST       11232
    Y143      G143       -240
    Y144      COST       22703
    Y144      G144       -509
    Y145      COST       7650
    Y145      G145       -33
    Y146      COST       17352
    Y146      G146       -24
    Y147      COST       24714
    Y147      G147       -1392
    Y148      COST       24361
    Y148      G148       -401
    Y149      COST       18034
    Y149      G149       -136
    Y150      COST       6975
    Y150      G150       -467
    Y151      COST       19356
    Y151      G151       -807
    Y152      COST       24954
    Y152      G152       -737
    Y153      COST       23363
    Y153      G153       -1467
    Y154      COST       25035
    Y154      G154       -196
    Y155      COST       24944
    Y155      G155       -643
    Y156      COST       23660
    Y156      G156       -1793
    Y157      COST       12975
    Y157      G157       -248
    Y158      COST       7842
    Y158      G158       -1620
    Y159      COST       16408
    Y159      G159       -535
    Y160      COST       9984
    Y160      G160       -94
    Y161      COST       8563
    Y161      G161       -1126
    Y162      COST       14838
    Y162      G162       -263
    Y163      COST       20090
    Y163      G163       -185
    Y164      COST       21635
    Y164      G164       -581
    Y165      COST       22014
    Y165      G165       -256
    Y166      COST       13405
    Y166      G166       -238
    Y167      COST       9961
    Y167      G167       -25
    Y168      COST       12684
    Y168      G168       -506
    Y169      COST       13680
    Y169      G169       -560
    Y170      COST       11077
    Y170      G170       -296
    Y171      COST       10819
    Y171      G171       -95
    Y172      COST       25418
    Y172      G172       -1793
    Y173      COST       16057
    Y173      G173       -566
    Y174      COST       21140
    Y174      G174       -698
    Y175      COST       15677
    Y175      G175       -286
    Y176      COST       9906
    Y176      G176       -5
    Y177      COST       23363
    Y177      G177       -1326
    Y178      COST       22304
    Y178      G178       -31
    Y179      COST       13639
    Y179      G179       -250
    Y180      COST       14046
    Y180      G180       -152
    Y181      COST       25335
    Y181      G181       -1443
    Y182      COST       8637
    Y182      G182       -38
    Y183      COST       22835
    Y183      G183       -6
    Y184      COST       21941
    Y184      G184       -309
    Y185      COST       20589
    Y185      G185       -109
    Y186      COST       10414
    Y186      G186       -351
    Y187      COST       10025
    Y187      G187       -432
    Y188      COST       20257
    Y188      G188       -147
    Y189      COST       24903
    Y189      G189       -344
    Y190      COST       21972
    Y190      G190       -1245
    Y191      COST       11167
    Y191      G191       -502
    Y192      COST       19822
    Y192      G192       -806
    Y193      COST       19789
    Y193      G193       -367
    Y194      COST       13109
    Y194      G194       -130
    Y195      COST       16344
    Y195      G195       -522
    Y196      COST       7767
    Y196      G196       -258
    Y197      COST       23116
    Y197      G197       -16
    Y198      COST       19338
    Y198      G198       -205
    Y199      COST       23970
    Y199      G199       -1353
    Y200      COST       18445
    Y200      G200       -43
    Y201      COST       13554
    Y201      G201       -402
    Y202      COST       25572
    Y202      G202       -176
    Y203      COST       18821
    Y203      G203       -526
    Y204      COST       14068
    Y204      G204       -93
    Y205      COST       15397
    Y205      G205       -91
    Y206      COST       10731
    Y206      G206       -1200
    Y207      COST       16596
    Y207      G207       -123
    Y208      COST       14513
    Y208      G208       -435
    Y209      COST       21524
    Y209      G209       -461
    Y210      COST       15388
    Y210      G210       -159
    Y211      COST       6473
    Y211      G211       -509
    Y212      COST       17431
    Y212      G212       -218
    Y213      COST       15845
    Y213      G213       -154
    Y214      COST       24803
    Y214      G214       -516
    Y215      COST       6438
    Y215      G215       -152
    Y216      COST       21264
    Y216      G216       -580
    Y217      COST       18423
    Y217      G217       -1171
    Y218      COST       10734
    Y218      G218       -66
    Y219      COST       20450
    Y219      G219       -796
    Y220      COST       19707
    Y220      G220       -159
    Y221      COST       21008
    Y221      G221       -86
    Y222      COST       6462
    Y222      G222       -235
    Y223      COST       6757
    Y223      G223       -737
    Y224      COST       14531
    Y224      G224       -2192
    Y225      COST       23249
    Y225      G225       -1261
    Y226      COST       18730
    Y226      G226       -274
    Y227      COST       25242
    Y227      G227       -1181
    Y228      COST       16965
    Y228      G228       -364
    Y229      COST       15057
    Y229      G229       -1061
    Y230      COST       13061
    Y230      G230       -325
    Y231      COST       22507
    Y231      G231       -283
    Y232      COST       6493
    Y232      G232       -108
    Y233      COST       20957
    Y233      G233       -128
    Y234      COST       17775
    Y234      G234       -20
    Y235      COST       22918
    Y235      G235       -1461
    Y236      COST       6760
    Y236      G236       -499
    Y237      COST       11356
    Y237      G237       -1211
    Y238      COST       12519
    Y238      G238       -324
    Y239      COST       21325
    Y239      G239       -111
    Y240      COST       12716
    Y240      G240       -123
    Y241      COST       18509
    Y241      G241       -152
    Y242      COST       25088
    Y242      G242       -441
    Y243      COST       21353
    Y243      G243       -240
    Y244      COST       8342
    Y244      G244       -509
    Y245      COST       6514
    Y245      G245       -33
    Y246      COST       15963
    Y246      G246       -24
    Y247      COST       7775
    Y247      G247       -1392
    Y248      COST       24512
    Y248      G248       -401
    Y249      COST       21422
    Y249      G249       -136
    Y250      COST       7770
    Y250      G250       -467
    Y251      COST       6988
    Y251      G251       -807
    Y252      COST       24587
    Y252      G252       -737
    Y253      COST       10343
    Y253      G253       -1467
    Y254      COST       17178
    Y254      G254       -196
    Y255      COST       10865
    Y255      G255       -643
    Y256      COST       18099
    Y256      G256       -1867
    Y257      COST       8868
    Y257      G257       -248
    Y258      COST       20085
    Y258      G258       -1620
    Y259      COST       10139
    Y259      G259       -535
    Y260      COST       20928
    Y260      G260       -94
    Y261      COST       22814
    Y261      G261       -1126
    Y262      COST       23491
    Y262      G262       -263
    Y263      COST       24931
    Y263      G263       -185
    Y264      COST       14682
    Y264      G264       -581
    Y265      COST       24168
    Y265      G265       -256
    Y266      COST       8528
    Y266      G266       -238
    Y267      COST       24995
    Y267      G267       -25
    Y268      COST       13904
    Y268      G268       -506
    Y269      COST       16441
    Y269      G269       -560
    Y270      COST       10857
    Y270      G270       -296
    Y271      COST       18623
    Y271      G271       -95
    Y272      COST       24148
    Y272      G272       -1924
    Y273      COST       11197
    Y273      G273       -566
    Y274      COST       13120
    Y274      G274       -698
    Y275      COST       21927
    Y275      G275       -286
    Y276      COST       10796
    Y276      G276       -5
    Y277      COST       15138
    Y277      G277       -1326
    Y278      COST       16333
    Y278      G278       -31
    Y279      COST       7817
    Y279      G279       -250
    Y280      COST       11413
    Y280      G280       -152
    Y281      COST       16894
    Y281      G281       -1443
    Y282      COST       23079
    Y282      G282       -38
    Y283      COST       20838
    Y283      G283       -6
    Y284      COST       11874
    Y284      G284       -309
    Y285      COST       10795
    Y285      G285       -109
    Y286      COST       25101
    Y286      G286       -351
    Y287      COST       24889
    Y287      G287       -432
    Y288      COST       12862
    Y288      G288       -147
    Y289      COST       16353
    Y289      G289       -344
    Y290      COST       7775
    Y290      G290       -1245
    Y291      COST       15118
    Y291      G291       -502
    Y292      COST       21595
    Y292      G292       -806
    Y293      COST       22371
    Y293      G293       -367
    Y294      COST       11762
    Y294      G294       -130
    Y295      COST       22347
    Y295      G295       -522
    Y296      COST       14011
    Y296      G296       -258
    Y297      COST       17091
    Y297      G297       -16
    Y298      COST       8207
    Y298      G298       -205
    Y299      COST       18217
    Y299      G299       -1353
    Y300      COST       9785
    Y300      G300       -43
    Y301      COST       17485
    Y301      G301       -402
    Y302      COST       13555
    Y302      G302       -176
    Y303      COST       16024
    Y303      G303       -526
    Y304      COST       11311
    Y304      G304       -93
    Y305      COST       21519
    Y305      G305       -91
    Y306      COST       12431
    Y306      G306       -1200
    Y307      COST       12260
    Y307      G307       -123
    Y308      COST       20497
    Y308      G308       -435
    Y309      COST       13592
    Y309      G309       -461
    Y310      COST       14108
    Y310      G310       -159
    Y311      COST       13596
    Y311      G311       -509
    Y312      COST       7939
    Y312      G312       -218
    Y313      COST       16164
    Y313      G313       -154
    Y314      COST       18100
    Y314      G314       -516
    Y315      COST       14344
    Y315      G315       -152
    Y316      COST       13455
    Y316      G316       -580
    Y317      COST       22174
    Y317      G317       -1171
    Y318      COST       18238
    Y318      G318       -66
    Y319      COST       15468
    Y319      G319       -796
    Y320      COST       17457
    Y320      G320       -159
    Y321      COST       19930
    Y321      G321       -86
    Y322      COST       7968
    Y322      G322       -235
    Y323      COST       19708
    Y323      G323       -737
    Y324      COST       13872
    Y324      G324       -1558
    Y325      COST       19520
    Y325      G325       -1261
    Y326      COST       11008
    Y326      G326       -274
    Y327      COST       9720
    Y327      G327       -1181
    Y328      COST       10171
    Y328      G328       -364
    Y329      COST       8745
    Y329      G329       -1061
    Y330      COST       22948
    Y330      G330       -325
    Y331      COST       13241
    Y331      G331       -283
    Y332      COST       14224
    Y332      G332       -108
    Y333      COST       10613
    Y333      G333       -128
    Y334      COST       19186
    Y334      G334       -20
    Y335      COST       12508
    Y335      G335       -1461
    Y336      COST       24742
    Y336      G336       -499
    Y337      COST       10661
    Y337      G337       -1211
    Y338      COST       18194
    Y338      G338       -324
    Y339      COST       24333
    Y339      G339       -111
    Y340      COST       9723
    Y340      G340       -123
    Y341      COST       22712
    Y341      G341       -152
    Y342      COST       15769
    Y342      G342       -441
    Y343      COST       23223
    Y343      G343       -240
    Y344      COST       13962
    Y344      G344       -509
    Y345      COST       19377
    Y345      G345       -33
    Y346      COST       14192
    Y346      G346       -24
    Y347      COST       22925
    Y347      G347       -1392
    Y348      COST       16711
    Y348      G348       -401
    Y349      COST       23230
    Y349      G349       -136
    Y350      COST       13974
    Y350      G350       -467
    Y351      COST       18039
    Y351      G351       -807
    Y352      COST       8870
    Y352      G352       -737
    Y353      COST       17299
    Y353      G353       -1467
    Y354      COST       7033
    Y354      G354       -196
    Y355      COST       19857
    Y355      G355       -643
    Y356      COST       12634
    Y356      G356       -1558
    Y357      COST       15561
    Y357      G357       -248
    Y358      COST       22011
    Y358      G358       -1558
    Y359      COST       13713
    Y359      G359       -535
    Y360      COST       11903
    Y360      G360       -94
    Y361      COST       9235
    Y361      G361       -1126
    Y362      COST       12128
    Y362      G362       -263
    Y363      COST       23489
    Y363      G363       -185
    Y364      COST       17226
    Y364      G364       -581
    Y365      COST       25432
    Y365      G365       -256
    Y366      COST       19053
    Y366      G366       -238
    Y367      COST       11051
    Y367      G367       -25
    Y368      COST       23947
    Y368      G368       -506
    Y369      COST       22332
    Y369      G369       -560
    Y370      COST       15693
    Y370      G370       -296
    Y371      COST       10813
    Y371      G371       -95
    Y372      COST       14354
    Y372      G372       -1558
    Y373      COST       21934
    Y373      G373       -566
    Y374      COST       11195
    Y374      G374       -698
    Y375      COST       16330
    Y375      G375       -286
    Y376      COST       20871
    Y376      G376       -5
    Y377      COST       23817
    Y377      G377       -1326
    Y378      COST       24629
    Y378      G378       -31
    Y379      COST       20815
    Y379      G379       -250
    Y380      COST       18643
    Y380      G380       -152
    Y381      COST       23373
    Y381      G381       -1443
    Y382      COST       7103
    Y382      G382       -38
    Y383      COST       21208
    Y383      G383       -6
    Y384      COST       9663
    Y384      G384       -309
    Y385      COST       9871
    Y385      G385       -109
    Y386      COST       8610
    Y386      G386       -351
    Y387      COST       18908
    Y387      G387       -432
    Y388      COST       25345
    Y388      G388       -147
    Y389      COST       25353
    Y389      G389       -344
    Y390      COST       15650
    Y390      G390       -1245
    Y391      COST       19374
    Y391      G391       -502
    Y392      COST       19148
    Y392      G392       -806
    Y393      COST       16887
    Y393      G393       -367
    Y394      COST       10759
    Y394      G394       -130
    Y395      COST       20243
    Y395      G395       -522
    Y396      COST       24913
    Y396      G396       -258
    Y397      COST       12194
    Y397      G397       -16
    Y398      COST       24692
    Y398      G398       -205
    Y399      COST       9684
    Y399      G399       -1353
    Y400      COST       6412
    Y400      G400       -43
    Y401      COST       20699
    Y401      G401       -402
    Y402      COST       10457
    Y402      G402       -176
    Y403      COST       10228
    Y403      G403       -526
    Y404      COST       7914
    Y404      G404       -93
    Y405      COST       10237
    Y405      G405       -91
    Y406      COST       21773
    Y406      G406       -738
    Y407      COST       20691
    Y407      G407       -123
    Y408      COST       24305
    Y408      G408       -435
    Y409      COST       6805
    Y409      G409       -461
    Y410      COST       12284
    Y410      G410       -159
    Y411      COST       21528
    Y411      G411       -509
    Y412      COST       11340
    Y412      G412       -218
    Y413      COST       20452
    Y413      G413       -154
    Y414      COST       14569
    Y414      G414       -516
    Y415      COST       24809
    Y415      G415       -152
    Y416      COST       17432
    Y416      G416       -580
    Y417      COST       23580
    Y417      G417       -738
    Y418      COST       16562
    Y418      G418       -66
    Y419      COST       16979
    Y419      G419       -738
    Y420      COST       12833
    Y420      G420       -159
    Y421      COST       18428
    Y421      G421       -86
    Y422      COST       7961
    Y422      G422       -235
    Y423      COST       19926
    Y423      G423       -737
    Y424      COST       20437
    Y424      G424       -738
    Y425      COST       16963
    Y425      G425       -738
    Y426      COST       6501
    Y426      G426       -274
    Y427      COST       13239
    Y427      G427       -738
    Y428      COST       25295
    Y428      G428       -364
    Y429      COST       8745
    Y429      G429       -738
    Y430      COST       14157
    Y430      G430       -325
    Y431      COST       25523
    Y431      G431       -283
    Y432      COST       13216
    Y432      G432       -108
    Y433      COST       7241
    Y433      G433       -128
    Y434      COST       9487
    Y434      G434       -20
    Y435      COST       24534
    Y435      G435       -738
    Y436      COST       18517
    Y436      G436       -499
    Y437      COST       22910
    Y437      G437       -738
    Y438      COST       10223
    Y438      G438       -324
    Y439      COST       6547
    Y439      G439       -111
    Y440      COST       22461
    Y440      G440       -123
    Y441      COST       10674
    Y441      G441       -152
    Y442      COST       9060
    Y442      G442       -441
    Y443      COST       14638
    Y443      G443       -240
    Y444      COST       9071
    Y444      G444       -509
    Y445      COST       17809
    Y445      G445       -33
    Y446      COST       25487
    Y446      G446       -24
    Y447      COST       12382
    Y447      G447       -738
    Y448      COST       18178
    Y448      G448       -401
    Y449      COST       12616
    Y449      G449       -136
    Y450      COST       13435
    Y450      G450       -467
    Y451      COST       17388
    Y451      G451       -738
    Y452      COST       10116
    Y452      G452       -737
    Y453      COST       21127
    Y453      G453       -738
    Y454      COST       17732
    Y454      G454       -196
    Y455      COST       25011
    Y455      G455       -643
    Y456      COST       20304
    Y456      G456       -738
    Y457      COST       10882
    Y457      G457       -248
    Y458      COST       20532
    Y458      G458       -738
    Y459      COST       12766
    Y459      G459       -535
    Y460      COST       21115
    Y460      G460       -94
    Y461      COST       15221
    Y461      G461       -738
    Y462      COST       10832
    Y462      G462       -263
    Y463      COST       8837
    Y463      G463       -185
    Y464      COST       6940
    Y464      G464       -581
    Y465      COST       20091
    Y465      G465       -256
    Y466      COST       20555
    Y466      G466       -238
    Y467      COST       8289
    Y467      G467       -25
    Y468      COST       13386
    Y468      G468       -506
    Y469      COST       25046
    Y469      G469       -560
    Y470      COST       13739
    Y470      G470       -296
    Y471      COST       18079
    Y471      G471       -95
    Y472      COST       9960
    Y472      G472       -738
    Y473      COST       19896
    Y473      G473       -566
    Y474      COST       13007
    Y474      G474       -698
    Y475      COST       17320
    Y475      G475       -286
    Y476      COST       24859
    Y476      G476       -5
    Y477      COST       17340
    Y477      G477       -738
    Y478      COST       12891
    Y478      G478       -31
    Y479      COST       14396
    Y479      G479       -250
    Y480      COST       13360
    Y480      G480       -152
    Y481      COST       20817
    Y481      G481       -738
    Y482      COST       16089
    Y482      G482       -38
    Y483      COST       23078
    Y483      G483       -6
    Y484      COST       11798
    Y484      G484       -309
    Y485      COST       9654
    Y485      G485       -109
    Y486      COST       22879
    Y486      G486       -351
    Y487      COST       9121
    Y487      G487       -432
    Y488      COST       16887
    Y488      G488       -147
    Y489      COST       24899
    Y489      G489       -344
    Y490      COST       16139
    Y490      G490       -738
    Y491      COST       9628
    Y491      G491       -502
    Y492      COST       15876
    Y492      G492       -738
    Y493      COST       10767
    Y493      G493       -367
    Y494      COST       11131
    Y494      G494       -130
    Y495      COST       23872
    Y495      G495       -522
    Y496      COST       8125
    Y496      G496       -258
    Y497      COST       8131
    Y497      G497       -16
    Y498      COST       13717
    Y498      G498       -205
    Y499      COST       25029
    Y499      G499       -738
    Y500      COST       8656
    Y500      G500       -43
    Y501      COST       20699
    Y501      G501       -402
    Y502      COST       16568
    Y502      G502       -176
    Y503      COST       9790
    Y503      G503       -526
    Y504      COST       22662
    Y504      G504       -93
    Y505      COST       21755
    Y505      G505       -91
    Y506      COST       17459
    Y506      G506       -1200
    Y507      COST       7699
    Y507      G507       -123
    Y508      COST       13834
    Y508      G508       -435
    Y509      COST       8699
    Y509      G509       -461
    Y510      COST       8462
    Y510      G510       -159
    Y511      COST       24821
    Y511      G511       -509
    Y512      COST       25177
    Y512      G512       -218
    Y513      COST       23010
    Y513      G513       -154
    Y514      COST       23624
    Y514      G514       -516
    Y515      COST       18794
    Y515      G515       -152
    Y516      COST       22461
    Y516      G516       -580
    Y517      COST       9842
    Y517      G517       -1171
    Y518      COST       19284
    Y518      G518       -66
    Y519      COST       14999
    Y519      G519       -796
    Y520      COST       7212
    Y520      G520       -159
    Y521      COST       24395
    Y521      G521       -86
    Y522      COST       7592
    Y522      G522       -235
    Y523      COST       24016
    Y523      G523       -737
    Y524      COST       19516
    Y524      G524       -1657
    Y525      COST       17415
    Y525      G525       -1261
    Y526      COST       24540
    Y526      G526       -274
    Y527      COST       14231
    Y527      G527       -1181
    Y528      COST       10617
    Y528      G528       -364
    Y529      COST       18750
    Y529      G529       -1061
    Y530      COST       18208
    Y530      G530       -325
    Y531      COST       14620
    Y531      G531       -283
    Y532      COST       11647
    Y532      G532       -108
    Y533      COST       12024
    Y533      G533       -128
    Y534      COST       15499
    Y534      G534       -20
    Y535      COST       12373
    Y535      G535       -1461
    Y536      COST       8669
    Y536      G536       -499
    Y537      COST       7047
    Y537      G537       -1211
    Y538      COST       21650
    Y538      G538       -324
    Y539      COST       13512
    Y539      G539       -111
    Y540      COST       20738
    Y540      G540       -123
    Y541      COST       23288
    Y541      G541       -152
    Y542      COST       13713
    Y542      G542       -441
    Y543      COST       7074
    Y543      G543       -240
    Y544      COST       7421
    Y544      G544       -509
    Y545      COST       12010
    Y545      G545       -33
    Y546      COST       24952
    Y546      G546       -24
    Y547      COST       22779
    Y547      G547       -1392
    Y548      COST       8141
    Y548      G548       -401
    Y549      COST       15612
    Y549      G549       -136
    Y550      COST       22461
    Y550      G550       -467
    Y551      COST       7061
    Y551      G551       -807
    Y552      COST       8829
    Y552      G552       -737
    Y553      COST       22461
    Y553      G553       -1467
    Y554      COST       24107
    Y554      G554       -196
    Y555      COST       23900
    Y555      G555       -643
    Y556      COST       11905
    Y556      G556       -1657
    Y557      COST       23714
    Y557      G557       -248
    Y558      COST       21170
    Y558      G558       -1620
    Y559      COST       7010
    Y559      G559       -535
    Y560      COST       6582
    Y560      G560       -94
    Y561      COST       11431
    Y561      G561       -1126
    Y562      COST       13932
    Y562      G562       -263
    Y563      COST       10326
    Y563      G563       -185
    Y564      COST       8819
    Y564      G564       -581
    Y565      COST       18086
    Y565      G565       -256
    Y566      COST       23943
    Y566      G566       -238
    Y567      COST       16415
    Y567      G567       -25
    Y568      COST       23720
    Y568      G568       -506
    Y569      COST       22426
    Y569      G569       -560
    Y570      COST       10331
    Y570      G570       -296
    Y571      COST       9965
    Y571      G571       -95
    Y572      COST       16435
    Y572      G572       -1657
    Y573      COST       11389
    Y573      G573       -566
    Y574      COST       12222
    Y574      G574       -698
    Y575      COST       9699
    Y575      G575       -286
    Y576      COST       23053
    Y576      G576       -5
    Y577      COST       19761
    Y577      G577       -1326
    Y578      COST       8199
    Y578      G578       -31
    Y579      COST       19321
    Y579      G579       -250
    Y580      COST       14777
    Y580      G580       -152
    Y581      COST       20147
    Y581      G581       -1443
    Y582      COST       20138
    Y582      G582       -38
    Y583      COST       8167
    Y583      G583       -6
    Y584      COST       11407
    Y584      G584       -309
    Y585      COST       12916
    Y585      G585       -109
    Y586      COST       11866
    Y586      G586       -351
    Y587      COST       13430
    Y587      G587       -432
    Y588      COST       18901
    Y588      G588       -147
    Y589      COST       7081
    Y589      G589       -344
    Y590      COST       6646
    Y590      G590       -1245
    Y591      COST       22350
    Y591      G591       -502
    Y592      COST       19143
    Y592      G592       -806
    Y593      COST       20169
    Y593      G593       -367
    Y594      COST       10750
    Y594      G594       -130
    Y595      COST       18001
    Y595      G595       -522
    Y596      COST       16868
    Y596      G596       -258
    Y597      COST       23410
    Y597      G597       -16
    Y598      COST       7757
    Y598      G598       -205
    Y599      COST       10384
    Y599      G599       -1353
    Y600      COST       24081
    Y600      G600       -43
    Y601      COST       20354
    Y601      G601       -402
    Y602      COST       7158
    Y602      G602       -176
    Y603      COST       22991
    Y603      G603       -526
    Y604      COST       13848
    Y604      G604       -93
    Y605      COST       14060
    Y605      G605       -91
    Y606      COST       18470
    Y606      G606       -797
    Y607      COST       23647
    Y607      G607       -123
    Y608      COST       14943
    Y608      G608       -435
    Y609      COST       13165
    Y609      G609       -461
    Y610      COST       7171
    Y610      G610       -159
    Y611      COST       20497
    Y611      G611       -509
    Y612      COST       11512
    Y612      G612       -218
    Y613      COST       12261
    Y613      G613       -154
    Y614      COST       7711
    Y614      G614       -516
    Y615      COST       7953
    Y615      G615       -152
    Y616      COST       22186
    Y616      G616       -580
    Y617      COST       15834
    Y617      G617       -797
    Y618      COST       21496
    Y618      G618       -66
    Y619      COST       18834
    Y619      G619       -796
    Y620      COST       17462
    Y620      G620       -159
    Y621      COST       13598
    Y621      G621       -86
    Y622      COST       21714
    Y622      G622       -235
    Y623      COST       24283
    Y623      G623       -737
    Y624      COST       17658
    Y624      G624       -797
    Y625      COST       18130
    Y625      G625       -797
    Y626      COST       16982
    Y626      G626       -274
    Y627      COST       14943
    Y627      G627       -797
    Y628      COST       12479
    Y628      G628       -364
    Y629      COST       11203
    Y629      G629       -797
    Y630      COST       24406
    Y630      G630       -325
    Y631      COST       14203
    Y631      G631       -283
    Y632      COST       10747
    Y632      G632       -108
    Y633      COST       23518
    Y633      G633       -128
    Y634      COST       22276
    Y634      G634       -20
    Y635      COST       14554
    Y635      G635       -797
    Y636      COST       19504
    Y636      G636       -499
    Y637      COST       22713
    Y637      G637       -797
    Y638      COST       24770
    Y638      G638       -324
    Y639      COST       11324
    Y639      G639       -111
    Y640      COST       23624
    Y640      G640       -123
    Y641      COST       18739
    Y641      G641       -152
    Y642      COST       13488
    Y642      G642       -441
    Y643      COST       8731
    Y643      G643       -240
    Y644      COST       18503
    Y644      G644       -509
    Y645      COST       23586
    Y645      G645       -33
    Y646      COST       11611
    Y646      G646       -24
    Y647      COST       9741
    Y647      G647       -797
    Y648      COST       15524
    Y648      G648       -401
    Y649      COST       11998
    Y649      G649       -136
    Y650      COST       23151
    Y650      G650       -467
    Y651      COST       21451
    Y651      G651       -797
    Y652      COST       15531
    Y652      G652       -737
    Y653      COST       20975
    Y653      G653       -797
    Y654      COST       17758
    Y654      G654       -196
    Y655      COST       7279
    Y655      G655       -643
    Y656      COST       7874
    Y656      G656       -797
    Y657      COST       19385
    Y657      G657       -248
    Y658      COST       16251
    Y658      G658       -797
    Y659      COST       18040
    Y659      G659       -535
    Y660      COST       12143
    Y660      G660       -94
    Y661      COST       11469
    Y661      G661       -797
    Y662      COST       10893
    Y662      G662       -263
    Y663      COST       20878
    Y663      G663       -185
    Y664      COST       25465
    Y664      G664       -581
    Y665      COST       24330
    Y665      G665       -256
    Y666      COST       11118
    Y666      G666       -238
    Y667      COST       19610
    Y667      G667       -25
    Y668      COST       22444
    Y668      G668       -506
    Y669      COST       7991
    Y669      G669       -560
    Y670      COST       14675
    Y670      G670       -296
    Y671      COST       9770
    Y671      G671       -95
    Y672      COST       16448
    Y672      G672       -797
    Y673      COST       7001
    Y673      G673       -566
    Y674      COST       14656
    Y674      G674       -698
    Y675      COST       22793
    Y675      G675       -286
    Y676      COST       18869
    Y676      G676       -5
    Y677      COST       24175
    Y677      G677       -797
    Y678      COST       17185
    Y678      G678       -31
    Y679      COST       14660
    Y679      G679       -250
    Y680      COST       11766
    Y680      G680       -152
    Y681      COST       21955
    Y681      G681       -797
    Y682      COST       8936
    Y682      G682       -38
    Y683      COST       25335
    Y683      G683       -6
    Y684      COST       17575
    Y684      G684       -309
    Y685      COST       16829
    Y685      G685       -109
    Y686      COST       11364
    Y686      G686       -351
    Y687      COST       14889
    Y687      G687       -432
    Y688      COST       6897
    Y688      G688       -147
    Y689      COST       7796
    Y689      G689       -344
    Y690      COST       22878
    Y690      G690       -797
    Y691      COST       14363
    Y691      G691       -502
    Y692      COST       9656
    Y692      G692       -797
    Y693      COST       24398
    Y693      G693       -367
    Y694      COST       8575
    Y694      G694       -130
    Y695      COST       22358
    Y695      G695       -522
    Y696      COST       16344
    Y696      G696       -258
    Y697      COST       22365
    Y697      G697       -16
    Y698      COST       20180
    Y698      G698       -205
    Y699      COST       19777
    Y699      G699       -797
    Y700      COST       7694
    Y700      G700       -43
    Y701      COST       8668
    Y701      G701       -402
    Y702      COST       10479
    Y702      G702       -176
    Y703      COST       22216
    Y703      G703       -526
    Y704      COST       21306
    Y704      G704       -93
    Y705      COST       17703
    Y705      G705       -91
    Y706      COST       21737
    Y706      G706       -674
    Y707      COST       7732
    Y707      G707       -123
    Y708      COST       12837
    Y708      G708       -435
    Y709      COST       8996
    Y709      G709       -461
    Y710      COST       10940
    Y710      G710       -159
    Y711      COST       17881
    Y711      G711       -509
    Y712      COST       11347
    Y712      G712       -218
    Y713      COST       9039
    Y713      G713       -154
    Y714      COST       6451
    Y714      G714       -516
    Y715      COST       24063
    Y715      G715       -152
    Y716      COST       22382
    Y716      G716       -580
    Y717      COST       10283
    Y717      G717       -674
    Y718      COST       6460
    Y718      G718       -66
    Y719      COST       21438
    Y719      G719       -674
    Y720      COST       10184
    Y720      G720       -159
    Y721      COST       22227
    Y721      G721       -86
    Y722      COST       20354
    Y722      G722       -235
    Y723      COST       14600
    Y723      G723       -674
    Y724      COST       7648
    Y724      G724       -674
    Y725      COST       25272
    Y725      G725       -674
    Y726      COST       15500
    Y726      G726       -274
    Y727      COST       12351
    Y727      G727       -674
    Y728      COST       15065
    Y728      G728       -364
    Y729      COST       11602
    Y729      G729       -674
    Y730      COST       23274
    Y730      G730       -325
    Y731      COST       22498
    Y731      G731       -283
    Y732      COST       20030
    Y732      G732       -108
    Y733      COST       16244
    Y733      G733       -128
    Y734      COST       14245
    Y734      G734       -20
    Y735      COST       20354
    Y735      G735       -674
    Y736      COST       24389
    Y736      G736       -499
    Y737      COST       9093
    Y737      G737       -674
    Y738      COST       12523
    Y738      G738       -324
    Y739      COST       22677
    Y739      G739       -111
    Y740      COST       7271
    Y740      G740       -123
    Y741      COST       13812
    Y741      G741       -152
    Y742      COST       25246
    Y742      G742       -441
    Y743      COST       19614
    Y743      G743       -240
    Y744      COST       9096
    Y744      G744       -509
    Y745      COST       17135
    Y745      G745       -33
    Y746      COST       8774
    Y746      G746       -24
    Y747      COST       19990
    Y747      G747       -674
    Y748      COST       10833
    Y748      G748       -401
    Y749      COST       12146
    Y749      G749       -136
    Y750      COST       13064
    Y750      G750       -467
    Y751      COST       20503
    Y751      G751       -674
    Y752      COST       24579
    Y752      G752       -674
    Y753      COST       25391
    Y753      G753       -674
    Y754      COST       18279
    Y754      G754       -196
    Y755      COST       15983
    Y755      G755       -643
    Y756      COST       8337
    Y756      G756       -674
    Y757      COST       15216
    Y757      G757       -248
    Y758      COST       19844
    Y758      G758       -674
    Y759      COST       9190
    Y759      G759       -535
    Y760      COST       8518
    Y760      G760       -94
    Y761      COST       20934
    Y761      G761       -674
    Y762      COST       13427
    Y762      G762       -263
    Y763      COST       20313
    Y763      G763       -185
    Y764      COST       21941
    Y764      G764       -581
    Y765      COST       8051
    Y765      G765       -256
    Y766      COST       15595
    Y766      G766       -238
    Y767      COST       12124
    Y767      G767       -25
    Y768      COST       8276
    Y768      G768       -506
    Y769      COST       24963
    Y769      G769       -560
    Y770      COST       13684
    Y770      G770       -296
    Y771      COST       16069
    Y771      G771       -95
    Y772      COST       19446
    Y772      G772       -674
    Y773      COST       20117
    Y773      G773       -566
    Y774      COST       16434
    Y774      G774       -674
    Y775      COST       7848
    Y775      G775       -286
    Y776      COST       24602
    Y776      G776       -5
    Y777      COST       22039
    Y777      G777       -674
    Y778      COST       13121
    Y778      G778       -31
    Y779      COST       21900
    Y779      G779       -250
    Y780      COST       8946
    Y780      G780       -152
    Y781      COST       10816
    Y781      G781       -674
    Y782      COST       9901
    Y782      G782       -38
    Y783      COST       7790
    Y783      G783       -6
    Y784      COST       20675
    Y784      G784       -309
    Y785      COST       24910
    Y785      G785       -109
    Y786      COST       11360
    Y786      G786       -351
    Y787      COST       12658
    Y787      G787       -432
    Y788      COST       18392
    Y788      G788       -147
    Y789      COST       12175
    Y789      G789       -344
    Y790      COST       22884
    Y790      G790       -674
    Y791      COST       9659
    Y791      G791       -502
    Y792      COST       7092
    Y792      G792       -674
    Y793      COST       12875
    Y793      G793       -367
    Y794      COST       17614
    Y794      G794       -130
    Y795      COST       20168
    Y795      G795       -522
    Y796      COST       20243
    Y796      G796       -258
    Y797      COST       21612
    Y797      G797       -16
    Y798      COST       20178
    Y798      G798       -205
    Y799      COST       21808
    Y799      G799       -674
    Y800      COST       12303
    Y800      G800       -43
    Y801      COST       8652
    Y801      G801       -402
    Y802      COST       23331
    Y802      G802       -176
    Y803      COST       9405
    Y803      G803       -526
    Y804      COST       11308
    Y804      G804       -93
    Y805      COST       12032
    Y805      G805       -91
    Y806      COST       22217
    Y806      G806       -686
    Y807      COST       18841
    Y807      G807       -123
    Y808      COST       8668
    Y808      G808       -435
    Y809      COST       10921
    Y809      G809       -461
    Y810      COST       16597
    Y810      G810       -159
    Y811      COST       10262
    Y811      G811       -509
    Y812      COST       20716
    Y812      G812       -218
    Y813      COST       13595
    Y813      G813       -154
    Y814      COST       9781
    Y814      G814       -516
    Y815      COST       22643
    Y815      G815       -152
    Y816      COST       11559
    Y816      G816       -580
    Y817      COST       20455
    Y817      G817       -686
    Y818      COST       15458
    Y818      G818       -66
    Y819      COST       18536
    Y819      G819       -686
    Y820      COST       24253
    Y820      G820       -159
    Y821      COST       11205
    Y821      G821       -86
    Y822      COST       18124
    Y822      G822       -235
    Y823      COST       15831
    Y823      G823       -686
    Y824      COST       25022
    Y824      G824       -686
    Y825      COST       11575
    Y825      G825       -686
    Y826      COST       9265
    Y826      G826       -274
    Y827      COST       14582
    Y827      G827       -686
    Y828      COST       21462
    Y828      G828       -364
    Y829      COST       17842
    Y829      G829       -686
    Y830      COST       19278
    Y830      G830       -325
    Y831      COST       16264
    Y831      G831       -283
    Y832      COST       24766
    Y832      G832       -108
    Y833      COST       12529
    Y833      G833       -128
    Y834      COST       21334
    Y834      G834       -20
    Y835      COST       7663
    Y835      G835       -686
    Y836      COST       21412
    Y836      G836       -499
    Y837      COST       8847
    Y837      G837       -686
    Y838      COST       21340
    Y838      G838       -324
    Y839      COST       20952
    Y839      G839       -111
    Y840      COST       22936
    Y840      G840       -123
    Y841      COST       12385
    Y841      G841       -152
    Y842      COST       19604
    Y842      G842       -441
    Y843      COST       8773
    Y843      G843       -240
    Y844      COST       10367
    Y844      G844       -509
    Y845      COST       15224
    Y845      G845       -33
    Y846      COST       23935
    Y846      G846       -24
    Y847      COST       11104
    Y847      G847       -686
    Y848      COST       12610
    Y848      G848       -401
    Y849      COST       12163
    Y849      G849       -136
    Y850      COST       9175
    Y850      G850       -467
    Y851      COST       20283
    Y851      G851       -686
    Y852      COST       16017
    Y852      G852       -686
    Y853      COST       18047
    Y853      G853       -686
    Y854      COST       7849
    Y854      G854       -196
    Y855      COST       23436
    Y855      G855       -643
    Y856      COST       19534
    Y856      G856       -686
    Y857      COST       24566
    Y857      G857       -248
    Y858      COST       10371
    Y858      G858       -686
    Y859      COST       7007
    Y859      G859       -535
    Y860      COST       22392
    Y860      G860       -94
    Y861      COST       13424
    Y861      G861       -686
    Y862      COST       14809
    Y862      G862       -263
    Y863      COST       15180
    Y863      G863       -185
    Y864      COST       13679
    Y864      G864       -581
    Y865      COST       11076
    Y865      G865       -256
    Y866      COST       23466
    Y866      G866       -238
    Y867      COST       15206
    Y867      G867       -25
    Y868      COST       25414
    Y868      G868       -506
    Y869      COST       14666
    Y869      G869       -560
    Y870      COST       12114
    Y870      G870       -296
    Y871      COST       8073
    Y871      G871       -95
    Y872      COST       13692
    Y872      G872       -686
    Y873      COST       23476
    Y873      G873       -566
    Y874      COST       25153
    Y874      G874       -686
    Y875      COST       8934
    Y875      G875       -286
    Y876      COST       23803
    Y876      G876       -5
    Y877      COST       8193
    Y877      G877       -686
    Y878      COST       22089
    Y878      G878       -31
    Y879      COST       14943
    Y879      G879       -250
    Y880      COST       14946
    Y880      G880       -152
    Y881      COST       13372
    Y881      G881       -686
    Y882      COST       10798
    Y882      G882       -38
    Y883      COST       12866
    Y883      G883       -6
    Y884      COST       6674
    Y884      G884       -309
    Y885      COST       13080
    Y885      G885       -109
    Y886      COST       20120
    Y886      G886       -351
    Y887      COST       19898
    Y887      G887       -432
    Y888      COST       16146
    Y888      G888       -147
    Y889      COST       19142
    Y889      G889       -344
    Y890      COST       21212
    Y890      G890       -686
    Y891      COST       17111
    Y891      G891       -502
    Y892      COST       12635
    Y892      G892       -686
    Y893      COST       6864
    Y893      G893       -367
    Y894      COST       18372
    Y894      G894       -130
    Y895      COST       21244
    Y895      G895       -522
    Y896      COST       24863
    Y896      G896       -258
    Y897      COST       23784
    Y897      G897       -16
    Y898      COST       19801
    Y898      G898       -205
    Y899      COST       10059
    Y899      G899       -686
    Y900      COST       9413
    Y900      G900       -43
    Y901      COST       11301
    Y901      G901       -402
    Y902      COST       16205
    Y902      G902       -176
    Y903      COST       19947
    Y903      G903       -526
    Y904      COST       14518
    Y904      G904       -93
    Y905      COST       14065
    Y905      G905       -91
    Y906      COST       6800
    Y906      G906       -914
    Y907      COST       15781
    Y907      G907       -123
    Y908      COST       10484
    Y908      G908       -435
    Y909      COST       17943
    Y909      G909       -461
    Y910      COST       15446
    Y910      G910       -159
    Y911      COST       22179
    Y911      G911       -509
    Y912      COST       21270
    Y912      G912       -218
    Y913      COST       15374
    Y913      G913       -154
    Y914      COST       21284
    Y914      G914       -516
    Y915      COST       10524
    Y915      G915       -152
    Y916      COST       8712
    Y916      G916       -580
    Y917      COST       21725
    Y917      G917       -914
    Y918      COST       10551
    Y918      G918       -66
    Y919      COST       9488
    Y919      G919       -796
    Y920      COST       21002
    Y920      G920       -159
    Y921      COST       6483
    Y921      G921       -86
    Y922      COST       25277
    Y922      G922       -235
    Y923      COST       14606
    Y923      G923       -737
    Y924      COST       10179
    Y924      G924       -914
    Y925      COST       15707
    Y925      G925       -914
    Y926      COST       19660
    Y926      G926       -274
    Y927      COST       7985
    Y927      G927       -914
    Y928      COST       10164
    Y928      G928       -364
    Y929      COST       10981
    Y929      G929       -914
    Y930      COST       13280
    Y930      G930       -325
    Y931      COST       19639
    Y931      G931       -283
    Y932      COST       18744
    Y932      G932       -108
    Y933      COST       8398
    Y933      G933       -128
    Y934      COST       6528
    Y934      G934       -20
    Y935      COST       14618
    Y935      G935       -914
    Y936      COST       21784
    Y936      G936       -499
    Y937      COST       17372
    Y937      G937       -914
    Y938      COST       6745
    Y938      G938       -324
    Y939      COST       17751
    Y939      G939       -111
    Y940      COST       14463
    Y940      G940       -123
    Y941      COST       24917
    Y941      G941       -152
    Y942      COST       11098
    Y942      G942       -441
    Y943      COST       23940
    Y943      G943       -240
    Y944      COST       21651
    Y944      G944       -509
    Y945      COST       18276
    Y945      G945       -33
    Y946      COST       22059
    Y946      G946       -24
    Y947      COST       20283
    Y947      G947       -914
    Y948      COST       21117
    Y948      G948       -401
    Y949      COST       7767
    Y949      G949       -136
    Y950      COST       8504
    Y950      G950       -467
    Y951      COST       21682
    Y951      G951       -807
    Y952      COST       20561
    Y952      G952       -737
    Y953      COST       18573
    Y953      G953       -914
    Y954      COST       7006
    Y954      G954       -196
    Y955      COST       23659
    Y955      G955       -643
    Y956      COST       19878
    Y956      G956       -914
    Y957      COST       21667
    Y957      G957       -248
    Y958      COST       11387
    Y958      G958       -914
    Y959      COST       7897
    Y959      G959       -535
    Y960      COST       14824
    Y960      G960       -94
    Y961      COST       25089
    Y961      G961       -914
    Y962      COST       12945
    Y962      G962       -263
    Y963      COST       8303
    Y963      G963       -185
    Y964      COST       11885
    Y964      G964       -581
    Y965      COST       25093
    Y965      G965       -256
    Y966      COST       23750
    Y966      G966       -238
    Y967      COST       14915
    Y967      G967       -25
    Y968      COST       23761
    Y968      G968       -506
    Y969      COST       12640
    Y969      G969       -560
    Y970      COST       13602
    Y970      G970       -296
    Y971      COST       14047
    Y971      G971       -95
    Y972      COST       24182
    Y972      G972       -914
    Y973      COST       8233
    Y973      G973       -566
    Y974      COST       17975
    Y974      G974       -698
    Y975      COST       21861
    Y975      G975       -286
    Y976      COST       24854
    Y976      G976       -5
    Y977      COST       8626
    Y977      G977       -914
    Y978      COST       14358
    Y978      G978       -31
    Y979      COST       9143
    Y979      G979       -250
    Y980      COST       12684
    Y980      G980       -152
    Y981      COST       11613
    Y981      G981       -914
    Y982      COST       12920
    Y982      G982       -38
    Y983      COST       12646
    Y983      G983       -6
    Y984      COST       7801
    Y984      G984       -309
    Y985      COST       7773
    Y985      G985       -109
    Y986      COST       23102
    Y986      G986       -351
    Y987      COST       11734
    Y987      G987       -432
    Y988      COST       8229
    Y988      G988       -147
    Y989      COST       9858
    Y989      G989       -344
    Y990      COST       25130
    Y990      G990       -914
    Y991      COST       14367
    Y991      G991       -502
    Y992      COST       8137
    Y992      G992       -806
    Y993      COST       20169
    Y993      G993       -367
    Y994      COST       6860
    Y994      G994       -130
    Y995      COST       9116
    Y995      G995       -522
    Y996      COST       19800
    Y996      G996       -258
    Y997      COST       17989
    Y997      G997       -16
    Y998      COST       17991
    Y998      G998       -205
    Y999      COST       6920
    Y999      G999       -914
    Y1000     COST       11296
    Y1000     G1000      -43
    Y1001     COST       17693
    Y1001     G1001      -325
    Y1002     COST       12798
    Y1002     G1002      -176
    Y1003     COST       17480
    Y1003     G1003      -325
    Y1004     COST       18826
    Y1004     G1004      -93
    Y1005     COST       24458
    Y1005     G1005      -91
    Y1006     COST       9306
    Y1006     G1006      -325
    Y1007     COST       18148
    Y1007     G1007      -123
    Y1008     COST       21302
    Y1008     G1008      -325
    Y1009     COST       16659
    Y1009     G1009      -325
    Y1010     COST       24439
    Y1010     G1010      -159
    Y1011     COST       23512
    Y1011     G1011      -325
    Y1012     COST       23278
    Y1012     G1012      -218
    Y1013     COST       17440
    Y1013     G1013      -154
    Y1014     COST       6831
    Y1014     G1014      -325
    Y1015     COST       9826
    Y1015     G1015      -152
    Y1016     COST       18783
    Y1016     G1016      -325
    Y1017     COST       10512
    Y1017     G1017      -325
    Y1018     COST       18434
    Y1018     G1018      -66
    Y1019     COST       9388
    Y1019     G1019      -325
    Y1020     COST       18790
    Y1020     G1020      -159
    Y1021     COST       22505
    Y1021     G1021      -86
    Y1022     COST       12445
    Y1022     G1022      -235
    Y1023     COST       22992
    Y1023     G1023      -325
    Y1024     COST       20681
    Y1024     G1024      -325
    Y1025     COST       9731
    Y1025     G1025      -325
    Y1026     COST       8372
    Y1026     G1026      -274
    Y1027     COST       17781
    Y1027     G1027      -325
    Y1028     COST       20042
    Y1028     G1028      -325
    Y1029     COST       19514
    Y1029     G1029      -325
    Y1030     COST       10633
    Y1030     G1030      -325
    Y1031     COST       23626
    Y1031     G1031      -283
    Y1032     COST       12004
    Y1032     G1032      -108
    Y1033     COST       9028
    Y1033     G1033      -128
    Y1034     COST       21340
    Y1034     G1034      -20
    Y1035     COST       24704
    Y1035     G1035      -325
    Y1036     COST       20394
    Y1036     G1036      -325
    Y1037     COST       23580
    Y1037     G1037      -325
    Y1038     COST       18207
    Y1038     G1038      -324
    Y1039     COST       23974
    Y1039     G1039      -111
    Y1040     COST       25515
    Y1040     G1040      -123
    Y1041     COST       12549
    Y1041     G1041      -152
    Y1042     COST       12002
    Y1042     G1042      -325
    Y1043     COST       7490
    Y1043     G1043      -240
    Y1044     COST       14649
    Y1044     G1044      -325
    Y1045     COST       15319
    Y1045     G1045      -33
    Y1046     COST       7285
    Y1046     G1046      -24
    Y1047     COST       23444
    Y1047     G1047      -325
    Y1048     COST       13439
    Y1048     G1048      -325
    Y1049     COST       10129
    Y1049     G1049      -136
    Y1050     COST       12607
    Y1050     G1050      -325
    Y1051     COST       15987
    Y1051     G1051      -325
    Y1052     COST       7051
    Y1052     G1052      -325
    Y1053     COST       20280
    Y1053     G1053      -325
    Y1054     COST       24944
    Y1054     G1054      -196
    Y1055     COST       10205
    Y1055     G1055      -325
    Y1056     COST       16677
    Y1056     G1056      -325
    Y1057     COST       24553
    Y1057     G1057      -248
    Y1058     COST       9983
    Y1058     G1058      -325
    Y1059     COST       21641
    Y1059     G1059      -325
    Y1060     COST       15194
    Y1060     G1060      -94
    Y1061     COST       7843
    Y1061     G1061      -325
    Y1062     COST       19001
    Y1062     G1062      -263
    Y1063     COST       20521
    Y1063     G1063      -185
    Y1064     COST       9592
    Y1064     G1064      -325
    Y1065     COST       10311
    Y1065     G1065      -256
    Y1066     COST       14454
    Y1066     G1066      -238
    Y1067     COST       11439
    Y1067     G1067      -25
    Y1068     COST       7757
    Y1068     G1068      -325
    Y1069     COST       11484
    Y1069     G1069      -325
    Y1070     COST       9927
    Y1070     G1070      -296
    Y1071     COST       21800
    Y1071     G1071      -95
    Y1072     COST       11457
    Y1072     G1072      -325
    Y1073     COST       16319
    Y1073     G1073      -325
    Y1074     COST       22449
    Y1074     G1074      -325
    Y1075     COST       11445
    Y1075     G1075      -286
    Y1076     COST       6564
    Y1076     G1076      -5
    Y1077     COST       23808
    Y1077     G1077      -325
    Y1078     COST       19426
    Y1078     G1078      -31
    Y1079     COST       17149
    Y1079     G1079      -250
    Y1080     COST       16080
    Y1080     G1080      -152
    Y1081     COST       24575
    Y1081     G1081      -325
    Y1082     COST       15191
    Y1082     G1082      -38
    Y1083     COST       12918
    Y1083     G1083      -6
    Y1084     COST       7715
    Y1084     G1084      -309
    Y1085     COST       19132
    Y1085     G1085      -109
    Y1086     COST       15089
    Y1086     G1086      -325
    Y1087     COST       24679
    Y1087     G1087      -325
    Y1088     COST       24905
    Y1088     G1088      -147
    Y1089     COST       20258
    Y1089     G1089      -325
    Y1090     COST       6904
    Y1090     G1090      -325
    Y1091     COST       11806
    Y1091     G1091      -325
    Y1092     COST       17110
    Y1092     G1092      -325
    Y1093     COST       20240
    Y1093     G1093      -325
    Y1094     COST       25125
    Y1094     G1094      -130
    Y1095     COST       11809
    Y1095     G1095      -325
    Y1096     COST       8903
    Y1096     G1096      -258
    Y1097     COST       18062
    Y1097     G1097      -16
    Y1098     COST       18062
    Y1098     G1098      -205
    Y1099     COST       22884
    Y1099     G1099      -325
    Y1100     COST       8702
    Y1100     G1100      -43
    Y1101     COST       17466
    Y1101     G1101      -207
    Y1102     COST       7566
    Y1102     G1102      -176
    Y1103     COST       16152
    Y1103     G1103      -207
    Y1104     COST       19192
    Y1104     G1104      -93
    Y1105     COST       25185
    Y1105     G1105      -91
    Y1106     COST       14284
    Y1106     G1106      -207
    Y1107     COST       17483
    Y1107     G1107      -123
    Y1108     COST       11293
    Y1108     G1108      -207
    Y1109     COST       7705
    Y1109     G1109      -207
    Y1110     COST       17717
    Y1110     G1110      -159
    Y1111     COST       17004
    Y1111     G1111      -207
    Y1112     COST       14279
    Y1112     G1112      -207
    Y1113     COST       14110
    Y1113     G1113      -154
    Y1114     COST       21509
    Y1114     G1114      -207
    Y1115     COST       22580
    Y1115     G1115      -152
    Y1116     COST       8031
    Y1116     G1116      -207
    Y1117     COST       25559
    Y1117     G1117      -207
    Y1118     COST       17650
    Y1118     G1118      -66
    Y1119     COST       18767
    Y1119     G1119      -207
    Y1120     COST       21011
    Y1120     G1120      -159
    Y1121     COST       10972
    Y1121     G1121      -86
    Y1122     COST       17450
    Y1122     G1122      -207
    Y1123     COST       15028
    Y1123     G1123      -207
    Y1124     COST       16755
    Y1124     G1124      -207
    Y1125     COST       7629
    Y1125     G1125      -207
    Y1126     COST       15485
    Y1126     G1126      -207
    Y1127     COST       10168
    Y1127     G1127      -207
    Y1128     COST       8792
    Y1128     G1128      -207
    Y1129     COST       19649
    Y1129     G1129      -207
    Y1130     COST       19633
    Y1130     G1130      -207
    Y1131     COST       12493
    Y1131     G1131      -207
    Y1132     COST       14234
    Y1132     G1132      -108
    Y1133     COST       19267
    Y1133     G1133      -128
    Y1134     COST       8735
    Y1134     G1134      -20
    Y1135     COST       23635
    Y1135     G1135      -207
    Y1136     COST       24382
    Y1136     G1136      -207
    Y1137     COST       18513
    Y1137     G1137      -207
    Y1138     COST       16706
    Y1138     G1138      -207
    Y1139     COST       12371
    Y1139     G1139      -111
    Y1140     COST       18754
    Y1140     G1140      -123
    Y1141     COST       19977
    Y1141     G1141      -152
    Y1142     COST       15088
    Y1142     G1142      -207
    Y1143     COST       10642
    Y1143     G1143      -207
    Y1144     COST       13295
    Y1144     G1144      -207
    Y1145     COST       19493
    Y1145     G1145      -33
    Y1146     COST       17365
    Y1146     G1146      -24
    Y1147     COST       25410
    Y1147     G1147      -207
    Y1148     COST       23609
    Y1148     G1148      -207
    Y1149     COST       19017
    Y1149     G1149      -136
    Y1150     COST       13435
    Y1150     G1150      -207
    Y1151     COST       21654
    Y1151     G1151      -207
    Y1152     COST       22777
    Y1152     G1152      -207
    Y1153     COST       10865
    Y1153     G1153      -207
    Y1154     COST       9755
    Y1154     G1154      -196
    Y1155     COST       20529
    Y1155     G1155      -207
    Y1156     COST       8549
    Y1156     G1156      -207
    Y1157     COST       19024
    Y1157     G1157      -207
    Y1158     COST       16023
    Y1158     G1158      -207
    Y1159     COST       20907
    Y1159     G1159      -207
    Y1160     COST       7965
    Y1160     G1160      -94
    Y1161     COST       23141
    Y1161     G1161      -207
    Y1162     COST       14843
    Y1162     G1162      -207
    Y1163     COST       17513
    Y1163     G1163      -185
    Y1164     COST       16790
    Y1164     G1164      -207
    Y1165     COST       9239
    Y1165     G1165      -207
    Y1166     COST       10891
    Y1166     G1166      -207
    Y1167     COST       23693
    Y1167     G1167      -25
    Y1168     COST       8308
    Y1168     G1168      -207
    Y1169     COST       14701
    Y1169     G1169      -207
    Y1170     COST       11019
    Y1170     G1170      -207
    Y1171     COST       14437
    Y1171     G1171      -95
    Y1172     COST       25473
    Y1172     G1172      -207
    Y1173     COST       23929
    Y1173     G1173      -207
    Y1174     COST       6684
    Y1174     G1174      -207
    Y1175     COST       21180
    Y1175     G1175      -207
    Y1176     COST       11844
    Y1176     G1176      -5
    Y1177     COST       22038
    Y1177     G1177      -207
    Y1178     COST       15917
    Y1178     G1178      -31
    Y1179     COST       19302
    Y1179     G1179      -207
    Y1180     COST       20347
    Y1180     G1180      -152
    Y1181     COST       16826
    Y1181     G1181      -207
    Y1182     COST       12694
    Y1182     G1182      -38
    Y1183     COST       19317
    Y1183     G1183      -6
    Y1184     COST       9869
    Y1184     G1184      -207
    Y1185     COST       9644
    Y1185     G1185      -109
    Y1186     COST       9122
    Y1186     G1186      -207
    Y1187     COST       20202
    Y1187     G1187      -207
    Y1188     COST       23095
    Y1188     G1188      -147
    Y1189     COST       22312
    Y1189     G1189      -207
    Y1190     COST       16368
    Y1190     G1190      -207
    Y1191     COST       19816
    Y1191     G1191      -207
    Y1192     COST       11382
    Y1192     G1192      -207
    Y1193     COST       14746
    Y1193     G1193      -207
    Y1194     COST       19114
    Y1194     G1194      -130
    Y1195     COST       8997
    Y1195     G1195      -207
    Y1196     COST       15870
    Y1196     G1196      -207
    Y1197     COST       11375
    Y1197     G1197      -16
    Y1198     COST       12647
    Y1198     G1198      -205
    Y1199     COST       15881
    Y1199     G1199      -207
    Y1200     COST       7257
    Y1200     G1200      -43
    Y1201     COST       19563
    Y1201     G1201      -402
    Y1202     COST       18816
    Y1202     G1202      -176
    Y1203     COST       10480
    Y1203     G1203      -526
    Y1204     COST       20470
    Y1204     G1204      -93
    Y1205     COST       12283
    Y1205     G1205      -91
    Y1206     COST       10902
    Y1206     G1206      -1200
    Y1207     COST       13156
    Y1207     G1207      -123
    Y1208     COST       20716
    Y1208     G1208      -435
    Y1209     COST       9439
    Y1209     G1209      -461
    Y1210     COST       9815
    Y1210     G1210      -159
    Y1211     COST       21278
    Y1211     G1211      -509
    Y1212     COST       23312
    Y1212     G1212      -218
    Y1213     COST       16985
    Y1213     G1213      -154
    Y1214     COST       7469
    Y1214     G1214      -516
    Y1215     COST       12373
    Y1215     G1215      -152
    Y1216     COST       14608
    Y1216     G1216      -580
    Y1217     COST       13625
    Y1217     G1217      -1171
    Y1218     COST       22617
    Y1218     G1218      -66
    Y1219     COST       6502
    Y1219     G1219      -796
    Y1220     COST       19488
    Y1220     G1220      -159
    Y1221     COST       17670
    Y1221     G1221      -86
    Y1222     COST       13458
    Y1222     G1222      -235
    Y1223     COST       25524
    Y1223     G1223      -737
    Y1224     COST       22714
    Y1224     G1224      -1314
    Y1225     COST       20991
    Y1225     G1225      -1261
    Y1226     COST       12510
    Y1226     G1226      -274
    Y1227     COST       25490
    Y1227     G1227      -1181
    Y1228     COST       24737
    Y1228     G1228      -364
    Y1229     COST       9264
    Y1229     G1229      -1061
    Y1230     COST       23893
    Y1230     G1230      -325
    Y1231     COST       15273
    Y1231     G1231      -283
    Y1232     COST       17772
    Y1232     G1232      -108
    Y1233     COST       24763
    Y1233     G1233      -128
    Y1234     COST       21472
    Y1234     G1234      -20
    Y1235     COST       16906
    Y1235     G1235      -1314
    Y1236     COST       7461
    Y1236     G1236      -499
    Y1237     COST       12004
    Y1237     G1237      -1211
    Y1238     COST       24479
    Y1238     G1238      -324
    Y1239     COST       18200
    Y1239     G1239      -111
    Y1240     COST       8411
    Y1240     G1240      -123
    Y1241     COST       9098
    Y1241     G1241      -152
    Y1242     COST       10666
    Y1242     G1242      -441
    Y1243     COST       9547
    Y1243     G1243      -240
    Y1244     COST       25466
    Y1244     G1244      -509
    Y1245     COST       7150
    Y1245     G1245      -33
    Y1246     COST       8553
    Y1246     G1246      -24
    Y1247     COST       11635
    Y1247     G1247      -1314
    Y1248     COST       12008
    Y1248     G1248      -401
    Y1249     COST       18036
    Y1249     G1249      -136
    Y1250     COST       20528
    Y1250     G1250      -467
    Y1251     COST       6614
    Y1251     G1251      -807
    Y1252     COST       19013
    Y1252     G1252      -737
    Y1253     COST       8838
    Y1253     G1253      -1314
    Y1254     COST       13420
    Y1254     G1254      -196
    Y1255     COST       10145
    Y1255     G1255      -643
    Y1256     COST       11471
    Y1256     G1256      -1314
    Y1257     COST       19048
    Y1257     G1257      -248
    Y1258     COST       23495
    Y1258     G1258      -1314
    Y1259     COST       21867
    Y1259     G1259      -535
    Y1260     COST       20893
    Y1260     G1260      -94
    Y1261     COST       15686
    Y1261     G1261      -1126
    Y1262     COST       22065
    Y1262     G1262      -263
    Y1263     COST       19893
    Y1263     G1263      -185
    Y1264     COST       14684
    Y1264     G1264      -581
    Y1265     COST       16443
    Y1265     G1265      -256
    Y1266     COST       9934
    Y1266     G1266      -238
    Y1267     COST       23468
    Y1267     G1267      -25
    Y1268     COST       23051
    Y1268     G1268      -506
    Y1269     COST       23466
    Y1269     G1269      -560
    Y1270     COST       11849
    Y1270     G1270      -296
    Y1271     COST       14811
    Y1271     G1271      -95
    Y1272     COST       9669
    Y1272     G1272      -1314
    Y1273     COST       21551
    Y1273     G1273      -566
    Y1274     COST       14775
    Y1274     G1274      -698
    Y1275     COST       12227
    Y1275     G1275      -286
    Y1276     COST       13137
    Y1276     G1276      -5
    Y1277     COST       23077
    Y1277     G1277      -1314
    Y1278     COST       15166
    Y1278     G1278      -31
    Y1279     COST       22086
    Y1279     G1279      -250
    Y1280     COST       19093
    Y1280     G1280      -152
    Y1281     COST       8165
    Y1281     G1281      -1314
    Y1282     COST       22871
    Y1282     G1282      -38
    Y1283     COST       17640
    Y1283     G1283      -6
    Y1284     COST       10416
    Y1284     G1284      -309
    Y1285     COST       13148
    Y1285     G1285      -109
    Y1286     COST       23105
    Y1286     G1286      -351
    Y1287     COST       10023
    Y1287     G1287      -432
    Y1288     COST       13604
    Y1288     G1288      -147
    Y1289     COST       8174
    Y1289     G1289      -344
    Y1290     COST       18924
    Y1290     G1290      -1245
    Y1291     COST       18693
    Y1291     G1291      -502
    Y1292     COST       16138
    Y1292     G1292      -806
    Y1293     COST       13658
    Y1293     G1293      -367
    Y1294     COST       12885
    Y1294     G1294      -130
    Y1295     COST       19141
    Y1295     G1295      -522
    Y1296     COST       13327
    Y1296     G1296      -258
    Y1297     COST       13409
    Y1297     G1297      -16
    Y1298     COST       18901
    Y1298     G1298      -205
    Y1299     COST       10318
    Y1299     G1299      -1314
    Y1300     COST       20478
    Y1300     G1300      -43
    Y1301     COST       12420
    Y1301     G1301      -402
    Y1302     COST       14972
    Y1302     G1302      -176
    Y1303     COST       9343
    Y1303     G1303      -526
    Y1304     COST       22596
    Y1304     G1304      -93
    Y1305     COST       20425
    Y1305     G1305      -91
    Y1306     COST       14065
    Y1306     G1306      -1200
    Y1307     COST       24305
    Y1307     G1307      -123
    Y1308     COST       10932
    Y1308     G1308      -435
    Y1309     COST       7546
    Y1309     G1309      -461
    Y1310     COST       15337
    Y1310     G1310      -159
    Y1311     COST       18837
    Y1311     G1311      -509
    Y1312     COST       14508
    Y1312     G1312      -218
    Y1313     COST       9007
    Y1313     G1313      -154
    Y1314     COST       16535
    Y1314     G1314      -516
    Y1315     COST       14070
    Y1315     G1315      -152
    Y1316     COST       10271
    Y1316     G1316      -580
    Y1317     COST       19538
    Y1317     G1317      -1171
    Y1318     COST       14564
    Y1318     G1318      -66
    Y1319     COST       22167
    Y1319     G1319      -796
    Y1320     COST       16175
    Y1320     G1320      -159
    Y1321     COST       21385
    Y1321     G1321      -86
    Y1322     COST       7238
    Y1322     G1322      -235
    Y1323     COST       22733
    Y1323     G1323      -737
    Y1324     COST       23226
    Y1324     G1324      -2143
    Y1325     COST       23241
    Y1325     G1325      -1261
    Y1326     COST       11602
    Y1326     G1326      -274
    Y1327     COST       8004
    Y1327     G1327      -1181
    Y1328     COST       19638
    Y1328     G1328      -364
    Y1329     COST       6715
    Y1329     G1329      -1061
    Y1330     COST       24387
    Y1330     G1330      -325
    Y1331     COST       20396
    Y1331     G1331      -283
    Y1332     COST       7674
    Y1332     G1332      -108
    Y1333     COST       14178
    Y1333     G1333      -128
    Y1334     COST       16910
    Y1334     G1334      -20
    Y1335     COST       13511
    Y1335     G1335      -1461
    Y1336     COST       20749
    Y1336     G1336      -499
    Y1337     COST       15302
    Y1337     G1337      -1211
    Y1338     COST       24136
    Y1338     G1338      -324
    Y1339     COST       22778
    Y1339     G1339      -111
    Y1340     COST       16676
    Y1340     G1340      -123
    Y1341     COST       16242
    Y1341     G1341      -152
    Y1342     COST       24725
    Y1342     G1342      -441
    Y1343     COST       18486
    Y1343     G1343      -240
    Y1344     COST       19456
    Y1344     G1344      -509
    Y1345     COST       17729
    Y1345     G1345      -33
    Y1346     COST       10124
    Y1346     G1346      -24
    Y1347     COST       25411
    Y1347     G1347      -1392
    Y1348     COST       12607
    Y1348     G1348      -401
    Y1349     COST       11630
    Y1349     G1349      -136
    Y1350     COST       9219
    Y1350     G1350      -467
    Y1351     COST       13448
    Y1351     G1351      -807
    Y1352     COST       17150
    Y1352     G1352      -737
    Y1353     COST       11123
    Y1353     G1353      -1467
    Y1354     COST       12599
    Y1354     G1354      -196
    Y1355     COST       20326
    Y1355     G1355      -643
    Y1356     COST       17530
    Y1356     G1356      -1867
    Y1357     COST       9185
    Y1357     G1357      -248
    Y1358     COST       9232
    Y1358     G1358      -1620
    Y1359     COST       24161
    Y1359     G1359      -535
    Y1360     COST       7402
    Y1360     G1360      -94
    Y1361     COST       8284
    Y1361     G1361      -1126
    Y1362     COST       20548
    Y1362     G1362      -263
    Y1363     COST       13704
    Y1363     G1363      -185
    Y1364     COST       17341
    Y1364     G1364      -581
    Y1365     COST       25045
    Y1365     G1365      -256
    Y1366     COST       18083
    Y1366     G1366      -238
    Y1367     COST       16968
    Y1367     G1367      -25
    Y1368     COST       24967
    Y1368     G1368      -506
    Y1369     COST       17189
    Y1369     G1369      -560
    Y1370     COST       8189
    Y1370     G1370      -296
    Y1371     COST       8198
    Y1371     G1371      -95
    Y1372     COST       6921
    Y1372     G1372      -1924
    Y1373     COST       17085
    Y1373     G1373      -566
    Y1374     COST       23108
    Y1374     G1374      -698
    Y1375     COST       19781
    Y1375     G1375      -286
    Y1376     COST       25084
    Y1376     G1376      -5
    Y1377     COST       12149
    Y1377     G1377      -1326
    Y1378     COST       8239
    Y1378     G1378      -31
    Y1379     COST       21198
    Y1379     G1379      -250
    Y1380     COST       14949
    Y1380     G1380      -152
    Y1381     COST       13361
    Y1381     G1381      -1443
    Y1382     COST       10058
    Y1382     G1382      -38
    Y1383     COST       13144
    Y1383     G1383      -6
    Y1384     COST       10793
    Y1384     G1384      -309
    Y1385     COST       14882
    Y1385     G1385      -109
    Y1386     COST       17272
    Y1386     G1386      -351
    Y1387     COST       8254
    Y1387     G1387      -432
    Y1388     COST       12643
    Y1388     G1388      -147
    Y1389     COST       19364
    Y1389     G1389      -344
    Y1390     COST       6876
    Y1390     G1390      -1245
    Y1391     COST       21593
    Y1391     G1391      -502
    Y1392     COST       15704
    Y1392     G1392      -806
    Y1393     COST       14376
    Y1393     G1393      -367
    Y1394     COST       12631
    Y1394     G1394      -130
    Y1395     COST       18663
    Y1395     G1395      -522
    Y1396     COST       18937
    Y1396     G1396      -258
    Y1397     COST       24692
    Y1397     G1397      -16
    Y1398     COST       18899
    Y1398     G1398      -205
    Y1399     COST       15386
    Y1399     G1399      -1353
    Y1400     COST       17919
    Y1400     G1400      -43
    Y1401     COST       13526
    Y1401     G1401      -402
    Y1402     COST       22670
    Y1402     G1402      -176
    Y1403     COST       10682
    Y1403     G1403      -526
    Y1404     COST       11301
    Y1404     G1404      -93
    Y1405     COST       20689
    Y1405     G1405      -91
    Y1406     COST       23523
    Y1406     G1406      -1179
    Y1407     COST       14965
    Y1407     G1407      -123
    Y1408     COST       19296
    Y1408     G1408      -435
    Y1409     COST       23537
    Y1409     G1409      -461
    Y1410     COST       21282
    Y1410     G1410      -159
    Y1411     COST       21505
    Y1411     G1411      -509
    Y1412     COST       18401
    Y1412     G1412      -218
    Y1413     COST       6449
    Y1413     G1413      -154
    Y1414     COST       10265
    Y1414     G1414      -516
    Y1415     COST       24284
    Y1415     G1415      -152
    Y1416     COST       7713
    Y1416     G1416      -580
    Y1417     COST       20824
    Y1417     G1417      -1171
    Y1418     COST       11336
    Y1418     G1418      -66
    Y1419     COST       14329
    Y1419     G1419      -796
    Y1420     COST       17786
    Y1420     G1420      -159
    Y1421     COST       21484
    Y1421     G1421      -86
    Y1422     COST       7257
    Y1422     G1422      -235
    Y1423     COST       9505
    Y1423     G1423      -737
    Y1424     COST       24752
    Y1424     G1424      -1179
    Y1425     COST       6834
    Y1425     G1425      -1179
    Y1426     COST       24016
    Y1426     G1426      -274
    Y1427     COST       14202
    Y1427     G1427      -1179
    Y1428     COST       13276
    Y1428     G1428      -364
    Y1429     COST       21003
    Y1429     G1429      -1061
    Y1430     COST       11606
    Y1430     G1430      -325
    Y1431     COST       12360
    Y1431     G1431      -283
    Y1432     COST       10603
    Y1432     G1432      -108
    Y1433     COST       20785
    Y1433     G1433      -128
    Y1434     COST       9475
    Y1434     G1434      -20
    Y1435     COST       7518
    Y1435     G1435      -1179
    Y1436     COST       9540
    Y1436     G1436      -499
    Y1437     COST       20962
    Y1437     G1437      -1179
    Y1438     COST       11239
    Y1438     G1438      -324
    Y1439     COST       22456
    Y1439     G1439      -111
    Y1440     COST       20952
    Y1440     G1440      -123
    Y1441     COST       13265
    Y1441     G1441      -152
    Y1442     COST       14262
    Y1442     G1442      -441
    Y1443     COST       25546
    Y1443     G1443      -240
    Y1444     COST       18193
    Y1444     G1444      -509
    Y1445     COST       23983
    Y1445     G1445      -33
    Y1446     COST       22246
    Y1446     G1446      -24
    Y1447     COST       25245
    Y1447     G1447      -1179
    Y1448     COST       8316
    Y1448     G1448      -401
    Y1449     COST       24431
    Y1449     G1449      -136
    Y1450     COST       6610
    Y1450     G1450      -467
    Y1451     COST       10369
    Y1451     G1451      -807
    Y1452     COST       24118
    Y1452     G1452      -737
    Y1453     COST       19006
    Y1453     G1453      -1179
    Y1454     COST       19018
    Y1454     G1454      -196
    Y1455     COST       10370
    Y1455     G1455      -643
    Y1456     COST       8868
    Y1456     G1456      -1179
    Y1457     COST       21101
    Y1457     G1457      -248
    Y1458     COST       22015
    Y1458     G1458      -1179
    Y1459     COST       18080
    Y1459     G1459      -535
    Y1460     COST       23429
    Y1460     G1460      -94
    Y1461     COST       21107
    Y1461     G1461      -1126
    Y1462     COST       17323
    Y1462     G1462      -263
    Y1463     COST       20885
    Y1463     G1463      -185
    Y1464     COST       20824
    Y1464     G1464      -581
    Y1465     COST       18968
    Y1465     G1465      -256
    Y1466     COST       14836
    Y1466     G1466      -238
    Y1467     COST       18062
    Y1467     G1467      -25
    Y1468     COST       20931
    Y1468     G1468      -506
    Y1469     COST       8823
    Y1469     G1469      -560
    Y1470     COST       10881
    Y1470     G1470      -296
    Y1471     COST       18058
    Y1471     G1471      -95
    Y1472     COST       22426
    Y1472     G1472      -1179
    Y1473     COST       17307
    Y1473     G1473      -566
    Y1474     COST       25047
    Y1474     G1474      -698
    Y1475     COST       23496
    Y1475     G1475      -286
    Y1476     COST       20235
    Y1476     G1476      -5
    Y1477     COST       22076
    Y1477     G1477      -1179
    Y1478     COST       14024
    Y1478     G1478      -31
    Y1479     COST       20074
    Y1479     G1479      -250
    Y1480     COST       15137
    Y1480     G1480      -152
    Y1481     COST       14769
    Y1481     G1481      -1179
    Y1482     COST       11789
    Y1482     G1482      -38
    Y1483     COST       17224
    Y1483     G1483      -6
    Y1484     COST       15692
    Y1484     G1484      -309
    Y1485     COST       24885
    Y1485     G1485      -109
    Y1486     COST       17953
    Y1486     G1486      -351
    Y1487     COST       21226
    Y1487     G1487      -432
    Y1488     COST       18850
    Y1488     G1488      -147
    Y1489     COST       23837
    Y1489     G1489      -344
    Y1490     COST       9644
    Y1490     G1490      -1179
    Y1491     COST       15655
    Y1491     G1491      -502
    Y1492     COST       23773
    Y1492     G1492      -806
    Y1493     COST       17106
    Y1493     G1493      -367
    Y1494     COST       21973
    Y1494     G1494      -130
    Y1495     COST       14373
    Y1495     G1495      -522
    Y1496     COST       20618
    Y1496     G1496      -258
    Y1497     COST       8584
    Y1497     G1497      -16
    Y1498     COST       18673
    Y1498     G1498      -205
    Y1499     COST       8117
    Y1499     G1499      -1179
    Y1500     COST       24087
    Y1500     G1500      -43
    Y1501     COST       19599
    Y1501     G1501      -402
    Y1502     COST       23559
    Y1502     G1502      -176
    Y1503     COST       12057
    Y1503     G1503      -402
    Y1504     COST       14976
    Y1504     G1504      -93
    Y1505     COST       18443
    Y1505     G1505      -91
    Y1506     COST       9778
    Y1506     G1506      -402
    Y1507     COST       9432
    Y1507     G1507      -123
    Y1508     COST       20493
    Y1508     G1508      -402
    Y1509     COST       20722
    Y1509     G1509      -402
    Y1510     COST       17048
    Y1510     G1510      -159
    Y1511     COST       23298
    Y1511     G1511      -402
    Y1512     COST       18112
    Y1512     G1512      -218
    Y1513     COST       11343
    Y1513     G1513      -154
    Y1514     COST       18404
    Y1514     G1514      -402
    Y1515     COST       18105
    Y1515     G1515      -152
    Y1516     COST       19703
    Y1516     G1516      -402
    Y1517     COST       13169
    Y1517     G1517      -402
    Y1518     COST       16661
    Y1518     G1518      -66
    Y1519     COST       16997
    Y1519     G1519      -402
    Y1520     COST       15039
    Y1520     G1520      -159
    Y1521     COST       16245
    Y1521     G1521      -86
    Y1522     COST       15267
    Y1522     G1522      -235
    Y1523     COST       21478
    Y1523     G1523      -402
    Y1524     COST       19520
    Y1524     G1524      -402
    Y1525     COST       20991
    Y1525     G1525      -402
    Y1526     COST       18760
    Y1526     G1526      -274
    Y1527     COST       11585
    Y1527     G1527      -402
    Y1528     COST       11965
    Y1528     G1528      -364
    Y1529     COST       20405
    Y1529     G1529      -402
    Y1530     COST       8755
    Y1530     G1530      -325
    Y1531     COST       6708
    Y1531     G1531      -283
    Y1532     COST       17791
    Y1532     G1532      -108
    Y1533     COST       22284
    Y1533     G1533      -128
    Y1534     COST       15500
    Y1534     G1534      -20
    Y1535     COST       15276
    Y1535     G1535      -402
    Y1536     COST       19652
    Y1536     G1536      -402
    Y1537     COST       16254
    Y1537     G1537      -402
    Y1538     COST       6517
    Y1538     G1538      -324
    Y1539     COST       6542
    Y1539     G1539      -111
    Y1540     COST       16481
    Y1540     G1540      -123
    Y1541     COST       25462
    Y1541     G1541      -152
    Y1542     COST       12017
    Y1542     G1542      -402
    Y1543     COST       8789
    Y1543     G1543      -240
    Y1544     COST       6529
    Y1544     G1544      -402
    Y1545     COST       15999
    Y1545     G1545      -33
    Y1546     COST       12395
    Y1546     G1546      -24
    Y1547     COST       18702
    Y1547     G1547      -402
    Y1548     COST       20065
    Y1548     G1548      -401
    Y1549     COST       9930
    Y1549     G1549      -136
    Y1550     COST       23909
    Y1550     G1550      -402
    Y1551     COST       24509
    Y1551     G1551      -402
    Y1552     COST       21696
    Y1552     G1552      -402
    Y1553     COST       12591
    Y1553     G1553      -402
    Y1554     COST       10351
    Y1554     G1554      -196
    Y1555     COST       8556
    Y1555     G1555      -402
    Y1556     COST       11022
    Y1556     G1556      -402
    Y1557     COST       19003
    Y1557     G1557      -248
    Y1558     COST       11480
    Y1558     G1558      -402
    Y1559     COST       20848
    Y1559     G1559      -402
    Y1560     COST       11693
    Y1560     G1560      -94
    Y1561     COST       22404
    Y1561     G1561      -402
    Y1562     COST       13041
    Y1562     G1562      -263
    Y1563     COST       23884
    Y1563     G1563      -185
    Y1564     COST       12605
    Y1564     G1564      -402
    Y1565     COST       23708
    Y1565     G1565      -256
    Y1566     COST       15218
    Y1566     G1566      -238
    Y1567     COST       8824
    Y1567     G1567      -25
    Y1568     COST       18070
    Y1568     G1568      -402
    Y1569     COST       9191
    Y1569     G1569      -402
    Y1570     COST       19235
    Y1570     G1570      -296
    Y1571     COST       19436
    Y1571     G1571      -95
    Y1572     COST       24144
    Y1572     G1572      -402
    Y1573     COST       14926
    Y1573     G1573      -402
    Y1574     COST       13687
    Y1574     G1574      -402
    Y1575     COST       6953
    Y1575     G1575      -286
    Y1576     COST       21157
    Y1576     G1576      -5
    Y1577     COST       8345
    Y1577     G1577      -402
    Y1578     COST       23068
    Y1578     G1578      -31
    Y1579     COST       20906
    Y1579     G1579      -250
    Y1580     COST       15923
    Y1580     G1580      -152
    Y1581     COST       19320
    Y1581     G1581      -402
    Y1582     COST       11777
    Y1582     G1582      -38
    Y1583     COST       24625
    Y1583     G1583      -6
    Y1584     COST       15166
    Y1584     G1584      -309
    Y1585     COST       22333
    Y1585     G1585      -109
    Y1586     COST       21211
    Y1586     G1586      -351
    Y1587     COST       8920
    Y1587     G1587      -402
    Y1588     COST       14356
    Y1588     G1588      -147
    Y1589     COST       23745
    Y1589     G1589      -344
    Y1590     COST       11364
    Y1590     G1590      -402
    Y1591     COST       9875
    Y1591     G1591      -402
    Y1592     COST       16358
    Y1592     G1592      -402
    Y1593     COST       18691
    Y1593     G1593      -367
    Y1594     COST       9887
    Y1594     G1594      -130
    Y1595     COST       22120
    Y1595     G1595      -402
    Y1596     COST       15622
    Y1596     G1596      -258
    Y1597     COST       20866
    Y1597     G1597      -16
    Y1598     COST       17343
    Y1598     G1598      -205
    Y1599     COST       22888
    Y1599     G1599      -402
    Y1600     COST       16615
    Y1600     G1600      -43
    Y1601     COST       10913
    Y1601     G1601      -402
    Y1602     COST       11530
    Y1602     G1602      -176
    Y1603     COST       9779
    Y1603     G1603      -526
    Y1604     COST       14518
    Y1604     G1604      -93
    Y1605     COST       24314
    Y1605     G1605      -91
    Y1606     COST       16656
    Y1606     G1606      -675
    Y1607     COST       15781
    Y1607     G1607      -123
    Y1608     COST       10249
    Y1608     G1608      -435
    Y1609     COST       16591
    Y1609     G1609      -461
    Y1610     COST       17442
    Y1610     G1610      -159
    Y1611     COST       17433
    Y1611     G1611      -509
    Y1612     COST       11288
    Y1612     G1612      -218
    Y1613     COST       21502
    Y1613     G1613      -154
    Y1614     COST       22987
    Y1614     G1614      -516
    Y1615     COST       16607
    Y1615     G1615      -152
    Y1616     COST       19911
    Y1616     G1616      -580
    Y1617     COST       17451
    Y1617     G1617      -675
    Y1618     COST       21705
    Y1618     G1618      -66
    Y1619     COST       8707
    Y1619     G1619      -675
    Y1620     COST       7963
    Y1620     G1620      -159
    Y1621     COST       8488
    Y1621     G1621      -86
    Y1622     COST       15002
    Y1622     G1622      -235
    Y1623     COST       7619
    Y1623     G1623      -675
    Y1624     COST       10187
    Y1624     G1624      -675
    Y1625     COST       8707
    Y1625     G1625      -675
    Y1626     COST       20662
    Y1626     G1626      -274
    Y1627     COST       22271
    Y1627     G1627      -675
    Y1628     COST       17792
    Y1628     G1628      -364
    Y1629     COST       24770
    Y1629     G1629      -675
    Y1630     COST       17391
    Y1630     G1630      -325
    Y1631     COST       20402
    Y1631     G1631      -283
    Y1632     COST       9032
    Y1632     G1632      -108
    Y1633     COST       20393
    Y1633     G1633      -128
    Y1634     COST       17848
    Y1634     G1634      -20
    Y1635     COST       14246
    Y1635     G1635      -675
    Y1636     COST       19995
    Y1636     G1636      -499
    Y1637     COST       19620
    Y1637     G1637      -675
    Y1638     COST       25452
    Y1638     G1638      -324
    Y1639     COST       21847
    Y1639     G1639      -111
    Y1640     COST       15071
    Y1640     G1640      -123
    Y1641     COST       19601
    Y1641     G1641      -152
    Y1642     COST       7511
    Y1642     G1642      -441
    Y1643     COST       10573
    Y1643     G1643      -240
    Y1644     COST       9742
    Y1644     G1644      -509
    Y1645     COST       9517
    Y1645     G1645      -33
    Y1646     COST       7654
    Y1646     G1646      -24
    Y1647     COST       23603
    Y1647     G1647      -675
    Y1648     COST       23146
    Y1648     G1648      -401
    Y1649     COST       12532
    Y1649     G1649      -136
    Y1650     COST       9230
    Y1650     G1650      -467
    Y1651     COST       12173
    Y1651     G1651      -675
    Y1652     COST       9588
    Y1652     G1652      -675
    Y1653     COST       18261
    Y1653     G1653      -675
    Y1654     COST       22781
    Y1654     G1654      -196
    Y1655     COST       9823
    Y1655     G1655      -643
    Y1656     COST       20501
    Y1656     G1656      -675
    Y1657     COST       21627
    Y1657     G1657      -248
    Y1658     COST       19029
    Y1658     G1658      -675
    Y1659     COST       23756
    Y1659     G1659      -535
    Y1660     COST       21918
    Y1660     G1660      -94
    Y1661     COST       24585
    Y1661     G1661      -675
    Y1662     COST       22806
    Y1662     G1662      -263
    Y1663     COST       13429
    Y1663     G1663      -185
    Y1664     COST       14451
    Y1664     G1664      -581
    Y1665     COST       7449
    Y1665     G1665      -256
    Y1666     COST       21467
    Y1666     G1666      -238
    Y1667     COST       19071
    Y1667     G1667      -25
    Y1668     COST       15177
    Y1668     G1668      -506
    Y1669     COST       10821
    Y1669     G1669      -560
    Y1670     COST       14031
    Y1670     G1670      -296
    Y1671     COST       10824
    Y1671     G1671      -95
    Y1672     COST       13909
    Y1672     G1672      -675
    Y1673     COST       16769
    Y1673     G1673      -566
    Y1674     COST       20122
    Y1674     G1674      -675
    Y1675     COST       14393
    Y1675     G1675      -286
    Y1676     COST       20231
    Y1676     G1676      -5
    Y1677     COST       12687
    Y1677     G1677      -675
    Y1678     COST       17615
    Y1678     G1678      -31
    Y1679     COST       23082
    Y1679     G1679      -250
    Y1680     COST       11472
    Y1680     G1680      -152
    Y1681     COST       21201
    Y1681     G1681      -675
    Y1682     COST       25097
    Y1682     G1682      -38
    Y1683     COST       8251
    Y1683     G1683      -6
    Y1684     COST       21606
    Y1684     G1684      -309
    Y1685     COST       24669
    Y1685     G1685      -109
    Y1686     COST       10040
    Y1686     G1686      -351
    Y1687     COST       13601
    Y1687     G1687      -432
    Y1688     COST       20199
    Y1688     G1688      -147
    Y1689     COST       20261
    Y1689     G1689      -344
    Y1690     COST       24903
    Y1690     G1690      -675
    Y1691     COST       19120
    Y1691     G1691      -502
    Y1692     COST       19121
    Y1692     G1692      -675
    Y1693     COST       24923
    Y1693     G1693      -367
    Y1694     COST       14389
    Y1694     G1694      -130
    Y1695     COST       11829
    Y1695     G1695      -522
    Y1696     COST       17614
    Y1696     G1696      -258
    Y1697     COST       11828
    Y1697     G1697      -16
    Y1698     COST       20862
    Y1698     G1698      -205
    Y1699     COST       23276
    Y1699     G1699      -675
    Y1700     COST       10464
    Y1700     G1700      -43
    Y1701     COST       8448
    Y1701     G1701      -402
    Y1702     COST       22584
    Y1702     G1702      -176
    Y1703     COST       7909
    Y1703     G1703      -526
    Y1704     COST       17696
    Y1704     G1704      -93
    Y1705     COST       16642
    Y1705     G1705      -91
    Y1706     COST       22644
    Y1706     G1706      -1200
    Y1707     COST       12094
    Y1707     G1707      -123
    Y1708     COST       21510
    Y1708     G1708      -435
    Y1709     COST       24803
    Y1709     G1709      -461
    Y1710     COST       22560
    Y1710     G1710      -159
    Y1711     COST       16161
    Y1711     G1711      -509
    Y1712     COST       24269
    Y1712     G1712      -218
    Y1713     COST       12812
    Y1713     G1713      -154
    Y1714     COST       19558
    Y1714     G1714      -516
    Y1715     COST       20668
    Y1715     G1715      -152
    Y1716     COST       6843
    Y1716     G1716      -580
    Y1717     COST       13189
    Y1717     G1717      -1171
    Y1718     COST       22953
    Y1718     G1718      -66
    Y1719     COST       24250
    Y1719     G1719      -796
    Y1720     COST       11319
    Y1720     G1720      -159
    Y1721     COST       10517
    Y1721     G1721      -86
    Y1722     COST       14553
    Y1722     G1722      -235
    Y1723     COST       22944
    Y1723     G1723      -737
    Y1724     COST       25248
    Y1724     G1724      -2217
    Y1725     COST       20122
    Y1725     G1725      -1261
    Y1726     COST       7736
    Y1726     G1726      -274
    Y1727     COST       16511
    Y1727     G1727      -1181
    Y1728     COST       12720
    Y1728     G1728      -364
    Y1729     COST       20122
    Y1729     G1729      -1061
    Y1730     COST       18756
    Y1730     G1730      -325
    Y1731     COST       15743
    Y1731     G1731      -283
    Y1732     COST       10250
    Y1732     G1732      -108
    Y1733     COST       16481
    Y1733     G1733      -128
    Y1734     COST       16939
    Y1734     G1734      -20
    Y1735     COST       23256
    Y1735     G1735      -1461
    Y1736     COST       16707
    Y1736     G1736      -499
    Y1737     COST       8352
    Y1737     G1737      -1211
    Y1738     COST       14238
    Y1738     G1738      -324
    Y1739     COST       7644
    Y1739     G1739      -111
    Y1740     COST       12768
    Y1740     G1740      -123
    Y1741     COST       20966
    Y1741     G1741      -152
    Y1742     COST       24335
    Y1742     G1742      -441
    Y1743     COST       6750
    Y1743     G1743      -240
    Y1744     COST       14494
    Y1744     G1744      -509
    Y1745     COST       10563
    Y1745     G1745      -33
    Y1746     COST       16944
    Y1746     G1746      -24
    Y1747     COST       12383
    Y1747     G1747      -1392
    Y1748     COST       19613
    Y1748     G1748      -401
    Y1749     COST       23897
    Y1749     G1749      -136
    Y1750     COST       18177
    Y1750     G1750      -467
    Y1751     COST       19855
    Y1751     G1751      -807
    Y1752     COST       21646
    Y1752     G1752      -737
    Y1753     COST       23904
    Y1753     G1753      -1467
    Y1754     COST       20906
    Y1754     G1754      -196
    Y1755     COST       19392
    Y1755     G1755      -643
    Y1756     COST       17449
    Y1756     G1756      -1867
    Y1757     COST       16013
    Y1757     G1757      -248
    Y1758     COST       13739
    Y1758     G1758      -1620
    Y1759     COST       19858
    Y1759     G1759      -535
    Y1760     COST       18954
    Y1760     G1760      -94
    Y1761     COST       11948
    Y1761     G1761      -1126
    Y1762     COST       23661
    Y1762     G1762      -263
    Y1763     COST       19397
    Y1763     G1763      -185
    Y1764     COST       22018
    Y1764     G1764      -581
    Y1765     COST       8347
    Y1765     G1765      -256
    Y1766     COST       10300
    Y1766     G1766      -238
    Y1767     COST       13969
    Y1767     G1767      -25
    Y1768     COST       20554
    Y1768     G1768      -506
    Y1769     COST       17311
    Y1769     G1769      -560
    Y1770     COST       8816
    Y1770     G1770      -296
    Y1771     COST       11655
    Y1771     G1771      -95
    Y1772     COST       23691
    Y1772     G1772      -1924
    Y1773     COST       21901
    Y1773     G1773      -566
    Y1774     COST       10850
    Y1774     G1774      -698
    Y1775     COST       22418
    Y1775     G1775      -286
    Y1776     COST       20571
    Y1776     G1776      -5
    Y1777     COST       19441
    Y1777     G1777      -1326
    Y1778     COST       8634
    Y1778     G1778      -31
    Y1779     COST       24185
    Y1779     G1779      -250
    Y1780     COST       13901
    Y1780     G1780      -152
    Y1781     COST       22826
    Y1781     G1781      -1443
    Y1782     COST       11772
    Y1782     G1782      -38
    Y1783     COST       17580
    Y1783     G1783      -6
    Y1784     COST       10810
    Y1784     G1784      -309
    Y1785     COST       16316
    Y1785     G1785      -109
    Y1786     COST       20871
    Y1786     G1786      -351
    Y1787     COST       13670
    Y1787     G1787      -432
    Y1788     COST       17645
    Y1788     G1788      -147
    Y1789     COST       8243
    Y1789     G1789      -344
    Y1790     COST       18913
    Y1790     G1790      -1245
    Y1791     COST       10408
    Y1791     G1791      -502
    Y1792     COST       24238
    Y1792     G1792      -806
    Y1793     COST       13999
    Y1793     G1793      -367
    Y1794     COST       24228
    Y1794     G1794      -130
    Y1795     COST       20873
    Y1795     G1795      -522
    Y1796     COST       22369
    Y1796     G1796      -258
    Y1797     COST       7082
    Y1797     G1797      -16
    Y1798     COST       19354
    Y1798     G1798      -205
    Y1799     COST       22320
    Y1799     G1799      -1353
    Y1800     COST       23572
    Y1800     G1800      -43
    Y1801     COST       19948
    Y1801     G1801      -402
    Y1802     COST       25582
    Y1802     G1802      -176
    Y1803     COST       12432
    Y1803     G1803      -526
    Y1804     COST       14524
    Y1804     G1804      -93
    Y1805     COST       25210
    Y1805     G1805      -91
    Y1806     COST       21294
    Y1806     G1806      -1200
    Y1807     COST       23330
    Y1807     G1807      -123
    Y1808     COST       21323
    Y1808     G1808      -435
    Y1809     COST       14285
    Y1809     G1809      -461
    Y1810     COST       13553
    Y1810     G1810      -159
    Y1811     COST       17724
    Y1811     G1811      -509
    Y1812     COST       17033
    Y1812     G1812      -218
    Y1813     COST       18147
    Y1813     G1813      -154
    Y1814     COST       19677
    Y1814     G1814      -516
    Y1815     COST       17892
    Y1815     G1815      -152
    Y1816     COST       13589
    Y1816     G1816      -580
    Y1817     COST       23283
    Y1817     G1817      -1171
    Y1818     COST       15843
    Y1818     G1818      -66
    Y1819     COST       21271
    Y1819     G1819      -796
    Y1820     COST       21283
    Y1820     G1820      -159
    Y1821     COST       23279
    Y1821     G1821      -86
    Y1822     COST       24060
    Y1822     G1822      -235
    Y1823     COST       24790
    Y1823     G1823      -737
    Y1824     COST       19663
    Y1824     G1824      -1599
    Y1825     COST       21475
    Y1825     G1825      -1261
    Y1826     COST       7994
    Y1826     G1826      -274
    Y1827     COST       11002
    Y1827     G1827      -1181
    Y1828     COST       12353
    Y1828     G1828      -364
    Y1829     COST       16518
    Y1829     G1829      -1061
    Y1830     COST       11975
    Y1830     G1830      -325
    Y1831     COST       11955
    Y1831     G1831      -283
    Y1832     COST       17389
    Y1832     G1832      -108
    Y1833     COST       22961
    Y1833     G1833      -128
    Y1834     COST       22533
    Y1834     G1834      -20
    Y1835     COST       10728
    Y1835     G1835      -1461
    Y1836     COST       19623
    Y1836     G1836      -499
    Y1837     COST       6504
    Y1837     G1837      -1211
    Y1838     COST       13399
    Y1838     G1838      -324
    Y1839     COST       24532
    Y1839     G1839      -111
    Y1840     COST       11988
    Y1840     G1840      -123
    Y1841     COST       22912
    Y1841     G1841      -152
    Y1842     COST       9252
    Y1842     G1842      -441
    Y1843     COST       16465
    Y1843     G1843      -240
    Y1844     COST       17513
    Y1844     G1844      -509
    Y1845     COST       11014
    Y1845     G1845      -33
    Y1846     COST       14629
    Y1846     G1846      -24
    Y1847     COST       7644
    Y1847     G1847      -1392
    Y1848     COST       13285
    Y1848     G1848      -401
    Y1849     COST       11023
    Y1849     G1849      -136
    Y1850     COST       11101
    Y1850     G1850      -467
    Y1851     COST       12008
    Y1851     G1851      -807
    Y1852     COST       20293
    Y1852     G1852      -737
    Y1853     COST       13956
    Y1853     G1853      -1467
    Y1854     COST       24574
    Y1854     G1854      -196
    Y1855     COST       20224
    Y1855     G1855      -643
    Y1856     COST       7034
    Y1856     G1856      -1599
    Y1857     COST       13046
    Y1857     G1857      -248
    Y1858     COST       16775
    Y1858     G1858      -1599
    Y1859     COST       16020
    Y1859     G1859      -535
    Y1860     COST       25379
    Y1860     G1860      -94
    Y1861     COST       8111
    Y1861     G1861      -1126
    Y1862     COST       22767
    Y1862     G1862      -263
    Y1863     COST       17154
    Y1863     G1863      -185
    Y1864     COST       20949
    Y1864     G1864      -581
    Y1865     COST       11066
    Y1865     G1865      -256
    Y1866     COST       21689
    Y1866     G1866      -238
    Y1867     COST       19428
    Y1867     G1867      -25
    Y1868     COST       19859
    Y1868     G1868      -506
    Y1869     COST       21913
    Y1869     G1869      -560
    Y1870     COST       24194
    Y1870     G1870      -296
    Y1871     COST       20229
    Y1871     G1871      -95
    Y1872     COST       12995
    Y1872     G1872      -1599
    Y1873     COST       7400
    Y1873     G1873      -566
    Y1874     COST       7851
    Y1874     G1874      -698
    Y1875     COST       23922
    Y1875     G1875      -286
    Y1876     COST       10444
    Y1876     G1876      -5
    Y1877     COST       23051
    Y1877     G1877      -1326
    Y1878     COST       8270
    Y1878     G1878      -31
    Y1879     COST       17232
    Y1879     G1879      -250
    Y1880     COST       16325
    Y1880     G1880      -152
    Y1881     COST       11175
    Y1881     G1881      -1443
    Y1882     COST       8948
    Y1882     G1882      -38
    Y1883     COST       13637
    Y1883     G1883      -6
    Y1884     COST       18863
    Y1884     G1884      -309
    Y1885     COST       8169
    Y1885     G1885      -109
    Y1886     COST       7129
    Y1886     G1886      -351
    Y1887     COST       18876
    Y1887     G1887      -432
    Y1888     COST       22843
    Y1888     G1888      -147
    Y1889     COST       23083
    Y1889     G1889      -344
    Y1890     COST       7356
    Y1890     G1890      -1245
    Y1891     COST       10795
    Y1891     G1891      -502
    Y1892     COST       19346
    Y1892     G1892      -806
    Y1893     COST       8599
    Y1893     G1893      -367
    Y1894     COST       18672
    Y1894     G1894      -130
    Y1895     COST       7328
    Y1895     G1895      -522
    Y1896     COST       8146
    Y1896     G1896      -258
    Y1897     COST       18887
    Y1897     G1897      -16
    Y1898     COST       10391
    Y1898     G1898      -205
    Y1899     COST       8370
    Y1899     G1899      -1353
    Y1900     COST       11523
    Y1900     G1900      -43
    Y1901     COST       16291
    Y1901     G1901      -402
    Y1902     COST       24463
    Y1902     G1902      -176
    Y1903     COST       7914
    Y1903     G1903      -526
    Y1904     COST       9331
    Y1904     G1904      -93
    Y1905     COST       12404
    Y1905     G1905      -91
    Y1906     COST       15462
    Y1906     G1906      -576
    Y1907     COST       13532
    Y1907     G1907      -123
    Y1908     COST       9409
    Y1908     G1908      -435
    Y1909     COST       19554
    Y1909     G1909      -461
    Y1910     COST       9345
    Y1910     G1910      -159
    Y1911     COST       22526
    Y1911     G1911      -509
    Y1912     COST       10280
    Y1912     G1912      -218
    Y1913     COST       15457
    Y1913     G1913      -154
    Y1914     COST       22629
    Y1914     G1914      -516
    Y1915     COST       13584
    Y1915     G1915      -152
    Y1916     COST       20436
    Y1916     G1916      -576
    Y1917     COST       12079
    Y1917     G1917      -576
    Y1918     COST       20447
    Y1918     G1918      -66
    Y1919     COST       16558
    Y1919     G1919      -576
    Y1920     COST       22987
    Y1920     G1920      -159
    Y1921     COST       7956
    Y1921     G1921      -86
    Y1922     COST       24026
    Y1922     G1922      -235
    Y1923     COST       16172
    Y1923     G1923      -576
    Y1924     COST       14183
    Y1924     G1924      -576
    Y1925     COST       15037
    Y1925     G1925      -576
    Y1926     COST       16291
    Y1926     G1926      -274
    Y1927     COST       9284
    Y1927     G1927      -576
    Y1928     COST       9062
    Y1928     G1928      -364
    Y1929     COST       24513
    Y1929     G1929      -576
    Y1930     COST       9497
    Y1930     G1930      -325
    Y1931     COST       12481
    Y1931     G1931      -283
    Y1932     COST       22489
    Y1932     G1932      -108
    Y1933     COST       18233
    Y1933     G1933      -128
    Y1934     COST       10999
    Y1934     G1934      -20
    Y1935     COST       22680
    Y1935     G1935      -576
    Y1936     COST       17747
    Y1936     G1936      -499
    Y1937     COST       16935
    Y1937     G1937      -576
    Y1938     COST       19392
    Y1938     G1938      -324
    Y1939     COST       24482
    Y1939     G1939      -111
    Y1940     COST       15750
    Y1940     G1940      -123
    Y1941     COST       22680
    Y1941     G1941      -152
    Y1942     COST       13268
    Y1942     G1942      -441
    Y1943     COST       19236
    Y1943     G1943      -240
    Y1944     COST       11246
    Y1944     G1944      -509
    Y1945     COST       17352
    Y1945     G1945      -33
    Y1946     COST       24443
    Y1946     G1946      -24
    Y1947     COST       10577
    Y1947     G1947      -576
    Y1948     COST       25259
    Y1948     G1948      -401
    Y1949     COST       13817
    Y1949     G1949      -136
    Y1950     COST       22036
    Y1950     G1950      -467
    Y1951     COST       19834
    Y1951     G1951      -576
    Y1952     COST       9521
    Y1952     G1952      -576
    Y1953     COST       8022
    Y1953     G1953      -576
    Y1954     COST       17511
    Y1954     G1954      -196
    Y1955     COST       23678
    Y1955     G1955      -576
    Y1956     COST       14703
    Y1956     G1956      -576
    Y1957     COST       13729
    Y1957     G1957      -248
    Y1958     COST       12151
    Y1958     G1958      -576
    Y1959     COST       20516
    Y1959     G1959      -535
    Y1960     COST       14704
    Y1960     G1960      -94
    Y1961     COST       20082
    Y1961     G1961      -576
    Y1962     COST       12958
    Y1962     G1962      -263
    Y1963     COST       12582
    Y1963     G1963      -185
    Y1964     COST       21673
    Y1964     G1964      -576
    Y1965     COST       14650
    Y1965     G1965      -256
    Y1966     COST       14650
    Y1966     G1966      -238
    Y1967     COST       22047
    Y1967     G1967      -25
    Y1968     COST       13386
    Y1968     G1968      -506
    Y1969     COST       20097
    Y1969     G1969      -560
    Y1970     COST       17336
    Y1970     G1970      -296
    Y1971     COST       18088
    Y1971     G1971      -95
    Y1972     COST       20224
    Y1972     G1972      -576
    Y1973     COST       13005
    Y1973     G1973      -566
    Y1974     COST       21688
    Y1974     G1974      -576
    Y1975     COST       22314
    Y1975     G1975      -286
    Y1976     COST       14922
    Y1976     G1976      -5
    Y1977     COST       21952
    Y1977     G1977      -576
    Y1978     COST       24207
    Y1978     G1978      -31
    Y1979     COST       9165
    Y1979     G1979      -250
    Y1980     COST       14912
    Y1980     G1980      -152
    Y1981     COST       19305
    Y1981     G1981      -576
    Y1982     COST       16316
    Y1982     G1982      -38
    Y1983     COST       10120
    Y1983     G1983      -6
    Y1984     COST       17121
    Y1984     G1984      -309
    Y1985     COST       7781
    Y1985     G1985      -109
    Y1986     COST       12635
    Y1986     G1986      -351
    Y1987     COST       21970
    Y1987     G1987      -432
    Y1988     COST       22356
    Y1988     G1988      -147
    Y1989     COST       9902
    Y1989     G1989      -344
    Y1990     COST       24898
    Y1990     G1990      -576
    Y1991     COST       24901
    Y1991     G1991      -502
    Y1992     COST       11729
    Y1992     G1992      -576
    Y1993     COST       21594
    Y1993     G1993      -367
    Y1994     COST       12659
    Y1994     G1994      -130
    Y1995     COST       13995
    Y1995     G1995      -522
    Y1996     COST       25362
    Y1996     G1996      -258
    Y1997     COST       23856
    Y1997     G1997      -16
    Y1998     COST       16350
    Y1998     G1998      -205
    Y1999     COST       14893
    Y1999     G1999      -576
    Y2000     COST       10242
    Y2000     G2000      -43
    Y2001     COST       12793
    Y2001     G2001      -402
    Y2002     COST       12796
    Y2002     G2002      -176
    Y2003     COST       22531
    Y2003     G2003      -526
    Y2004     COST       11311
    Y2004     G2004      -93
    Y2005     COST       7549
    Y2005     G2005      -91
    Y2006     COST       25200
    Y2006     G2006      -790
    Y2007     COST       21526
    Y2007     G2007      -123
    Y2008     COST       9350
    Y2008     G2008      -435
    Y2009     COST       16583
    Y2009     G2009      -461
    Y2010     COST       7723
    Y2010     G2010      -159
    Y2011     COST       13899
    Y2011     G2011      -509
    Y2012     COST       16606
    Y2012     G2012      -218
    Y2013     COST       24803
    Y2013     G2013      -154
    Y2014     COST       15451
    Y2014     G2014      -516
    Y2015     COST       18409
    Y2015     G2015      -152
    Y2016     COST       20687
    Y2016     G2016      -580
    Y2017     COST       9060
    Y2017     G2017      -790
    Y2018     COST       16744
    Y2018     G2018      -66
    Y2019     COST       16521
    Y2019     G2019      -790
    Y2020     COST       17446
    Y2020     G2020      -159
    Y2021     COST       16511
    Y2021     G2021      -86
    Y2022     COST       21377
    Y2022     G2022      -235
    Y2023     COST       21286
    Y2023     G2023      -737
    Y2024     COST       22270
    Y2024     G2024      -790
    Y2025     COST       18216
    Y2025     G2025      -790
    Y2026     COST       10983
    Y2026     G2026      -274
    Y2027     COST       17844
    Y2027     G2027      -790
    Y2028     COST       22911
    Y2028     G2028      -364
    Y2029     COST       21394
    Y2029     G2029      -790
    Y2030     COST       12735
    Y2030     G2030      -325
    Y2031     COST       8362
    Y2031     G2031      -283
    Y2032     COST       8743
    Y2032     G2032      -108
    Y2033     COST       23639
    Y2033     G2033      -128
    Y2034     COST       9757
    Y2034     G2034      -20
    Y2035     COST       17831
    Y2035     G2035      -790
    Y2036     COST       12374
    Y2036     G2036      -499
    Y2037     COST       18895
    Y2037     G2037      -790
    Y2038     COST       24711
    Y2038     G2038      -324
    Y2039     COST       8037
    Y2039     G2039      -111
    Y2040     COST       20458
    Y2040     G2040      -123
    Y2041     COST       22473
    Y2041     G2041      -152
    Y2042     COST       12764
    Y2042     G2042      -441
    Y2043     COST       20961
    Y2043     G2043      -240
    Y2044     COST       23642
    Y2044     G2044      -509
    Y2045     COST       18716
    Y2045     G2045      -33
    Y2046     COST       8873
    Y2046     G2046      -24
    Y2047     COST       6515
    Y2047     G2047      -790
    Y2048     COST       7266
    Y2048     G2048      -401
    Y2049     COST       14854
    Y2049     G2049      -136
    Y2050     COST       8854
    Y2050     G2050      -467
    Y2051     COST       15200
    Y2051     G2051      -790
    Y2052     COST       18043
    Y2052     G2052      -737
    Y2053     COST       11096
    Y2053     G2053      -790
    Y2054     COST       20546
    Y2054     G2054      -196
    Y2055     COST       22007
    Y2055     G2055      -643
    Y2056     COST       25013
    Y2056     G2056      -790
    Y2057     COST       21106
    Y2057     G2057      -248
    Y2058     COST       15012
    Y2058     G2058      -790
    Y2059     COST       23880
    Y2059     G2059      -535
    Y2060     COST       22072
    Y2060     G2060      -94
    Y2061     COST       9233
    Y2061     G2061      -790
    Y2062     COST       16450
    Y2062     G2062      -263
    Y2063     COST       8091
    Y2063     G2063      -185
    Y2064     COST       14465
    Y2064     G2064      -581
    Y2065     COST       6607
    Y2065     G2065      -256
    Y2066     COST       12936
    Y2066     G2066      -238
    Y2067     COST       13914
    Y2067     G2067      -25
    Y2068     COST       9694
    Y2068     G2068      -506
    Y2069     COST       10844
    Y2069     G2069      -560
    Y2070     COST       9569
    Y2070     G2070      -296
    Y2071     COST       15581
    Y2071     G2071      -95
    Y2072     COST       15144
    Y2072     G2072      -790
    Y2073     COST       13377
    Y2073     G2073      -566
    Y2074     COST       7398
    Y2074     G2074      -698
    Y2075     COST       11841
    Y2075     G2075      -286
    Y2076     COST       17595
    Y2076     G2076      -5
    Y2077     COST       11392
    Y2077     G2077      -790
    Y2078     COST       21674
    Y2078     G2078      -31
    Y2079     COST       23359
    Y2079     G2079      -250
    Y2080     COST       12897
    Y2080     G2080      -152
    Y2081     COST       22855
    Y2081     G2081      -790
    Y2082     COST       8614
    Y2082     G2082      -38
    Y2083     COST       20820
    Y2083     G2083      -6
    Y2084     COST       20127
    Y2084     G2084      -309
    Y2085     COST       8900
    Y2085     G2085      -109
    Y2086     COST       18332
    Y2086     G2086      -351
    Y2087     COST       17565
    Y2087     G2087      -432
    Y2088     COST       18733
    Y2088     G2088      -147
    Y2089     COST       23399
    Y2089     G2089      -344
    Y2090     COST       24229
    Y2090     G2090      -790
    Y2091     COST       18762
    Y2091     G2091      -502
    Y2092     COST       15128
    Y2092     G2092      -790
    Y2093     COST       25367
    Y2093     G2093      -367
    Y2094     COST       22370
    Y2094     G2094      -130
    Y2095     COST       20873
    Y2095     G2095      -522
    Y2096     COST       22359
    Y2096     G2096      -258
    Y2097     COST       14911
    Y2097     G2097      -16
    Y2098     COST       16115
    Y2098     G2098      -205
    Y2099     COST       16384
    Y2099     G2099      -790
    Y2100     COST       11954
    Y2100     G2100      -43
    Y2101     COST       9346
    Y2101     G2101      -49
    Y2102     COST       6408
    Y2102     G2102      -49
    Y2103     COST       21091
    Y2103     G2103      -49
    Y2104     COST       6437
    Y2104     G2104      -49
    Y2105     COST       6444
    Y2105     G2105      -49
    Y2106     COST       20492
    Y2106     G2106      -49
    Y2107     COST       14547
    Y2107     G2107      -49
    Y2108     COST       16668
    Y2108     G2108      -49
    Y2109     COST       7544
    Y2109     G2109      -49
    Y2110     COST       25507
    Y2110     G2110      -49
    Y2111     COST       11559
    Y2111     G2111      -49
    Y2112     COST       19908
    Y2112     G2112      -49
    Y2113     COST       18788
    Y2113     G2113      -49
    Y2114     COST       10966
    Y2114     G2114      -49
    Y2115     COST       15396
    Y2115     G2115      -49
    Y2116     COST       23261
    Y2116     G2116      -49
    Y2117     COST       24027
    Y2117     G2117      -49
    Y2118     COST       10736
    Y2118     G2118      -49
    Y2119     COST       13759
    Y2119     G2119      -49
    Y2120     COST       24037
    Y2120     G2120      -49
    Y2121     COST       10288
    Y2121     G2121      -49
    Y2122     COST       8486
    Y2122     G2122      -49
    Y2123     COST       21478
    Y2123     G2123      -49
    Y2124     COST       7586
    Y2124     G2124      -49
    Y2125     COST       13750
    Y2125     G2125      -49
    Y2126     COST       20989
    Y2126     G2126      -49
    Y2127     COST       16294
    Y2127     G2127      -49
    Y2128     COST       15040
    Y2128     G2128      -49
    Y2129     COST       7087
    Y2129     G2129      -49
    Y2130     COST       21012
    Y2130     G2130      -49
    Y2131     COST       24020
    Y2131     G2131      -49
    Y2132     COST       24537
    Y2132     G2132      -49
    Y2133     COST       23260
    Y2133     G2133      -49
    Y2134     COST       12502
    Y2134     G2134      -20
    Y2135     COST       13500
    Y2135     G2135      -49
    Y2136     COST       7466
    Y2136     G2136      -49
    Y2137     COST       23995
    Y2137     G2137      -49
    Y2138     COST       16951
    Y2138     G2138      -49
    Y2139     COST       11626
    Y2139     G2139      -49
    Y2140     COST       23973
    Y2140     G2140      -49
    Y2141     COST       24506
    Y2141     G2141      -49
    Y2142     COST       19982
    Y2142     G2142      -49
    Y2143     COST       17755
    Y2143     G2143      -49
    Y2144     COST       23579
    Y2144     G2144      -49
    Y2145     COST       17842
    Y2145     G2145      -33
    Y2146     COST       24579
    Y2146     G2146      -24
    Y2147     COST       16906
    Y2147     G2147      -49
    Y2148     COST       23143
    Y2148     G2148      -49
    Y2149     COST       23231
    Y2149     G2149      -49
    Y2150     COST       11779
    Y2150     G2150      -49
    Y2151     COST       18871
    Y2151     G2151      -49
    Y2152     COST       23158
    Y2152     G2152      -49
    Y2153     COST       14712
    Y2153     G2153      -49
    Y2154     COST       13413
    Y2154     G2154      -49
    Y2155     COST       17529
    Y2155     G2155      -49
    Y2156     COST       22782
    Y2156     G2156      -49
    Y2157     COST       8109
    Y2157     G2157      -49
    Y2158     COST       23434
    Y2158     G2158      -49
    Y2159     COST       11488
    Y2159     G2159      -49
    Y2160     COST       14691
    Y2160     G2160      -49
    Y2161     COST       7871
    Y2161     G2161      -49
    Y2162     COST       23932
    Y2162     G2162      -49
    Y2163     COST       8806
    Y2163     G2163      -49
    Y2164     COST       10094
    Y2164     G2164      -49
    Y2165     COST       9232
    Y2165     G2165      -49
    Y2166     COST       14801
    Y2166     G2166      -49
    Y2167     COST       12122
    Y2167     G2167      -25
    Y2168     COST       18068
    Y2168     G2168      -49
    Y2169     COST       11433
    Y2169     G2169      -49
    Y2170     COST       18062
    Y2170     G2170      -49
    Y2171     COST       24143
    Y2171     G2171      -49
    Y2172     COST       22790
    Y2172     G2172      -49
    Y2173     COST       9687
    Y2173     G2173      -49
    Y2174     COST       18359
    Y2174     G2174      -49
    Y2175     COST       25090
    Y2175     G2175      -49
    Y2176     COST       8271
    Y2176     G2176      -5
    Y2177     COST       15151
    Y2177     G2177      -49
    Y2178     COST       21938
    Y2178     G2178      -31
    Y2179     COST       19096
    Y2179     G2179      -49
    Y2180     COST       10795
    Y2180     G2180      -49
    Y2181     COST       16336
    Y2181     G2181      -49
    Y2182     COST       17184
    Y2182     G2182      -38
    Y2183     COST       8168
    Y2183     G2183      -6
    Y2184     COST       17963
    Y2184     G2184      -49
    Y2185     COST       15887
    Y2185     G2185      -49
    Y2186     COST       15107
    Y2186     G2186      -49
    Y2187     COST       19364
    Y2187     G2187      -49
    Y2188     COST       16123
    Y2188     G2188      -49
    Y2189     COST       10394
    Y2189     G2189      -49
    Y2190     COST       20210
    Y2190     G2190      -49
    Y2191     COST       23079
    Y2191     G2191      -49
    Y2192     COST       21984
    Y2192     G2192      -49
    Y2193     COST       19346
    Y2193     G2193      -49
    Y2194     COST       6851
    Y2194     G2194      -49
    Y2195     COST       9866
    Y2195     G2195      -49
    Y2196     COST       23421
    Y2196     G2196      -49
    Y2197     COST       8126
    Y2197     G2197      -16
    Y2198     COST       9635
    Y2198     G2198      -49
    Y2199     COST       17033
    Y2199     G2199      -49
    Y2200     COST       24834
    Y2200     G2200      -43
    Y2201     COST       9340
    Y2201     G2201      -204
    Y2202     COST       13845
    Y2202     G2202      -176
    Y2203     COST       20691
    Y2203     G2203      -204
    Y2204     COST       14971
    Y2204     G2204      -93
    Y2205     COST       19195
    Y2205     G2205      -91
    Y2206     COST       24458
    Y2206     G2206      -204
    Y2207     COST       10259
    Y2207     G2207      -123
    Y2208     COST       21074
    Y2208     G2208      -204
    Y2209     COST       7719
    Y2209     G2209      -204
    Y2210     COST       10932
    Y2210     G2210      -159
    Y2211     COST       13161
    Y2211     G2211      -204
    Y2212     COST       24061
    Y2212     G2212      -204
    Y2213     COST       15011
    Y2213     G2213      -154
    Y2214     COST       16556
    Y2214     G2214      -204
    Y2215     COST       10506
    Y2215     G2215      -152
    Y2216     COST       11585
    Y2216     G2216      -204
    Y2217     COST       16789
    Y2217     G2217      -204
    Y2218     COST       10737
    Y2218     G2218      -66
    Y2219     COST       7956
    Y2219     G2219      -204
    Y2220     COST       24257
    Y2220     G2220      -159
    Y2221     COST       23505
    Y2221     G2221      -86
    Y2222     COST       15819
    Y2222     G2222      -204
    Y2223     COST       19554
    Y2223     G2223      -204
    Y2224     COST       8487
    Y2224     G2224      -204
    Y2225     COST       9279
    Y2225     G2225      -204
    Y2226     COST       23289
    Y2226     G2226      -204
    Y2227     COST       18231
    Y2227     G2227      -204
    Y2228     COST       22505
    Y2228     G2228      -204
    Y2229     COST       21829
    Y2229     G2229      -204
    Y2230     COST       24767
    Y2230     G2230      -204
    Y2231     COST       10168
    Y2231     G2231      -204
    Y2232     COST       24716
    Y2232     G2232      -108
    Y2233     COST       16182
    Y2233     G2233      -128
    Y2234     COST       10985
    Y2234     G2234      -20
    Y2235     COST       10150
    Y2235     G2235      -204
    Y2236     COST       16487
    Y2236     G2236      -204
    Y2237     COST       18497
    Y2237     G2237      -204
    Y2238     COST       19245
    Y2238     G2238      -204
    Y2239     COST       8093
    Y2239     G2239      -111
    Y2240     COST       21791
    Y2240     G2240      -123
    Y2241     COST       13270
    Y2241     G2241      -152
    Y2242     COST       10588
    Y2242     G2242      -204
    Y2243     COST       8418
    Y2243     G2243      -204
    Y2244     COST       18057
    Y2244     G2244      -204
    Y2245     COST       24616
    Y2245     G2245      -33
    Y2246     COST       13439
    Y2246     G2246      -24
    Y2247     COST       19386
    Y2247     G2247      -204
    Y2248     COST       16227
    Y2248     G2248      -204
    Y2249     COST       11633
    Y2249     G2249      -136
    Y2250     COST       10888
    Y2250     G2250      -204
    Y2251     COST       17130
    Y2251     G2251      -204
    Y2252     COST       16334
    Y2252     G2252      -204
    Y2253     COST       20057
    Y2253     G2253      -204
    Y2254     COST       12167
    Y2254     G2254      -196
    Y2255     COST       10120
    Y2255     G2255      -204
    Y2256     COST       11722
    Y2256     G2256      -204
    Y2257     COST       13962
    Y2257     G2257      -204
    Y2258     COST       9982
    Y2258     G2258      -204
    Y2259     COST       11063
    Y2259     G2259      -204
    Y2260     COST       24942
    Y2260     G2260      -94
    Y2261     COST       13698
    Y2261     G2261      -204
    Y2262     COST       15552
    Y2262     G2262      -204
    Y2263     COST       8517
    Y2263     G2263      -185
    Y2264     COST       15195
    Y2264     G2264      -204
    Y2265     COST       16044
    Y2265     G2265      -204
    Y2266     COST       14821
    Y2266     G2266      -204
    Y2267     COST       22049
    Y2267     G2267      -25
    Y2268     COST       16440
    Y2268     G2268      -204
    Y2269     COST       11677
    Y2269     G2269      -204
    Y2270     COST       20923
    Y2270     G2270      -204
    Y2271     COST       7022
    Y2271     G2271      -95
    Y2272     COST       24975
    Y2272     G2272      -204
    Y2273     COST       8294
    Y2273     G2273      -204
    Y2274     COST       14028
    Y2274     G2274      -204
    Y2275     COST       17203
    Y2275     G2275      -204
    Y2276     COST       21666
    Y2276     G2276      -5
    Y2277     COST       8241
    Y2277     G2277      -204
    Y2278     COST       25110
    Y2278     G2278      -31
    Y2279     COST       18871
    Y2279     G2279      -204
    Y2280     COST       7821
    Y2280     G2280      -152
    Y2281     COST       24203
    Y2281     G2281      -204
    Y2282     COST       14354
    Y2282     G2282      -38
    Y2283     COST       14409
    Y2283     G2283      -6
    Y2284     COST       24193
    Y2284     G2284      -204
    Y2285     COST       14032
    Y2285     G2285      -109
    Y2286     COST       24626
    Y2286     G2286      -204
    Y2287     COST       24201
    Y2287     G2287      -204
    Y2288     COST       24216
    Y2288     G2288      -147
    Y2289     COST       22122
    Y2289     G2289      -204
    Y2290     COST       11127
    Y2290     G2290      -204
    Y2291     COST       11351
    Y2291     G2291      -204
    Y2292     COST       19792
    Y2292     G2292      -204
    Y2293     COST       24909
    Y2293     G2293      -204
    Y2294     COST       17617
    Y2294     G2294      -130
    Y2295     COST       23418
    Y2295     G2295      -204
    Y2296     COST       12871
    Y2296     G2296      -204
    Y2297     COST       18904
    Y2297     G2297      -16
    Y2298     COST       24248
    Y2298     G2298      -204
    Y2299     COST       15095
    Y2299     G2299      -204
    Y2300     COST       24323
    Y2300     G2300      -43
    Y2301     COST       10914
    Y2301     G2301      -402
    Y2302     COST       10911
    Y2302     G2302      -176
    Y2303     COST       16196
    Y2303     G2303      -526
    Y2304     COST       8664
    Y2304     G2304      -93
    Y2305     COST       20464
    Y2305     G2305      -91
    Y2306     COST       22219
    Y2306     G2306      -1200
    Y2307     COST       17027
    Y2307     G2307      -123
    Y2308     COST       12937
    Y2308     G2308      -435
    Y2309     COST       9401
    Y2309     G2309      -461
    Y2310     COST       7546
    Y2310     G2310      -159
    Y2311     COST       19590
    Y2311     G2311      -509
    Y2312     COST       21301
    Y2312     G2312      -218
    Y2313     COST       14278
    Y2313     G2313      -154
    Y2314     COST       18457
    Y2314     G2314      -516
    Y2315     COST       9363
    Y2315     G2315      -152
    Y2316     COST       8991
    Y2316     G2316      -580
    Y2317     COST       22567
    Y2317     G2317      -1171
    Y2318     COST       19684
    Y2318     G2318      -66
    Y2319     COST       15831
    Y2319     G2319      -796
    Y2320     COST       10273
    Y2320     G2320      -159
    Y2321     COST       13832
    Y2321     G2321      -86
    Y2322     COST       21270
    Y2322     G2322      -235
    Y2323     COST       18388
    Y2323     G2323      -737
    Y2324     COST       21700
    Y2324     G2324      -1244
    Y2325     COST       24419
    Y2325     G2325      -1244
    Y2326     COST       23625
    Y2326     G2326      -274
    Y2327     COST       15371
    Y2327     G2327      -1181
    Y2328     COST       15440
    Y2328     G2328      -364
    Y2329     COST       19704
    Y2329     G2329      -1061
    Y2330     COST       21250
    Y2330     G2330      -325
    Y2331     COST       24808
    Y2331     G2331      -283
    Y2332     COST       11545
    Y2332     G2332      -108
    Y2333     COST       23994
    Y2333     G2333      -128
    Y2334     COST       7465
    Y2334     G2334      -20
    Y2335     COST       17769
    Y2335     G2335      -1244
    Y2336     COST       13202
    Y2336     G2336      -499
    Y2337     COST       19517
    Y2337     G2337      -1211
    Y2338     COST       6726
    Y2338     G2338      -324
    Y2339     COST       24768
    Y2339     G2339      -111
    Y2340     COST       20777
    Y2340     G2340      -123
    Y2341     COST       16524
    Y2341     G2341      -152
    Y2342     COST       22491
    Y2342     G2342      -441
    Y2343     COST       19651
    Y2343     G2343      -240
    Y2344     COST       20752
    Y2344     G2344      -509
    Y2345     COST       7650
    Y2345     G2345      -33
    Y2346     COST       11626
    Y2346     G2346      -24
    Y2347     COST       8027
    Y2347     G2347      -1244
    Y2348     COST       8414
    Y2348     G2348      -401
    Y2349     COST       22402
    Y2349     G2349      -136
    Y2350     COST       14638
    Y2350     G2350      -467
    Y2351     COST       22675
    Y2351     G2351      -807
    Y2352     COST       13439
    Y2352     G2352      -737
    Y2353     COST       18933
    Y2353     G2353      -1244
    Y2354     COST       16034
    Y2354     G2354      -196
    Y2355     COST       21869
    Y2355     G2355      -643
    Y2356     COST       14860
    Y2356     G2356      -1244
    Y2357     COST       12173
    Y2357     G2357      -248
    Y2358     COST       7434
    Y2358     G2358      -1244
    Y2359     COST       16473
    Y2359     G2359      -535
    Y2360     COST       11119
    Y2360     G2360      -94
    Y2361     COST       16774
    Y2361     G2361      -1126
    Y2362     COST       10302
    Y2362     G2362      -263
    Y2363     COST       19863
    Y2363     G2363      -185
    Y2364     COST       23426
    Y2364     G2364      -581
    Y2365     COST       11654
    Y2365     G2365      -256
    Y2366     COST       20554
    Y2366     G2366      -238
    Y2367     COST       15584
    Y2367     G2367      -25
    Y2368     COST       24224
    Y2368     G2368      -506
    Y2369     COST       14800
    Y2369     G2369      -560
    Y2370     COST       21899
    Y2370     G2370      -296
    Y2371     COST       11198
    Y2371     G2371      -95
    Y2372     COST       11887
    Y2372     G2372      -1244
    Y2373     COST       23699
    Y2373     G2373      -566
    Y2374     COST       11838
    Y2374     G2374      -698
    Y2375     COST       10819
    Y2375     G2375      -286
    Y2376     COST       12883
    Y2376     G2376      -5
    Y2377     COST       18346
    Y2377     G2377      -1244
    Y2378     COST       22090
    Y2378     G2378      -31
    Y2379     COST       9692
    Y2379     G2379      -250
    Y2380     COST       18685
    Y2380     G2380      -152
    Y2381     COST       21201
    Y2381     G2381      -1244
    Y2382     COST       20593
    Y2382     G2382      -38
    Y2383     COST       11797
    Y2383     G2383      -6
    Y2384     COST       14037
    Y2384     G2384      -309
    Y2385     COST       9897
    Y2385     G2385      -109
    Y2386     COST       11868
    Y2386     G2386      -351
    Y2387     COST       22856
    Y2387     G2387      -432
    Y2388     COST       8625
    Y2388     G2388      -147
    Y2389     COST       20132
    Y2389     G2389      -344
    Y2390     COST       10053
    Y2390     G2390      -1244
    Y2391     COST       7321
    Y2391     G2391      -502
    Y2392     COST       16132
    Y2392     G2392      -806
    Y2393     COST       19344
    Y2393     G2393      -367
    Y2394     COST       16889
    Y2394     G2394      -130
    Y2395     COST       12880
    Y2395     G2395      -522
    Y2396     COST       23122
    Y2396     G2396      -258
    Y2397     COST       10009
    Y2397     G2397      -16
    Y2398     COST       20164
    Y2398     G2398      -205
    Y2399     COST       11172
    Y2399     G2399      -1244
    Y2400     COST       6788
    Y2400     G2400      -43
    Y2401     COST       21546
    Y2401     G2401      -402
    Y2402     COST       10905
    Y2402     G2402      -176
    Y2403     COST       18845
    Y2403     G2403      -526
    Y2404     COST       17923
    Y2404     G2404      -93
    Y2405     COST       6775
    Y2405     G2405      -91
    Y2406     COST       16641
    Y2406     G2406      -879
    Y2407     COST       11507
    Y2407     G2407      -123
    Y2408     COST       24800
    Y2408     G2408      -435
    Y2409     COST       22628
    Y2409     G2409      -461
    Y2410     COST       21747
    Y2410     G2410      -159
    Y2411     COST       10964
    Y2411     G2411      -509
    Y2412     COST       18239
    Y2412     G2412      -218
    Y2413     COST       14133
    Y2413     G2413      -154
    Y2414     COST       16976
    Y2414     G2414      -516
    Y2415     COST       21257
    Y2415     G2415      -152
    Y2416     COST       12714
    Y2416     G2416      -580
    Y2417     COST       15815
    Y2417     G2417      -879
    Y2418     COST       13573
    Y2418     G2418      -66
    Y2419     COST       19546
    Y2419     G2419      -796
    Y2420     COST       14133
    Y2420     G2420      -159
    Y2421     COST       17445
    Y2421     G2421      -86
    Y2422     COST       7589
    Y2422     G2422      -235
    Y2423     COST       25165
    Y2423     G2423      -737
    Y2424     COST       9734
    Y2424     G2424      -879
    Y2425     COST       16735
    Y2425     G2425      -879
    Y2426     COST       10741
    Y2426     G2426      -274
    Y2427     COST       9269
    Y2427     G2427      -879
    Y2428     COST       21412
    Y2428     G2428      -364
    Y2429     COST       16973
    Y2429     G2429      -879
    Y2430     COST       13246
    Y2430     G2430      -325
    Y2431     COST       14125
    Y2431     G2431      -283
    Y2432     COST       24362
    Y2432     G2432      -108
    Y2433     COST       17282
    Y2433     G2433      -128
    Y2434     COST       14595
    Y2434     G2434      -20
    Y2435     COST       24124
    Y2435     G2435      -879
    Y2436     COST       25233
    Y2436     G2436      -499
    Y2437     COST       21432
    Y2437     G2437      -879
    Y2438     COST       18033
    Y2438     G2438      -324
    Y2439     COST       10351
    Y2439     G2439      -111
    Y2440     COST       15569
    Y2440     G2440      -123
    Y2441     COST       23147
    Y2441     G2441      -152
    Y2442     COST       12995
    Y2442     G2442      -441
    Y2443     COST       22392
    Y2443     G2443      -240
    Y2444     COST       24726
    Y2444     G2444      -509
    Y2445     COST       8539
    Y2445     G2445      -33
    Y2446     COST       23605
    Y2446     G2446      -24
    Y2447     COST       25258
    Y2447     G2447      -879
    Y2448     COST       14874
    Y2448     G2448      -401
    Y2449     COST       7889
    Y2449     G2449      -136
    Y2450     COST       9489
    Y2450     G2450      -467
    Y2451     COST       13432
    Y2451     G2451      -807
    Y2452     COST       15981
    Y2452     G2452      -737
    Y2453     COST       10124
    Y2453     G2453      -879
    Y2454     COST       17300
    Y2454     G2454      -196
    Y2455     COST       8117
    Y2455     G2455      -643
    Y2456     COST       23363
    Y2456     G2456      -879
    Y2457     COST       17556
    Y2457     G2457      -248
    Y2458     COST       15533
    Y2458     G2458      -879
    Y2459     COST       9987
    Y2459     G2459      -535
    Y2460     COST       25437
    Y2460     G2460      -94
    Y2461     COST       9678
    Y2461     G2461      -879
    Y2462     COST       20232
    Y2462     G2462      -263
    Y2463     COST       16419
    Y2463     G2463      -185
    Y2464     COST       18091
    Y2464     G2464      -581
    Y2465     COST       10099
    Y2465     G2465      -256
    Y2466     COST       23695
    Y2466     G2466      -238
    Y2467     COST       7845
    Y2467     G2467      -25
    Y2468     COST       18092
    Y2468     G2468      -506
    Y2469     COST       7033
    Y2469     G2469      -560
    Y2470     COST       15560
    Y2470     G2470      -296
    Y2471     COST       20233
    Y2471     G2471      -95
    Y2472     COST       13641
    Y2472     G2472      -879
    Y2473     COST       11734
    Y2473     G2473      -566
    Y2474     COST       9687
    Y2474     G2474      -698
    Y2475     COST       20222
    Y2475     G2475      -286
    Y2476     COST       24653
    Y2476     G2476      -5
    Y2477     COST       14019
    Y2477     G2477      -879
    Y2478     COST       16857
    Y2478     G2478      -31
    Y2479     COST       15663
    Y2479     G2479      -250
    Y2480     COST       11591
    Y2480     G2480      -152
    Y2481     COST       25304
    Y2481     G2481      -879
    Y2482     COST       15633
    Y2482     G2482      -38
    Y2483     COST       11870
    Y2483     G2483      -6
    Y2484     COST       9893
    Y2484     G2484      -309
    Y2485     COST       21951
    Y2485     G2485      -109
    Y2486     COST       13988
    Y2486     G2486      -351
    Y2487     COST       17193
    Y2487     G2487      -432
    Y2488     COST       20241
    Y2488     G2488      -147
    Y2489     COST       20616
    Y2489     G2489      -344
    Y2490     COST       23796
    Y2490     G2490      -879
    Y2491     COST       9627
    Y2491     G2491      -502
    Y2492     COST       24681
    Y2492     G2492      -806
    Y2493     COST       20246
    Y2493     G2493      -367
    Y2494     COST       22373
    Y2494     G2494      -130
    Y2495     COST       18678
    Y2495     G2495      -522
    Y2496     COST       25145
    Y2496     G2496      -258
    Y2497     COST       14006
    Y2497     G2497      -16
    Y2498     COST       7075
    Y2498     G2498      -205
    Y2499     COST       20141
    Y2499     G2499      -879
    Y2500     COST       25220
    Y2500     G2500      -43
    Y2501     COST       8430
    Y2501     G2501      -402
    Y2502     COST       16593
    Y2502     G2502      -176
    Y2503     COST       7538
    Y2503     G2503      -526
    Y2504     COST       17019
    Y2504     G2504      -93
    Y2505     COST       14064
    Y2505     G2505      -91
    Y2506     COST       18847
    Y2506     G2506      -826
    Y2507     COST       13180
    Y2507     G2507      -123
    Y2508     COST       15411
    Y2508     G2508      -435
    Y2509     COST       22638
    Y2509     G2509      -461
    Y2510     COST       22202
    Y2510     G2510      -159
    Y2511     COST       19587
    Y2511     G2511      -509
    Y2512     COST       12849
    Y2512     G2512      -218
    Y2513     COST       17032
    Y2513     G2513      -154
    Y2514     COST       8994
    Y2514     G2514      -516
    Y2515     COST       12040
    Y2515     G2515      -152
    Y2516     COST       25196
    Y2516     G2516      -580
    Y2517     COST       16208
    Y2517     G2517      -826
    Y2518     COST       17943
    Y2518     G2518      -66
    Y2519     COST       10958
    Y2519     G2519      -796
    Y2520     COST       14106
    Y2520     G2520      -159
    Y2521     COST       16609
    Y2521     G2521      -86
    Y2522     COST       12843
    Y2522     G2522      -235
    Y2523     COST       10961
    Y2523     G2523      -737
    Y2524     COST       13233
    Y2524     G2524      -826
    Y2525     COST       22990
    Y2525     G2525      -826
    Y2526     COST       20420
    Y2526     G2526      -274
    Y2527     COST       7248
    Y2527     G2527      -826
    Y2528     COST       15438
    Y2528     G2528      -364
    Y2529     COST       11593
    Y2529     G2529      -826
    Y2530     COST       9449
    Y2530     G2530      -325
    Y2531     COST       11577
    Y2531     G2531      -283
    Y2532     COST       18529
    Y2532     G2532      -108
    Y2533     COST       7748
    Y2533     G2533      -128
    Y2534     COST       22737
    Y2534     G2534      -20
    Y2535     COST       15707
    Y2535     G2535      -826
    Y2536     COST       20030
    Y2536     G2536      -499
    Y2537     COST       21258
    Y2537     G2537      -826
    Y2538     COST       18427
    Y2538     G2538      -324
    Y2539     COST       9847
    Y2539     G2539      -111
    Y2540     COST       23305
    Y2540     G2540      -123
    Y2541     COST       17750
    Y2541     G2541      -152
    Y2542     COST       9489
    Y2542     G2542      -441
    Y2543     COST       21384
    Y2543     G2543      -240
    Y2544     COST       15463
    Y2544     G2544      -509
    Y2545     COST       11975
    Y2545     G2545      -33
    Y2546     COST       14659
    Y2546     G2546      -24
    Y2547     COST       23599
    Y2547     G2547      -826
    Y2548     COST       25460
    Y2548     G2548      -401
    Y2549     COST       9701
    Y2549     G2549      -136
    Y2550     COST       16465
    Y2550     G2550      -467
    Y2551     COST       7286
    Y2551     G2551      -807
    Y2552     COST       24343
    Y2552     G2552      -737
    Y2553     COST       11104
    Y2553     G2553      -826
    Y2554     COST       9545
    Y2554     G2554      -196
    Y2555     COST       7425
    Y2555     G2555      -643
    Y2556     COST       15096
    Y2556     G2556      -826
    Y2557     COST       8764
    Y2557     G2557      -248
    Y2558     COST       7063
    Y2558     G2558      -826
    Y2559     COST       14857
    Y2559     G2559      -535
    Y2560     COST       12608
    Y2560     G2560      -94
    Y2561     COST       18735
    Y2561     G2561      -826
    Y2562     COST       13435
    Y2562     G2562      -263
    Y2563     COST       9610
    Y2563     G2563      -185
    Y2564     COST       8291
    Y2564     G2564      -581
    Y2565     COST       20507
    Y2565     G2565      -256
    Y2566     COST       20090
    Y2566     G2566      -238
    Y2567     COST       10361
    Y2567     G2567      -25
    Y2568     COST       13947
    Y2568     G2568      -506
    Y2569     COST       22783
    Y2569     G2569      -560
    Y2570     COST       21938
    Y2570     G2570      -296
    Y2571     COST       9489
    Y2571     G2571      -95
    Y2572     COST       19002
    Y2572     G2572      -826
    Y2573     COST       24964
    Y2573     G2573      -566
    Y2574     COST       19878
    Y2574     G2574      -698
    Y2575     COST       19060
    Y2575     G2575      -286
    Y2576     COST       23926
    Y2576     G2576      -5
    Y2577     COST       14902
    Y2577     G2577      -826
    Y2578     COST       23696
    Y2578     G2578      -31
    Y2579     COST       12890
    Y2579     G2579      -250
    Y2580     COST       11875
    Y2580     G2580      -152
    Y2581     COST       22365
    Y2581     G2581      -826
    Y2582     COST       13145
    Y2582     G2582      -38
    Y2583     COST       19102
    Y2583     G2583      -6
    Y2584     COST       19078
    Y2584     G2584      -309
    Y2585     COST       22843
    Y2585     G2585      -109
    Y2586     COST       12231
    Y2586     G2586      -351
    Y2587     COST       20134
    Y2587     G2587      -432
    Y2588     COST       16303
    Y2588     G2588      -147
    Y2589     COST       10418
    Y2589     G2589      -344
    Y2590     COST       23788
    Y2590     G2590      -826
    Y2591     COST       9133
    Y2591     G2591      -502
    Y2592     COST       13984
    Y2592     G2592      -806
    Y2593     COST       17621
    Y2593     G2593      -367
    Y2594     COST       6860
    Y2594     G2594      -130
    Y2595     COST       23121
    Y2595     G2595      -522
    Y2596     COST       9851
    Y2596     G2596      -258
    Y2597     COST       24232
    Y2597     G2597      -16
    Y2598     COST       18677
    Y2598     G2598      -205
    Y2599     COST       6818
    Y2599     G2599      -826
    Y2600     COST       13549
    Y2600     G2600      -43
    Y2601     COST       14506
    Y2601     G2601      -246
    Y2602     COST       17711
    Y2602     G2602      -176
    Y2603     COST       18153
    Y2603     G2603      -246
    Y2604     COST       12059
    Y2604     G2604      -93
    Y2605     COST       24454
    Y2605     G2605      -91
    Y2606     COST       18841
    Y2606     G2606      -246
    Y2607     COST       14289
    Y2607     G2607      -123
    Y2608     COST       6432
    Y2608     G2608      -246
    Y2609     COST       10922
    Y2609     G2609      -246
    Y2610     COST       16583
    Y2610     G2610      -159
    Y2611     COST       22652
    Y2611     G2611      -246
    Y2612     COST       7553
    Y2612     G2612      -218
    Y2613     COST       18751
    Y2613     G2613      -154
    Y2614     COST       11348
    Y2614     G2614      -246
    Y2615     COST       21059
    Y2615     G2615      -152
    Y2616     COST       24437
    Y2616     G2616      -246
    Y2617     COST       9374
    Y2617     G2617      -246
    Y2618     COST       15371
    Y2618     G2618      -66
    Y2619     COST       14548
    Y2619     G2619      -246
    Y2620     COST       11539
    Y2620     G2620      -159
    Y2621     COST       9836
    Y2621     G2621      -86
    Y2622     COST       13229
    Y2622     G2622      -235
    Y2623     COST       21375
    Y2623     G2623      -246
    Y2624     COST       15726
    Y2624     G2624      -246
    Y2625     COST       20403
    Y2625     G2625      -246
    Y2626     COST       6713
    Y2626     G2626      -246
    Y2627     COST       14624
    Y2627     G2627      -246
    Y2628     COST       15309
    Y2628     G2628      -246
    Y2629     COST       11985
    Y2629     G2629      -246
    Y2630     COST       6711
    Y2630     G2630      -246
    Y2631     COST       20727
    Y2631     G2631      -246
    Y2632     COST       19475
    Y2632     G2632      -108
    Y2633     COST       9250
    Y2633     G2633      -128
    Y2634     COST       10221
    Y2634     G2634      -20
    Y2635     COST       10608
    Y2635     G2635      -246
    Y2636     COST       22690
    Y2636     G2636      -246
    Y2637     COST       12397
    Y2637     G2637      -246
    Y2638     COST       21431
    Y2638     G2638      -246
    Y2639     COST       11042
    Y2639     G2639      -111
    Y2640     COST       25403
    Y2640     G2640      -123
    Y2641     COST       9738
    Y2641     G2641      -152
    Y2642     COST       20368
    Y2642     G2642      -246
    Y2643     COST       9605
    Y2643     G2643      -240
    Y2644     COST       22399
    Y2644     G2644      -246
    Y2645     COST       9029
    Y2645     G2645      -33
    Y2646     COST       16024
    Y2646     G2646      -24
    Y2647     COST       11713
    Y2647     G2647      -246
    Y2648     COST       16398
    Y2648     G2648      -246
    Y2649     COST       6972
    Y2649     G2649      -136
    Y2650     COST       14000
    Y2650     G2650      -246
    Y2651     COST       7449
    Y2651     G2651      -246
    Y2652     COST       11669
    Y2652     G2652      -246
    Y2653     COST       14841
    Y2653     G2653      -246
    Y2654     COST       23919
    Y2654     G2654      -196
    Y2655     COST       11893
    Y2655     G2655      -246
    Y2656     COST       14834
    Y2656     G2656      -246
    Y2657     COST       22797
    Y2657     G2657      -246
    Y2658     COST       12949
    Y2658     G2658      -246
    Y2659     COST       25448
    Y2659     G2659      -246
    Y2660     COST       20121
    Y2660     G2660      -94
    Y2661     COST       9179
    Y2661     G2661      -246
    Y2662     COST       10080
    Y2662     G2662      -246
    Y2663     COST       25565
    Y2663     G2663      -185
    Y2664     COST       13708
    Y2664     G2664      -246
    Y2665     COST       15566
    Y2665     G2665      -246
    Y2666     COST       12581
    Y2666     G2666      -238
    Y2667     COST       7406
    Y2667     G2667      -25
    Y2668     COST       18619
    Y2668     G2668      -246
    Y2669     COST       23704
    Y2669     G2669      -246
    Y2670     COST       19889
    Y2670     G2670      -246
    Y2671     COST       11653
    Y2671     G2671      -95
    Y2672     COST       20156
    Y2672     G2672      -246
    Y2673     COST       17332
    Y2673     G2673      -246
    Y2674     COST       20153
    Y2674     G2674      -246
    Y2675     COST       14655
    Y2675     G2675      -246
    Y2676     COST       12218
    Y2676     G2676      -5
    Y2677     COST       24854
    Y2677     G2677      -246
    Y2678     COST       17074
    Y2678     G2678      -31
    Y2679     COST       18597
    Y2679     G2679      -246
    Y2680     COST       22849
    Y2680     G2680      -152
    Y2681     COST       6894
    Y2681     G2681      -246
    Y2682     COST       9149
    Y2682     G2682      -38
    Y2683     COST       7356
    Y2683     G2683      -6
    Y2684     COST       9139
    Y2684     G2684      -246
    Y2685     COST       21190
    Y2685     G2685      -109
    Y2686     COST       6905
    Y2686     G2686      -246
    Y2687     COST       15888
    Y2687     G2687      -246
    Y2688     COST       15650
    Y2688     G2688      -147
    Y2689     COST       7774
    Y2689     G2689      -246
    Y2690     COST       7091
    Y2690     G2690      -246
    Y2691     COST       10030
    Y2691     G2691      -246
    Y2692     COST       25340
    Y2692     G2692      -246
    Y2693     COST       9632
    Y2693     G2693      -246
    Y2694     COST       24234
    Y2694     G2694      -130
    Y2695     COST       22363
    Y2695     G2695      -246
    Y2696     COST       18676
    Y2696     G2696      -246
    Y2697     COST       22365
    Y2697     G2697      -16
    Y2698     COST       17089
    Y2698     G2698      -205
    Y2699     COST       17570
    Y2699     G2699      -246
    Y2700     COST       25223
    Y2700     G2700      -43
    Y2701     COST       17918
    Y2701     G2701      -402
    Y2702     COST       17016
    Y2702     G2702      -176
    Y2703     COST       16575
    Y2703     G2703      -526
    Y2704     COST       19941
    Y2704     G2704      -93
    Y2705     COST       15345
    Y2705     G2705      -91
    Y2706     COST       19575
    Y2706     G2706      -1146
    Y2707     COST       21089
    Y2707     G2707      -123
    Y2708     COST       22592
    Y2708     G2708      -435
    Y2709     COST       10225
    Y2709     G2709      -461
    Y2710     COST       23319
    Y2710     G2710      -159
    Y2711     COST       25210
    Y2711     G2711      -509
    Y2712     COST       16613
    Y2712     G2712      -218
    Y2713     COST       21066
    Y2713     G2713      -154
    Y2714     COST       21284
    Y2714     G2714      -516
    Y2715     COST       16154
    Y2715     G2715      -152
    Y2716     COST       16991
    Y2716     G2716      -580
    Y2717     COST       25199
    Y2717     G2717      -1146
    Y2718     COST       19591
    Y2718     G2718      -66
    Y2719     COST       14566
    Y2719     G2719      -796
    Y2720     COST       12322
    Y2720     G2720      -159
    Y2721     COST       10289
    Y2721     G2721      -86
    Y2722     COST       21058
    Y2722     G2722      -235
    Y2723     COST       22992
    Y2723     G2723      -737
    Y2724     COST       24432
    Y2724     G2724      -1146
    Y2725     COST       17666
    Y2725     G2725      -1146
    Y2726     COST       17864
    Y2726     G2726      -274
    Y2727     COST       20463
    Y2727     G2727      -1146
    Y2728     COST       14098
    Y2728     G2728      -364
    Y2729     COST       24285
    Y2729     G2729      -1061
    Y2730     COST       16518
    Y2730     G2730      -325
    Y2731     COST       10491
    Y2731     G2731      -283
    Y2732     COST       17670
    Y2732     G2732      -108
    Y2733     COST       22268
    Y2733     G2733      -128
    Y2734     COST       10605
    Y2734     G2734      -20
    Y2735     COST       19994
    Y2735     G2735      -1146
    Y2736     COST       25181
    Y2736     G2736      -499
    Y2737     COST       18719
    Y2737     G2737      -1146
    Y2738     COST       10596
    Y2738     G2738      -324
    Y2739     COST       12020
    Y2739     G2739      -111
    Y2740     COST       16922
    Y2740     G2740      -123
    Y2741     COST       17826
    Y2741     G2741      -152
    Y2742     COST       20367
    Y2742     G2742      -441
    Y2743     COST       8782
    Y2743     G2743      -240
    Y2744     COST       10194
    Y2744     G2744      -509
    Y2745     COST       23219
    Y2745     G2745      -33
    Y2746     COST       11712
    Y2746     G2746      -24
    Y2747     COST       18710
    Y2747     G2747      -1146
    Y2748     COST       16013
    Y2748     G2748      -401
    Y2749     COST       13818
    Y2749     G2749      -136
    Y2750     COST       12608
    Y2750     G2750      -467
    Y2751     COST       24581
    Y2751     G2751      -807
    Y2752     COST       18942
    Y2752     G2752      -737
    Y2753     COST       13573
    Y2753     G2753      -1146
    Y2754     COST       10870
    Y2754     G2754      -196
    Y2755     COST       7931
    Y2755     G2755      -643
    Y2756     COST       6603
    Y2756     G2756      -1146
    Y2757     COST       20877
    Y2757     G2757      -248
    Y2758     COST       20285
    Y2758     G2758      -1146
    Y2759     COST       24929
    Y2759     G2759      -535
    Y2760     COST       20297
    Y2760     G2760      -94
    Y2761     COST       19405
    Y2761     G2761      -1126
    Y2762     COST       20884
    Y2762     G2762      -263
    Y2763     COST       6561
    Y2763     G2763      -185
    Y2764     COST       6622
    Y2764     G2764      -581
    Y2765     COST       22018
    Y2765     G2765      -256
    Y2766     COST       16024
    Y2766     G2766      -238
    Y2767     COST       21687
    Y2767     G2767      -25
    Y2768     COST       21632
    Y2768     G2768      -506
    Y2769     COST       16292
    Y2769     G2769      -560
    Y2770     COST       9616
    Y2770     G2770      -296
    Y2771     COST       13392
    Y2771     G2771      -95
    Y2772     COST       23432
    Y2772     G2772      -1146
    Y2773     COST       12216
    Y2773     G2773      -566
    Y2774     COST       19778
    Y2774     G2774      -698
    Y2775     COST       18882
    Y2775     G2775      -286
    Y2776     COST       17972
    Y2776     G2776      -5
    Y2777     COST       23801
    Y2777     G2777      -1146
    Y2778     COST       24718
    Y2778     G2778      -31
    Y2779     COST       17228
    Y2779     G2779      -250
    Y2780     COST       17580
    Y2780     G2780      -152
    Y2781     COST       17950
    Y2781     G2781      -1146
    Y2782     COST       24207
    Y2782     G2782      -38
    Y2783     COST       23762
    Y2783     G2783      -6
    Y2784     COST       19846
    Y2784     G2784      -309
    Y2785     COST       6679
    Y2785     G2785      -109
    Y2786     COST       14949
    Y2786     G2786      -351
    Y2787     COST       8247
    Y2787     G2787      -432
    Y2788     COST       20200
    Y2788     G2788      -147
    Y2789     COST       7332
    Y2789     G2789      -344
    Y2790     COST       21576
    Y2790     G2790      -1146
    Y2791     COST       9651
    Y2791     G2791      -502
    Y2792     COST       9140
    Y2792     G2792      -806
    Y2793     COST       22089
    Y2793     G2793      -367
    Y2794     COST       11354
    Y2794     G2794      -130
    Y2795     COST       21593
    Y2795     G2795      -522
    Y2796     COST       20270
    Y2796     G2796      -258
    Y2797     COST       17248
    Y2797     G2797      -16
    Y2798     COST       24245
    Y2798     G2798      -205
    Y2799     COST       17010
    Y2799     G2799      -1146
    Y2800     COST       13169
    Y2800     G2800      -43
    Y2801     COST       22658
    Y2801     G2801      -52
    Y2802     COST       11523
    Y2802     G2802      -52
    Y2803     COST       25212
    Y2803     G2803      -52
    Y2804     COST       24321
    Y2804     G2804      -52
    Y2805     COST       24837
    Y2805     G2805      -52
    Y2806     COST       15788
    Y2806     G2806      -52
    Y2807     COST       8955
    Y2807     G2807      -52
    Y2808     COST       7675
    Y2808     G2808      -52
    Y2809     COST       14509
    Y2809     G2809      -52
    Y2810     COST       8670
    Y2810     G2810      -52
    Y2811     COST       13808
    Y2811     G2811      -52
    Y2812     COST       18113
    Y2812     G2812      -52
    Y2813     COST       10268
    Y2813     G2813      -52
    Y2814     COST       6827
    Y2814     G2814      -52
    Y2815     COST       16672
    Y2815     G2815      -52
    Y2816     COST       8474
    Y2816     G2816      -52
    Y2817     COST       25179
    Y2817     G2817      -52
    Y2818     COST       19265
    Y2818     G2818      -52
    Y2819     COST       8823
    Y2819     G2819      -52
    Y2820     COST       18423
    Y2820     G2820      -52
    Y2821     COST       16478
    Y2821     G2821      -52
    Y2822     COST       21709
    Y2822     G2822      -52
    Y2823     COST       9970
    Y2823     G2823      -52
    Y2824     COST       21710
    Y2824     G2824      -52
    Y2825     COST       24733
    Y2825     G2825      -52
    Y2826     COST       7247
    Y2826     G2826      -52
    Y2827     COST       24363
    Y2827     G2827      -52
    Y2828     COST       20414
    Y2828     G2828      -52
    Y2829     COST       7621
    Y2829     G2829      -52
    Y2830     COST       7632
    Y2830     G2830      -52
    Y2831     COST       24742
    Y2831     G2831      -52
    Y2832     COST       7611
    Y2832     G2832      -52
    Y2833     COST       7977
    Y2833     G2833      -52
    Y2834     COST       12502
    Y2834     G2834      -20
    Y2835     COST       20266
    Y2835     G2835      -52
    Y2836     COST       20394
    Y2836     G2836      -52
    Y2837     COST       22288
    Y2837     G2837      -52
    Y2838     COST       10531
    Y2838     G2838      -52
    Y2839     COST       25520
    Y2839     G2839      -52
    Y2840     COST       12378
    Y2840     G2840      -52
    Y2841     COST       17751
    Y2841     G2841      -52
    Y2842     COST       13272
    Y2842     G2842      -52
    Y2843     COST       19650
    Y2843     G2843      -52
    Y2844     COST       6530
    Y2844     G2844      -52
    Y2845     COST       14189
    Y2845     G2845      -33
    Y2846     COST       17824
    Y2846     G2846      -24
    Y2847     COST       7639
    Y2847     G2847      -52
    Y2848     COST       24713
    Y2848     G2848      -52
    Y2849     COST       14823
    Y2849     G2849      -52
    Y2850     COST       20364
    Y2850     G2850      -52
    Y2851     COST       16915
    Y2851     G2851      -52
    Y2852     COST       8021
    Y2852     G2852      -52
    Y2853     COST       22774
    Y2853     G2853      -52
    Y2854     COST       17507
    Y2854     G2854      -52
    Y2855     COST       8540
    Y2855     G2855      -52
    Y2856     COST       21643
    Y2856     G2856      -52
    Y2857     COST       11196
    Y2857     G2857      -52
    Y2858     COST       18606
    Y2858     G2858      -52
    Y2859     COST       6978
    Y2859     G2859      -52
    Y2860     COST       16787
    Y2860     G2860      -52
    Y2861     COST       19844
    Y2861     G2861      -52
    Y2862     COST       13945
    Y2862     G2862      -52
    Y2863     COST       8568
    Y2863     G2863      -52
    Y2864     COST       13928
    Y2864     G2864      -52
    Y2865     COST       8814
    Y2865     G2865      -52
    Y2866     COST       22057
    Y2866     G2866      -52
    Y2867     COST       12111
    Y2867     G2867      -25
    Y2868     COST       14681
    Y2868     G2868      -52
    Y2869     COST       25418
    Y2869     G2869      -52
    Y2870     COST       8183
    Y2870     G2870      -52
    Y2871     COST       21887
    Y2871     G2871      -52
    Y2872     COST       8640
    Y2872     G2872      -52
    Y2873     COST       24744
    Y2873     G2873      -52
    Y2874     COST       14914
    Y2874     G2874      -52
    Y2875     COST       10068
    Y2875     G2875      -52
    Y2876     COST       20234
    Y2876     G2876      -5
    Y2877     COST       15914
    Y2877     G2877      -52
    Y2878     COST       15160
    Y2878     G2878      -31
    Y2879     COST       7343
    Y2879     G2879      -52
    Y2880     COST       23795
    Y2880     G2880      -52
    Y2881     COST       10055
    Y2881     G2881      -52
    Y2882     COST       6679
    Y2882     G2882      -38
    Y2883     COST       14775
    Y2883     G2883      -6
    Y2884     COST       8919
    Y2884     G2884      -52
    Y2885     COST       8900
    Y2885     G2885      -52
    Y2886     COST       15854
    Y2886     G2886      -52
    Y2887     COST       17109
    Y2887     G2887      -52
    Y2888     COST       17121
    Y2888     G2888      -52
    Y2889     COST       8576
    Y2889     G2889      -52
    Y2890     COST       24678
    Y2890     G2890      -52
    Y2891     COST       11759
    Y2891     G2891      -52
    Y2892     COST       9858
    Y2892     G2892      -52
    Y2893     COST       11760
    Y2893     G2893      -52
    Y2894     COST       10005
    Y2894     G2894      -52
    Y2895     COST       19801
    Y2895     G2895      -52
    Y2896     COST       8207
    Y2896     G2896      -52
    Y2897     COST       20625
    Y2897     G2897      -16
    Y2898     COST       20177
    Y2898     G2898      -52
    Y2899     COST       15137
    Y2899     G2899      -52
    Y2900     COST       16562
    Y2900     G2900      -43
    Y2901     COST       9510
    Y2901     G2901      -203
    Y2902     COST       22220
    Y2902     G2902      -176
    Y2903     COST       12809
    Y2903     G2903      -203
    Y2904     COST       19224
    Y2904     G2904      -93
    Y2905     COST       7913
    Y2905     G2905      -91
    Y2906     COST       6427
    Y2906     G2906      -203
    Y2907     COST       19214
    Y2907     G2907      -123
    Y2908     COST       9423
    Y2908     G2908      -203
    Y2909     COST       21066
    Y2909     G2909      -203
    Y2910     COST       9737
    Y2910     G2910      -159
    Y2911     COST       6428
    Y2911     G2911      -203
    Y2912     COST       16591
    Y2912     G2912      -203
    Y2913     COST       14277
    Y2913     G2913      -154
    Y2914     COST       11805
    Y2914     G2914      -203
    Y2915     COST       11348
    Y2915     G2915      -152
    Y2916     COST       12324
    Y2916     G2916      -203
    Y2917     COST       8989
    Y2917     G2917      -203
    Y2918     COST       17868
    Y2918     G2918      -66
    Y2919     COST       18405
    Y2919     G2919      -203
    Y2920     COST       18234
    Y2920     G2920      -159
    Y2921     COST       11337
    Y2921     G2921      -86
    Y2922     COST       6821
    Y2922     G2922      -203
    Y2923     COST       21330
    Y2923     G2923      -203
    Y2924     COST       14133
    Y2924     G2924      -203
    Y2925     COST       24000
    Y2925     G2925      -203
    Y2926     COST       8373
    Y2926     G2926      -203
    Y2927     COST       20423
    Y2927     G2927      -203
    Y2928     COST       20799
    Y2928     G2928      -203
    Y2929     COST       19704
    Y2929     G2929      -203
    Y2930     COST       8003
    Y2930     G2930      -203
    Y2931     COST       15252
    Y2931     G2931      -203
    Y2932     COST       17799
    Y2932     G2932      -108
    Y2933     COST       19648
    Y2933     G2933      -128
    Y2934     COST       14589
    Y2934     G2934      -20
    Y2935     COST       15721
    Y2935     G2935      -203
    Y2936     COST       10181
    Y2936     G2936      -203
    Y2937     COST       15503
    Y2937     G2937      -203
    Y2938     COST       17768
    Y2938     G2938      -203
    Y2939     COST       11237
    Y2939     G2939      -111
    Y2940     COST       20026
    Y2940     G2940      -123
    Y2941     COST       19413
    Y2941     G2941      -152
    Y2942     COST       15760
    Y2942     G2942      -203
    Y2943     COST       14853
    Y2943     G2943      -203
    Y2944     COST       13516
    Y2944     G2944      -203
    Y2945     COST       7664
    Y2945     G2945      -33
    Y2946     COST       21780
    Y2946     G2946      -24
    Y2947     COST       12018
    Y2947     G2947      -203
    Y2948     COST       18708
    Y2948     G2948      -203
    Y2949     COST       21810
    Y2949     G2949      -136
    Y2950     COST       16474
    Y2950     G2950      -203
    Y2951     COST       18701
    Y2951     G2951      -203
    Y2952     COST       6593
    Y2952     G2952      -203
    Y2953     COST       14722
    Y2953     G2953      -203
    Y2954     COST       12656
    Y2954     G2954      -196
    Y2955     COST       11706
    Y2955     G2955      -203
    Y2956     COST       14700
    Y2956     G2956      -203
    Y2957     COST       13447
    Y2957     G2957      -203
    Y2958     COST       7442
    Y2958     G2958      -203
    Y2959     COST       15983
    Y2959     G2959      -203
    Y2960     COST       8859
    Y2960     G2960      -94
    Y2961     COST       13949
    Y2961     G2961      -203
    Y2962     COST       13411
    Y2962     G2962      -203
    Y2963     COST       16482
    Y2963     G2963      -185
    Y2964     COST       6923
    Y2964     G2964      -203
    Y2965     COST       25335
    Y2965     G2965      -203
    Y2966     COST       20555
    Y2966     G2966      -203
    Y2967     COST       24990
    Y2967     G2967      -25
    Y2968     COST       10309
    Y2968     G2968      -203
    Y2969     COST       12944
    Y2969     G2969      -203
    Y2970     COST       8826
    Y2970     G2970      -203
    Y2971     COST       8054
    Y2971     G2971      -95
    Y2972     COST       22432
    Y2972     G2972      -203
    Y2973     COST       15152
    Y2973     G2973      -203
    Y2974     COST       22324
    Y2974     G2974      -203
    Y2975     COST       21200
    Y2975     G2975      -203
    Y2976     COST       12566
    Y2976     G2976      -5
    Y2977     COST       23053
    Y2977     G2977      -203
    Y2978     COST       13644
    Y2978     G2978      -31
    Y2979     COST       16370
    Y2979     G2979      -203
    Y2980     COST       11153
    Y2980     G2980      -152
    Y2981     COST       8252
    Y2981     G2981      -203
    Y2982     COST       13140
    Y2982     G2982      -38
    Y2983     COST       14787
    Y2983     G2983      -6
    Y2984     COST       8234
    Y2984     G2984      -203
    Y2985     COST       18684
    Y2985     G2985      -109
    Y2986     COST       14410
    Y2986     G2986      -203
    Y2987     COST       20231
    Y2987     G2987      -203
    Y2988     COST       20199
    Y2988     G2988      -147
    Y2989     COST       19809
    Y2989     G2989      -203
    Y2990     COST       22369
    Y2990     G2990      -203
    Y2991     COST       23853
    Y2991     G2991      -203
    Y2992     COST       10780
    Y2992     G2992      -203
    Y2993     COST       17999
    Y2993     G2993      -203
    Y2994     COST       12856
    Y2994     G2994      -130
    Y2995     COST       13635
    Y2995     G2995      -203
    Y2996     COST       11148
    Y2996     G2996      -203
    Y2997     COST       15135
    Y2997     G2997      -16
    Y2998     COST       10767
    Y2998     G2998      -203
    Y2999     COST       24913
    Y2999     G2999      -203
    Y3000     COST       7528
    Y3000     G3000      -43
    Y3001     COST       21309
    Y3001     G3001      -402
    Y3002     COST       10908
    Y3002     G3002      -176
    Y3003     COST       9505
    Y3003     G3003      -526
    Y3004     COST       7690
    Y3004     G3004      -93
    Y3005     COST       9401
    Y3005     G3005      -91
    Y3006     COST       24824
    Y3006     G3006      -729
    Y3007     COST       10452
    Y3007     G3007      -123
    Y3008     COST       14961
    Y3008     G3008      -435
    Y3009     COST       9362
    Y3009     G3009      -461
    Y3010     COST       24067
    Y3010     G3010      -159
    Y3011     COST       17473
    Y3011     G3011      -509
    Y3012     COST       7687
    Y3012     G3012      -218
    Y3013     COST       12781
    Y3013     G3013      -154
    Y3014     COST       6803
    Y3014     G3014      -516
    Y3015     COST       6811
    Y3015     G3015      -152
    Y3016     COST       21503
    Y3016     G3016      -580
    Y3017     COST       11675
    Y3017     G3017      -729
    Y3018     COST       8697
    Y3018     G3018      -66
    Y3019     COST       9006
    Y3019     G3019      -729
    Y3020     COST       18171
    Y3020     G3020      -159
    Y3021     COST       11329
    Y3021     G3021      -86
    Y3022     COST       17692
    Y3022     G3022      -235
    Y3023     COST       19428
    Y3023     G3023      -729
    Y3024     COST       18808
    Y3024     G3024      -729
    Y3025     COST       6443
    Y3025     G3025      -729
    Y3026     COST       8257
    Y3026     G3026      -274
    Y3027     COST       25270
    Y3027     G3027      -729
    Y3028     COST       14216
    Y3028     G3028      -364
    Y3029     COST       19297
    Y3029     G3029      -729
    Y3030     COST       15027
    Y3030     G3030      -325
    Y3031     COST       15504
    Y3031     G3031      -283
    Y3032     COST       6479
    Y3032     G3032      -108
    Y3033     COST       14160
    Y3033     G3033      -128
    Y3034     COST       16489
    Y3034     G3034      -20
    Y3035     COST       13252
    Y3035     G3035      -729
    Y3036     COST       12509
    Y3036     G3036      -499
    Y3037     COST       23258
    Y3037     G3037      -729
    Y3038     COST       19489
    Y3038     G3038      -324
    Y3039     COST       18209
    Y3039     G3039      -111
    Y3040     COST       16707
    Y3040     G3040      -123
    Y3041     COST       24326
    Y3041     G3041      -152
    Y3042     COST       22859
    Y3042     G3042      -441
    Y3043     COST       12767
    Y3043     G3043      -240
    Y3044     COST       19232
    Y3044     G3044      -509
    Y3045     COST       13249
    Y3045     G3045      -33
    Y3046     COST       19613
    Y3046     G3046      -24
    Y3047     COST       13513
    Y3047     G3047      -729
    Y3048     COST       12016
    Y3048     G3048      -401
    Y3049     COST       9304
    Y3049     G3049      -136
    Y3050     COST       12774
    Y3050     G3050      -467
    Y3051     COST       12378
    Y3051     G3051      -729
    Y3052     COST       25032
    Y3052     G3052      -729
    Y3053     COST       14869
    Y3053     G3053      -729
    Y3054     COST       12979
    Y3054     G3054      -196
    Y3055     COST       23443
    Y3055     G3055      -643
    Y3056     COST       8285
    Y3056     G3056      -729
    Y3057     COST       11898
    Y3057     G3057      -248
    Y3058     COST       19310
    Y3058     G3058      -729
    Y3059     COST       18275
    Y3059     G3059      -535
    Y3060     COST       16823
    Y3060     G3060      -94
    Y3061     COST       8337
    Y3061     G3061      -729
    Y3062     COST       15192
    Y3062     G3062      -263
    Y3063     COST       10136
    Y3063     G3063      -185
    Y3064     COST       12559
    Y3064     G3064      -581
    Y3065     COST       20920
    Y3065     G3065      -256
    Y3066     COST       15666
    Y3066     G3066      -238
    Y3067     COST       17331
    Y3067     G3067      -25
    Y3068     COST       14458
    Y3068     G3068      -506
    Y3069     COST       13012
    Y3069     G3069      -560
    Y3070     COST       10095
    Y3070     G3070      -296
    Y3071     COST       24153
    Y3071     G3071      -95
    Y3072     COST       19891
    Y3072     G3072      -729
    Y3073     COST       12552
    Y3073     G3073      -566
    Y3074     COST       6908
    Y3074     G3074      -698
    Y3075     COST       21141
    Y3075     G3075      -286
    Y3076     COST       9169
    Y3076     G3076      -5
    Y3077     COST       18655
    Y3077     G3077      -729
    Y3078     COST       22302
    Y3078     G3078      -31
    Y3079     COST       9682
    Y3079     G3079      -250
    Y3080     COST       23068
    Y3080     G3080      -152
    Y3081     COST       9161
    Y3081     G3081      -729
    Y3082     COST       23757
    Y3082     G3082      -38
    Y3083     COST       15693
    Y3083     G3083      -6
    Y3084     COST       14017
    Y3084     G3084      -309
    Y3085     COST       8618
    Y3085     G3085      -109
    Y3086     COST       13606
    Y3086     G3086      -351
    Y3087     COST       18342
    Y3087     G3087      -432
    Y3088     COST       15109
    Y3088     G3088      -147
    Y3089     COST       24893
    Y3089     G3089      -344
    Y3090     COST       17113
    Y3090     G3090      -729
    Y3091     COST       13331
    Y3091     G3091      -502
    Y3092     COST       13075
    Y3092     G3092      -729
    Y3093     COST       10782
    Y3093     G3093      -367
    Y3094     COST       20620
    Y3094     G3094      -130
    Y3095     COST       8876
    Y3095     G3095      -522
    Y3096     COST       24222
    Y3096     G3096      -258
    Y3097     COST       7308
    Y3097     G3097      -16
    Y3098     COST       21985
    Y3098     G3098      -205
    Y3099     COST       10271
    Y3099     G3099      -729
    Y3100     COST       9335
    Y3100     G3100      -43
    Y3101     COST       16192
    Y3101     G3101      -402
    Y3102     COST       17688
    Y3102     G3102      -176
    Y3103     COST       13862
    Y3103     G3103      -526
    Y3104     COST       12284
    Y3104     G3104      -93
    Y3105     COST       18160
    Y3105     G3105      -91
    Y3106     COST       12405
    Y3106     G3106      -607
    Y3107     COST       6806
    Y3107     G3107      -123
    Y3108     COST       24425
    Y3108     G3108      -435
    Y3109     COST       14957
    Y3109     G3109      -461
    Y3110     COST       19585
    Y3110     G3110      -159
    Y3111     COST       17723
    Y3111     G3111      -509
    Y3112     COST       25483
    Y3112     G3112      -218
    Y3113     COST       19530
    Y3113     G3113      -154
    Y3114     COST       21061
    Y3114     G3114      -516
    Y3115     COST       18410
    Y3115     G3115      -152
    Y3116     COST       20444
    Y3116     G3116      -580
    Y3117     COST       20663
    Y3117     G3117      -607
    Y3118     COST       10950
    Y3118     G3118      -66
    Y3119     COST       6458
    Y3119     G3119      -607
    Y3120     COST       13191
    Y3120     G3120      -159
    Y3121     COST       22945
    Y3121     G3121      -86
    Y3122     COST       12609
    Y3122     G3122      -235
    Y3123     COST       12482
    Y3123     G3123      -607
    Y3124     COST       25500
    Y3124     G3124      -607
    Y3125     COST       17424
    Y3125     G3125      -607
    Y3126     COST       22714
    Y3126     G3126      -274
    Y3127     COST       14926
    Y3127     G3127      -607
    Y3128     COST       14131
    Y3128     G3128      -364
    Y3129     COST       7976
    Y3129     G3129      -607
    Y3130     COST       23237
    Y3130     G3130      -325
    Y3131     COST       12546
    Y3131     G3131      -283
    Y3132     COST       13462
    Y3132     G3132      -108
    Y3133     COST       7239
    Y3133     G3133      -128
    Y3134     COST       25501
    Y3134     G3134      -20
    Y3135     COST       15070
    Y3135     G3135      -607
    Y3136     COST       17383
    Y3136     G3136      -499
    Y3137     COST       7665
    Y3137     G3137      -607
    Y3138     COST       20750
    Y3138     G3138      -324
    Y3139     COST       22240
    Y3139     G3139      -111
    Y3140     COST       13270
    Y3140     G3140      -123
    Y3141     COST       22484
    Y3141     G3141      -152
    Y3142     COST       14636
    Y3142     G3142      -441
    Y3143     COST       18703
    Y3143     G3143      -240
    Y3144     COST       21407
    Y3144     G3144      -509
    Y3145     COST       10673
    Y3145     G3145      -33
    Y3146     COST       23981
    Y3146     G3146      -24
    Y3147     COST       17807
    Y3147     G3147      -607
    Y3148     COST       17731
    Y3148     G3148      -401
    Y3149     COST       18556
    Y3149     G3149      -136
    Y3150     COST       11940
    Y3150     G3150      -467
    Y3151     COST       18289
    Y3151     G3151      -607
    Y3152     COST       7878
    Y3152     G3152      -607
    Y3153     COST       18958
    Y3153     G3153      -607
    Y3154     COST       12458
    Y3154     G3154      -196
    Y3155     COST       13416
    Y3155     G3155      -607
    Y3156     COST       11470
    Y3156     G3156      -607
    Y3157     COST       21114
    Y3157     G3157      -248
    Y3158     COST       12152
    Y3158     G3158      -607
    Y3159     COST       23876
    Y3159     G3159      -535
    Y3160     COST       16049
    Y3160     G3160      -94
    Y3161     COST       25072
    Y3161     G3161      -607
    Y3162     COST       24161
    Y3162     G3162      -263
    Y3163     COST       14687
    Y3163     G3163      -185
    Y3164     COST       16044
    Y3164     G3164      -581
    Y3165     COST       20893
    Y3165     G3165      -256
    Y3166     COST       7410
    Y3166     G3166      -238
    Y3167     COST       8310
    Y3167     G3167      -25
    Y3168     COST       15181
    Y3168     G3168      -506
    Y3169     COST       11763
    Y3169     G3169      -560
    Y3170     COST       16326
    Y3170     G3170      -296
    Y3171     COST       7360
    Y3171     G3171      -95
    Y3172     COST       13911
    Y3172     G3172      -607
    Y3173     COST       20569
    Y3173     G3173      -566
    Y3174     COST       21585
    Y3174     G3174      -607
    Y3175     COST       10824
    Y3175     G3175      -286
    Y3176     COST       13651
    Y3176     G3176      -5
    Y3177     COST       20118
    Y3177     G3177      -607
    Y3178     COST       13689
    Y3178     G3178      -31
    Y3179     COST       21200
    Y3179     G3179      -250
    Y3180     COST       20585
    Y3180     G3180      -152
    Y3181     COST       10800
    Y3181     G3181      -607
    Y3182     COST       21952
    Y3182     G3182      -38
    Y3183     COST       23751
    Y3183     G3183      -6
    Y3184     COST       13665
    Y3184     G3184      -309
    Y3185     COST       20853
    Y3185     G3185      -109
    Y3186     COST       8236
    Y3186     G3186      -351
    Y3187     COST       15105
    Y3187     G3187      -432
    Y3188     COST       14407
    Y3188     G3188      -147
    Y3189     COST       22115
    Y3189     G3189      -344
    Y3190     COST       7095
    Y3190     G3190      -607
    Y3191     COST       22341
    Y3191     G3191      -502
    Y3192     COST       11355
    Y3192     G3192      -607
    Y3193     COST       14360
    Y3193     G3193      -367
    Y3194     COST       8586
    Y3194     G3194      -130
    Y3195     COST       17130
    Y3195     G3195      -522
    Y3196     COST       24924
    Y3196     G3196      -258
    Y3197     COST       12652
    Y3197     G3197      -16
    Y3198     COST       17245
    Y3198     G3198      -205
    Y3199     COST       20295
    Y3199     G3199      -607
    Y3200     COST       21758
    Y3200     G3200      -43
    Y3201     COST       23349
    Y3201     G3201      -402
    Y3202     COST       19167
    Y3202     G3202      -176
    Y3203     COST       17721
    Y3203     G3203      -526
    Y3204     COST       25551
    Y3204     G3204      -93
    Y3205     COST       21522
    Y3205     G3205      -91
    Y3206     COST       18471
    Y3206     G3206      -1200
    Y3207     COST       6810
    Y3207     G3207      -123
    Y3208     COST       16165
    Y3208     G3208      -435
    Y3209     COST       10717
    Y3209     G3209      -461
    Y3210     COST       23542
    Y3210     G3210      -159
    Y3211     COST       22653
    Y3211     G3211      -509
    Y3212     COST       14566
    Y3212     G3212      -218
    Y3213     COST       15831
    Y3213     G3213      -154
    Y3214     COST       16980
    Y3214     G3214      -516
    Y3215     COST       24428
    Y3215     G3215      -152
    Y3216     COST       14333
    Y3216     G3216      -580
    Y3217     COST       16559
    Y3217     G3217      -1171
    Y3218     COST       19909
    Y3218     G3218      -66
    Y3219     COST       13770
    Y3219     G3219      -796
    Y3220     COST       14545
    Y3220     G3220      -159
    Y3221     COST       16554
    Y3221     G3221      -86
    Y3222     COST       6818
    Y3222     G3222      -235
    Y3223     COST       17678
    Y3223     G3223      -737
    Y3224     COST       19548
    Y3224     G3224      -1666
    Y3225     COST       22623
    Y3225     G3225      -1261
    Y3226     COST       13454
    Y3226     G3226      -274
    Y3227     COST       14237
    Y3227     G3227      -1181
    Y3228     COST       20789
    Y3228     G3228      -364
    Y3229     COST       18758
    Y3229     G3229      -1061
    Y3230     COST       15040
    Y3230     G3230      -325
    Y3231     COST       13779
    Y3231     G3231      -283
    Y3232     COST       16714
    Y3232     G3232      -108
    Y3233     COST       16632
    Y3233     G3233      -128
    Y3234     COST       18747
    Y3234     G3234      -20
    Y3235     COST       19171
    Y3235     G3235      -1461
    Y3236     COST       17398
    Y3236     G3236      -499
    Y3237     COST       13755
    Y3237     G3237      -1211
    Y3238     COST       15292
    Y3238     G3238      -324
    Y3239     COST       16257
    Y3239     G3239      -111
    Y3240     COST       24330
    Y3240     G3240      -123
    Y3241     COST       25158
    Y3241     G3241      -152
    Y3242     COST       10999
    Y3242     G3242      -441
    Y3243     COST       12542
    Y3243     G3243      -240
    Y3244     COST       12074
    Y3244     G3244      -509
    Y3245     COST       14635
    Y3245     G3245      -33
    Y3246     COST       20366
    Y3246     G3246      -24
    Y3247     COST       12764
    Y3247     G3247      -1392
    Y3248     COST       8094
    Y3248     G3248      -401
    Y3249     COST       10351
    Y3249     G3249      -136
    Y3250     COST       12358
    Y3250     G3250      -467
    Y3251     COST       12612
    Y3251     G3251      -807
    Y3252     COST       18126
    Y3252     G3252      -737
    Y3253     COST       19454
    Y3253     G3253      -1467
    Y3254     COST       18485
    Y3254     G3254      -196
    Y3255     COST       21394
    Y3255     G3255      -643
    Y3256     COST       17180
    Y3256     G3256      -1666
    Y3257     COST       8567
    Y3257     G3257      -248
    Y3258     COST       22008
    Y3258     G3258      -1620
    Y3259     COST       10320
    Y3259     G3259      -535
    Y3260     COST       21337
    Y3260     G3260      -94
    Y3261     COST       24983
    Y3261     G3261      -1126
    Y3262     COST       23651
    Y3262     G3262      -263
    Y3263     COST       17278
    Y3263     G3263      -185
    Y3264     COST       23727
    Y3264     G3264      -581
    Y3265     COST       19070
    Y3265     G3265      -256
    Y3266     COST       6956
    Y3266     G3266      -238
    Y3267     COST       17198
    Y3267     G3267      -25
    Y3268     COST       16324
    Y3268     G3268      -506
    Y3269     COST       18333
    Y3269     G3269      -560
    Y3270     COST       24600
    Y3270     G3270      -296
    Y3271     COST       7363
    Y3271     G3271      -95
    Y3272     COST       17981
    Y3272     G3272      -1666
    Y3273     COST       22317
    Y3273     G3273      -566
    Y3274     COST       16305
    Y3274     G3274      -698
    Y3275     COST       24655
    Y3275     G3275      -286
    Y3276     COST       24637
    Y3276     G3276      -5
    Y3277     COST       11781
    Y3277     G3277      -1326
    Y3278     COST       10809
    Y3278     G3278      -31
    Y3279     COST       25334
    Y3279     G3279      -250
    Y3280     COST       23381
    Y3280     G3280      -152
    Y3281     COST       23475
    Y3281     G3281      -1443
    Y3282     COST       16838
    Y3282     G3282      -38
    Y3283     COST       20128
    Y3283     G3283      -6
    Y3284     COST       13148
    Y3284     G3284      -309
    Y3285     COST       18627
    Y3285     G3285      -109
    Y3286     COST       11793
    Y3286     G3286      -351
    Y3287     COST       22077
    Y3287     G3287      -432
    Y3288     COST       24192
    Y3288     G3288      -147
    Y3289     COST       14897
    Y3289     G3289      -344
    Y3290     COST       11132
    Y3290     G3290      -1245
    Y3291     COST       15113
    Y3291     G3291      -502
    Y3292     COST       8145
    Y3292     G3292      -806
    Y3293     COST       17626
    Y3293     G3293      -367
    Y3294     COST       11126
    Y3294     G3294      -130
    Y3295     COST       20628
    Y3295     G3295      -522
    Y3296     COST       9578
    Y3296     G3296      -258
    Y3297     COST       9115
    Y3297     G3297      -16
    Y3298     COST       24120
    Y3298     G3298      -205
    Y3299     COST       24789
    Y3299     G3299      -1353
    Y3300     COST       12425
    Y3300     G3300      -43
    Y3301     COST       19364
    Y3301     G3301      -402
    Y3302     COST       18162
    Y3302     G3302      -176
    Y3303     COST       13546
    Y3303     G3303      -526
    Y3304     COST       20469
    Y3304     G3304      -93
    Y3305     COST       7914
    Y3305     G3305      -91
    Y3306     COST       19315
    Y3306     G3306      -1108
    Y3307     COST       17702
    Y3307     G3307      -123
    Y3308     COST       10258
    Y3308     G3308      -435
    Y3309     COST       18467
    Y3309     G3309      -461
    Y3310     COST       21526
    Y3310     G3310      -159
    Y3311     COST       17484
    Y3311     G3311      -509
    Y3312     COST       12026
    Y3312     G3312      -218
    Y3313     COST       18170
    Y3313     G3313      -154
    Y3314     COST       16215
    Y3314     G3314      -516
    Y3315     COST       10236
    Y3315     G3315      -152
    Y3316     COST       10700
    Y3316     G3316      -580
    Y3317     COST       6815
    Y3317     G3317      -1108
    Y3318     COST       19163
    Y3318     G3318      -66
    Y3319     COST       18417
    Y3319     G3319      -796
    Y3320     COST       12817
    Y3320     G3320      -159
    Y3321     COST       12297
    Y3321     G3321      -86
    Y3322     COST       9018
    Y3322     G3322      -235
    Y3323     COST       7995
    Y3323     G3323      -737
    Y3324     COST       13226
    Y3324     G3324      -1108
    Y3325     COST       10974
    Y3325     G3325      -1108
    Y3326     COST       21012
    Y3326     G3326      -274
    Y3327     COST       13753
    Y3327     G3327      -1108
    Y3328     COST       14607
    Y3328     G3328      -364
    Y3329     COST       22282
    Y3329     G3329      -1061
    Y3330     COST       18244
    Y3330     G3330      -325
    Y3331     COST       7939
    Y3331     G3331      -283
    Y3332     COST       21399
    Y3332     G3332      -108
    Y3333     COST       22749
    Y3333     G3333      -128
    Y3334     COST       21391
    Y3334     G3334      -20
    Y3335     COST       11610
    Y3335     G3335      -1108
    Y3336     COST       18722
    Y3336     G3336      -499
    Y3337     COST       15751
    Y3337     G3337      -1108
    Y3338     COST       15727
    Y3338     G3338      -324
    Y3339     COST       15524
    Y3339     G3339      -111
    Y3340     COST       9222
    Y3340     G3340      -123
    Y3341     COST       9067
    Y3341     G3341      -152
    Y3342     COST       16384
    Y3342     G3342      -441
    Y3343     COST       17360
    Y3343     G3343      -240
    Y3344     COST       18476
    Y3344     G3344      -509
    Y3345     COST       23986
    Y3345     G3345      -33
    Y3346     COST       9224
    Y3346     G3346      -24
    Y3347     COST       21355
    Y3347     G3347      -1108
    Y3348     COST       14273
    Y3348     G3348      -401
    Y3349     COST       15088
    Y3349     G3349      -136
    Y3350     COST       7467
    Y3350     G3350      -467
    Y3351     COST       25019
    Y3351     G3351      -807
    Y3352     COST       20062
    Y3352     G3352      -737
    Y3353     COST       23908
    Y3353     G3353      -1108
    Y3354     COST       20279
    Y3354     G3354      -196
    Y3355     COST       20080
    Y3355     G3355      -643
    Y3356     COST       14704
    Y3356     G3356      -1108
    Y3357     COST       9228
    Y3357     G3357      -248
    Y3358     COST       17135
    Y3358     G3358      -1108
    Y3359     COST       16011
    Y3359     G3359      -535
    Y3360     COST       21384
    Y3360     G3360      -94
    Y3361     COST       18953
    Y3361     G3361      -1108
    Y3362     COST       24982
    Y3362     G3362      -263
    Y3363     COST       18092
    Y3363     G3363      -185
    Y3364     COST       22443
    Y3364     G3364      -581
    Y3365     COST       13398
    Y3365     G3365      -256
    Y3366     COST       22050
    Y3366     G3366      -238
    Y3367     COST       10965
    Y3367     G3367      -25
    Y3368     COST       8827
    Y3368     G3368      -506
    Y3369     COST       9205
    Y3369     G3369      -560
    Y3370     COST       10327
    Y3370     G3370      -296
    Y3371     COST       18098
    Y3371     G3371      -95
    Y3372     COST       7024
    Y3372     G3372      -1108
    Y3373     COST       8867
    Y3373     G3373      -566
    Y3374     COST       10335
    Y3374     G3374      -698
    Y3375     COST       24149
    Y3375     G3375      -286
    Y3376     COST       13649
    Y3376     G3376      -5
    Y3377     COST       19447
    Y3377     G3377      -1108
    Y3378     COST       11866
    Y3378     G3378      -31
    Y3379     COST       14919
    Y3379     G3379      -250
    Y3380     COST       8642
    Y3380     G3380      -152
    Y3381     COST       22086
    Y3381     G3381      -1108
    Y3382     COST       9176
    Y3382     G3382      -38
    Y3383     COST       12681
    Y3383     G3383      -6
    Y3384     COST       11858
    Y3384     G3384      -309
    Y3385     COST       7799
    Y3385     G3385      -109
    Y3386     COST       19361
    Y3386     G3386      -351
    Y3387     COST       16310
    Y3387     G3387      -432
    Y3388     COST       7787
    Y3388     G3388      -147
    Y3389     COST       19813
    Y3389     G3389      -344
    Y3390     COST       17214
    Y3390     G3390      -1108
    Y3391     COST       8139
    Y3391     G3391      -502
    Y3392     COST       12206
    Y3392     G3392      -806
    Y3393     COST       14742
    Y3393     G3393      -367
    Y3394     COST       11384
    Y3394     G3394      -130
    Y3395     COST       14371
    Y3395     G3395      -522
    Y3396     COST       15872
    Y3396     G3396      -258
    Y3397     COST       15655
    Y3397     G3397      -16
    Y3398     COST       8885
    Y3398     G3398      -205
    Y3399     COST       22454
    Y3399     G3399      -1108
    Y3400     COST       16192
    Y3400     G3400      -43
    Y3401     COST       12801
    Y3401     G3401      -402
    Y3402     COST       14072
    Y3402     G3402      -176
    Y3403     COST       12270
    Y3403     G3403      -526
    Y3404     COST       11528
    Y3404     G3404      -93
    Y3405     COST       8006
    Y3405     G3405      -91
    Y3406     COST       23529
    Y3406     G3406      -1200
    Y3407     COST       6450
    Y3407     G3407      -123
    Y3408     COST       16670
    Y3408     G3408      -435
    Y3409     COST       12039
    Y3409     G3409      -461
    Y3410     COST       24827
    Y3410     G3410      -159
    Y3411     COST       20499
    Y3411     G3411      -509
    Y3412     COST       15461
    Y3412     G3412      -218
    Y3413     COST       17497
    Y3413     G3413      -154
    Y3414     COST       12092
    Y3414     G3414      -516
    Y3415     COST       12842
    Y3415     G3415      -152
    Y3416     COST       19162
    Y3416     G3416      -580
    Y3417     COST       11008
    Y3417     G3417      -1171
    Y3418     COST       12380
    Y3418     G3418      -66
    Y3419     COST       10264
    Y3419     G3419      -796
    Y3420     COST       12315
    Y3420     G3420      -159
    Y3421     COST       15447
    Y3421     G3421      -86
    Y3422     COST       19170
    Y3422     G3422      -235
    Y3423     COST       19515
    Y3423     G3423      -737
    Y3424     COST       7625
    Y3424     G3424      -1918
    Y3425     COST       16291
    Y3425     G3425      -1261
    Y3426     COST       17793
    Y3426     G3426      -274
    Y3427     COST       22736
    Y3427     G3427      -1181
    Y3428     COST       21375
    Y3428     G3428      -364
    Y3429     COST       12506
    Y3429     G3429      -1061
    Y3430     COST       8041
    Y3430     G3430      -325
    Y3431     COST       15279
    Y3431     G3431      -283
    Y3432     COST       9260
    Y3432     G3432      -108
    Y3433     COST       9757
    Y3433     G3433      -128
    Y3434     COST       17382
    Y3434     G3434      -20
    Y3435     COST       24511
    Y3435     G3435      -1461
    Y3436     COST       11024
    Y3436     G3436      -499
    Y3437     COST       23584
    Y3437     G3437      -1211
    Y3438     COST       24359
    Y3438     G3438      -324
    Y3439     COST       11033
    Y3439     G3439      -111
    Y3440     COST       19450
    Y3440     G3440      -123
    Y3441     COST       15522
    Y3441     G3441      -152
    Y3442     COST       13959
    Y3442     G3442      -441
    Y3443     COST       9307
    Y3443     G3443      -240
    Y3444     COST       8024
    Y3444     G3444      -509
    Y3445     COST       20899
    Y3445     G3445      -33
    Y3446     COST       14185
    Y3446     G3446      -24
    Y3447     COST       6743
    Y3447     G3447      -1392
    Y3448     COST       19395
    Y3448     G3448      -401
    Y3449     COST       24114
    Y3449     G3449      -136
    Y3450     COST       11088
    Y3450     G3450      -467
    Y3451     COST       21101
    Y3451     G3451      -807
    Y3452     COST       20511
    Y3452     G3452      -737
    Y3453     COST       24984
    Y3453     G3453      -1467
    Y3454     COST       12122
    Y3454     G3454      -196
    Y3455     COST       14443
    Y3455     G3455      -643
    Y3456     COST       20541
    Y3456     G3456      -1867
    Y3457     COST       23142
    Y3457     G3457      -248
    Y3458     COST       7033
    Y3458     G3458      -1620
    Y3459     COST       15565
    Y3459     G3459      -535
    Y3460     COST       19870
    Y3460     G3460      -94
    Y3461     COST       7285
    Y3461     G3461      -1126
    Y3462     COST       24612
    Y3462     G3462      -263
    Y3463     COST       11655
    Y3463     G3463      -185
    Y3464     COST       17073
    Y3464     G3464      -581
    Y3465     COST       21673
    Y3465     G3465      -256
    Y3466     COST       9577
    Y3466     G3466      -238
    Y3467     COST       17347
    Y3467     G3467      -25
    Y3468     COST       10111
    Y3468     G3468      -506
    Y3469     COST       10324
    Y3469     G3469      -560
    Y3470     COST       16814
    Y3470     G3470      -296
    Y3471     COST       17340
    Y3471     G3471      -95
    Y3472     COST       8831
    Y3472     G3472      -1918
    Y3473     COST       7401
    Y3473     G3473      -566
    Y3474     COST       12925
    Y3474     G3474      -698
    Y3475     COST       23831
    Y3475     G3475      -286
    Y3476     COST       17602
    Y3476     G3476      -5
    Y3477     COST       13669
    Y3477     G3477      -1326
    Y3478     COST       17984
    Y3478     G3478      -31
    Y3479     COST       12238
    Y3479     G3479      -250
    Y3480     COST       15919
    Y3480     G3480      -152
    Y3481     COST       16486
    Y3481     G3481      -1443
    Y3482     COST       14794
    Y3482     G3482      -38
    Y3483     COST       24204
    Y3483     G3483      -6
    Y3484     COST       25338
    Y3484     G3484      -309
    Y3485     COST       17966
    Y3485     G3485      -109
    Y3486     COST       11051
    Y3486     G3486      -351
    Y3487     COST       8600
    Y3487     G3487      -432
    Y3488     COST       22130
    Y3488     G3488      -147
    Y3489     COST       15964
    Y3489     G3489      -344
    Y3490     COST       16118
    Y3490     G3490      -1245
    Y3491     COST       7080
    Y3491     G3491      -502
    Y3492     COST       7317
    Y3492     G3492      -806
    Y3493     COST       22895
    Y3493     G3493      -367
    Y3494     COST       18671
    Y3494     G3494      -130
    Y3495     COST       9628
    Y3495     G3495      -522
    Y3496     COST       9631
    Y3496     G3496      -258
    Y3497     COST       11756
    Y3497     G3497      -16
    Y3498     COST       19355
    Y3498     G3498      -205
    Y3499     COST       9791
    Y3499     G3499      -1353
    Y3500     COST       13173
    Y3500     G3500      -43
    Y3501     COST       21531
    Y3501     G3501      -177
    Y3502     COST       21085
    Y3502     G3502      -176
    Y3503     COST       8439
    Y3503     G3503      -177
    Y3504     COST       15435
    Y3504     G3504      -93
    Y3505     COST       19956
    Y3505     G3505      -91
    Y3506     COST       7918
    Y3506     G3506      -177
    Y3507     COST       12286
    Y3507     G3507      -123
    Y3508     COST       12253
    Y3508     G3508      -177
    Y3509     COST       22644
    Y3509     G3509      -177
    Y3510     COST       18845
    Y3510     G3510      -159
    Y3511     COST       19585
    Y3511     G3511      -177
    Y3512     COST       15418
    Y3512     G3512      -177
    Y3513     COST       7188
    Y3513     G3513      -154
    Y3514     COST       10462
    Y3514     G3514      -177
    Y3515     COST       19907
    Y3515     G3515      -152
    Y3516     COST       23018
    Y3516     G3516      -177
    Y3517     COST       21549
    Y3517     G3517      -177
    Y3518     COST       10944
    Y3518     G3518      -66
    Y3519     COST       21281
    Y3519     G3519      -177
    Y3520     COST       12299
    Y3520     G3520      -159
    Y3521     COST       15825
    Y3521     G3521      -86
    Y3522     COST       17940
    Y3522     G3522      -177
    Y3523     COST       19556
    Y3523     G3523      -177
    Y3524     COST       16960
    Y3524     G3524      -177
    Y3525     COST       22975
    Y3525     G3525      -177
    Y3526     COST       7586
    Y3526     G3526      -177
    Y3527     COST       14591
    Y3527     G3527      -177
    Y3528     COST       22952
    Y3528     G3528      -177
    Y3529     COST       11215
    Y3529     G3529      -177
    Y3530     COST       13163
    Y3530     G3530      -177
    Y3531     COST       14104
    Y3531     G3531      -177
    Y3532     COST       13191
    Y3532     G3532      -108
    Y3533     COST       16977
    Y3533     G3533      -128
    Y3534     COST       13757
    Y3534     G3534      -20
    Y3535     COST       11611
    Y3535     G3535      -177
    Y3536     COST       16712
    Y3536     G3536      -177
    Y3537     COST       12712
    Y3537     G3537      -177
    Y3538     COST       11595
    Y3538     G3538      -177
    Y3539     COST       16735
    Y3539     G3539      -111
    Y3540     COST       22676
    Y3540     G3540      -123
    Y3541     COST       7235
    Y3541     G3541      -152
    Y3542     COST       21825
    Y3542     G3542      -177
    Y3543     COST       11965
    Y3543     G3543      -177
    Y3544     COST       14181
    Y3544     G3544      -177
    Y3545     COST       10644
    Y3545     G3545      -33
    Y3546     COST       22923
    Y3546     G3546      -24
    Y3547     COST       21468
    Y3547     G3547      -177
    Y3548     COST       10209
    Y3548     G3548      -177
    Y3549     COST       20045
    Y3549     G3549      -136
    Y3550     COST       23149
    Y3550     G3550      -177
    Y3551     COST       15235
    Y3551     G3551      -177
    Y3552     COST       15523
    Y3552     G3552      -177
    Y3553     COST       15749
    Y3553     G3553      -177
    Y3554     COST       19391
    Y3554     G3554      -177
    Y3555     COST       7436
    Y3555     G3555      -177
    Y3556     COST       12819
    Y3556     G3556      -177
    Y3557     COST       22002
    Y3557     G3557      -177
    Y3558     COST       12763
    Y3558     G3558      -177
    Y3559     COST       22937
    Y3559     G3559      -177
    Y3560     COST       8841
    Y3560     G3560      -94
    Y3561     COST       15320
    Y3561     G3561      -177
    Y3562     COST       23663
    Y3562     G3562      -177
    Y3563     COST       7010
    Y3563     G3563      -177
    Y3564     COST       11692
    Y3564     G3564      -177
    Y3565     COST       8504
    Y3565     G3565      -177
    Y3566     COST       23946
    Y3566     G3566      -177
    Y3567     COST       19403
    Y3567     G3567      -25
    Y3568     COST       7382
    Y3568     G3568      -177
    Y3569     COST       19885
    Y3569     G3569      -177
    Y3570     COST       18908
    Y3570     G3570      -177
    Y3571     COST       21892
    Y3571     G3571      -95
    Y3572     COST       18098
    Y3572     G3572      -177
    Y3573     COST       9947
    Y3573     G3573      -177
    Y3574     COST       25314
    Y3574     G3574      -177
    Y3575     COST       19447
    Y3575     G3575      -177
    Y3576     COST       16844
    Y3576     G3576      -5
    Y3577     COST       24852
    Y3577     G3577      -177
    Y3578     COST       22412
    Y3578     G3578      -31
    Y3579     COST       9698
    Y3579     G3579      -177
    Y3580     COST       25089
    Y3580     G3580      -152
    Y3581     COST       20909
    Y3581     G3581      -177
    Y3582     COST       13370
    Y3582     G3582      -38
    Y3583     COST       18654
    Y3583     G3583      -6
    Y3584     COST       18645
    Y3584     G3584      -177
    Y3585     COST       9647
    Y3585     G3585      -109
    Y3586     COST       13660
    Y3586     G3586      -177
    Y3587     COST       25559
    Y3587     G3587      -177
    Y3588     COST       11165
    Y3588     G3588      -147
    Y3589     COST       6678
    Y3589     G3589      -177
    Y3590     COST       11353
    Y3590     G3590      -177
    Y3591     COST       13609
    Y3591     G3591      -177
    Y3592     COST       21569
    Y3592     G3592      -177
    Y3593     COST       22860
    Y3593     G3593      -177
    Y3594     COST       22120
    Y3594     G3594      -130
    Y3595     COST       9631
    Y3595     G3595      -177
    Y3596     COST       14791
    Y3596     G3596      -177
    Y3597     COST       17102
    Y3597     G3597      -16
    Y3598     COST       16320
    Y3598     G3598      -177
    Y3599     COST       15087
    Y3599     G3599      -177
    Y3600     COST       16190
    Y3600     G3600      -43
    Y3601     COST       7159
    Y3601     G3601      -277
    Y3602     COST       12274
    Y3602     G3602      -176
    Y3603     COST       12800
    Y3603     G3603      -277
    Y3604     COST       22658
    Y3604     G3604      -93
    Y3605     COST       25217
    Y3605     G3605      -91
    Y3606     COST       7160
    Y3606     G3606      -277
    Y3607     COST       19943
    Y3607     G3607      -123
    Y3608     COST       7550
    Y3608     G3608      -277
    Y3609     COST       23548
    Y3609     G3609      -277
    Y3610     COST       13858
    Y3610     G3610      -159
    Y3611     COST       14057
    Y3611     G3611      -277
    Y3612     COST       23043
    Y3612     G3612      -218
    Y3613     COST       21054
    Y3613     G3613      -154
    Y3614     COST       7578
    Y3614     G3614      -277
    Y3615     COST       8449
    Y3615     G3615      -152
    Y3616     COST       24434
    Y3616     G3616      -277
    Y3617     COST       6456
    Y3617     G3617      -277
    Y3618     COST       22577
    Y3618     G3618      -66
    Y3619     COST       22552
    Y3619     G3619      -277
    Y3620     COST       10513
    Y3620     G3620      -159
    Y3621     COST       24251
    Y3621     G3621      -86
    Y3622     COST       25536
    Y3622     G3622      -235
    Y3623     COST       19178
    Y3623     G3623      -277
    Y3624     COST       22530
    Y3624     G3624      -277
    Y3625     COST       22271
    Y3625     G3625      -277
    Y3626     COST       9285
    Y3626     G3626      -274
    Y3627     COST       15030
    Y3627     G3627      -277
    Y3628     COST       8012
    Y3628     G3628      -277
    Y3629     COST       23616
    Y3629     G3629      -277
    Y3630     COST       20415
    Y3630     G3630      -277
    Y3631     COST       13468
    Y3631     G3631      -277
    Y3632     COST       10621
    Y3632     G3632      -108
    Y3633     COST       18807
    Y3633     G3633      -128
    Y3634     COST       16944
    Y3634     G3634      -20
    Y3635     COST       24328
    Y3635     G3635      -277
    Y3636     COST       22738
    Y3636     G3636      -277
    Y3637     COST       22170
    Y3637     G3637      -277
    Y3638     COST       11230
    Y3638     G3638      -277
    Y3639     COST       11251
    Y3639     G3639      -111
    Y3640     COST       7454
    Y3640     G3640      -123
    Y3641     COST       14247
    Y3641     G3641      -152
    Y3642     COST       20748
    Y3642     G3642      -277
    Y3643     COST       23273
    Y3643     G3643      -240
    Y3644     COST       19483
    Y3644     G3644      -277
    Y3645     COST       6528
    Y3645     G3645      -33
    Y3646     COST       9288
    Y3646     G3646      -24
    Y3647     COST       18704
    Y3647     G3647      -277
    Y3648     COST       21426
    Y3648     G3648      -277
    Y3649     COST       7640
    Y3649     G3649      -136
    Y3650     COST       21657
    Y3650     G3650      -277
    Y3651     COST       17280
    Y3651     G3651      -277
    Y3652     COST       10142
    Y3652     G3652      -277
    Y3653     COST       9549
    Y3653     G3653      -277
    Y3654     COST       22926
    Y3654     G3654      -196
    Y3655     COST       14478
    Y3655     G3655      -277
    Y3656     COST       22402
    Y3656     G3656      -277
    Y3657     COST       14868
    Y3657     G3657      -248
    Y3658     COST       11694
    Y3658     G3658      -277
    Y3659     COST       13951
    Y3659     G3659      -277
    Y3660     COST       18962
    Y3660     G3660      -94
    Y3661     COST       16760
    Y3661     G3661      -277
    Y3662     COST       8872
    Y3662     G3662      -263
    Y3663     COST       16401
    Y3663     G3663      -185
    Y3664     COST       8017
    Y3664     G3664      -277
    Y3665     COST       21698
    Y3665     G3665      -256
    Y3666     COST       13701
    Y3666     G3666      -238
    Y3667     COST       8813
    Y3667     G3667      -25
    Y3668     COST       23881
    Y3668     G3668      -277
    Y3669     COST       23919
    Y3669     G3669      -277
    Y3670     COST       21157
    Y3670     G3670      -277
    Y3671     COST       14426
    Y3671     G3671      -95
    Y3672     COST       22027
    Y3672     G3672      -277
    Y3673     COST       16789
    Y3673     G3673      -277
    Y3674     COST       7377
    Y3674     G3674      -277
    Y3675     COST       13018
    Y3675     G3675      -277
    Y3676     COST       8640
    Y3676     G3676      -5
    Y3677     COST       22318
    Y3677     G3677      -277
    Y3678     COST       18045
    Y3678     G3678      -31
    Y3679     COST       17987
    Y3679     G3679      -250
    Y3680     COST       11920
    Y3680     G3680      -152
    Y3681     COST       14915
    Y3681     G3681      -277
    Y3682     COST       16329
    Y3682     G3682      -38
    Y3683     COST       15894
    Y3683     G3683      -6
    Y3684     COST       9923
    Y3684     G3684      -277
    Y3685     COST       8160
    Y3685     G3685      -109
    Y3686     COST       15715
    Y3686     G3686      -277
    Y3687     COST       8607
    Y3687     G3687      -277
    Y3688     COST       23083
    Y3688     G3688      -147
    Y3689     COST       16372
    Y3689     G3689      -277
    Y3690     COST       23385
    Y3690     G3690      -277
    Y3691     COST       13609
    Y3691     G3691      -277
    Y3692     COST       23097
    Y3692     G3692      -277
    Y3693     COST       14737
    Y3693     G3693      -277
    Y3694     COST       15862
    Y3694     G3694      -130
    Y3695     COST       23858
    Y3695     G3695      -277
    Y3696     COST       18004
    Y3696     G3696      -258
    Y3697     COST       19339
    Y3697     G3697      -16
    Y3698     COST       16028
    Y3698     G3698      -205
    Y3699     COST       23679
    Y3699     G3699      -277
    Y3700     COST       12273
    Y3700     G3700      -43
    Y3701     COST       10483
    Y3701     G3701      -402
    Y3702     COST       18818
    Y3702     G3702      -176
    Y3703     COST       13536
    Y3703     G3703      -526
    Y3704     COST       16663
    Y3704     G3704      -93
    Y3705     COST       20492
    Y3705     G3705      -91
    Y3706     COST       16213
    Y3706     G3706      -543
    Y3707     COST       15342
    Y3707     G3707      -123
    Y3708     COST       7703
    Y3708     G3708      -435
    Y3709     COST       20490
    Y3709     G3709      -461
    Y3710     COST       13539
    Y3710     G3710      -159
    Y3711     COST       12035
    Y3711     G3711      -509
    Y3712     COST       12266
    Y3712     G3712      -218
    Y3713     COST       7182
    Y3713     G3713      -154
    Y3714     COST       14343
    Y3714     G3714      -516
    Y3715     COST       7967
    Y3715     G3715      -152
    Y3716     COST       10433
    Y3716     G3716      -543
    Y3717     COST       12264
    Y3717     G3717      -543
    Y3718     COST       9388
    Y3718     G3718      -66
    Y3719     COST       25169
    Y3719     G3719      -543
    Y3720     COST       24278
    Y3720     G3720      -159
    Y3721     COST       24409
    Y3721     G3721      -86
    Y3722     COST       20671
    Y3722     G3722      -235
    Y3723     COST       10498
    Y3723     G3723      -543
    Y3724     COST       12464
    Y3724     G3724      -543
    Y3725     COST       18444
    Y3725     G3725      -543
    Y3726     COST       14566
    Y3726     G3726      -274
    Y3727     COST       10522
    Y3727     G3727      -543
    Y3728     COST       13252
    Y3728     G3728      -364
    Y3729     COST       25299
    Y3729     G3729      -543
    Y3730     COST       17414
    Y3730     G3730      -325
    Y3731     COST       6470
    Y3731     G3731      -283
    Y3732     COST       7251
    Y3732     G3732      -108
    Y3733     COST       11560
    Y3733     G3733      -128
    Y3734     COST       13770
    Y3734     G3734      -20
    Y3735     COST       19639
    Y3735     G3735      -543
    Y3736     COST       23246
    Y3736     G3736      -499
    Y3737     COST       15516
    Y3737     G3737      -543
    Y3738     COST       24702
    Y3738     G3738      -324
    Y3739     COST       11951
    Y3739     G3739      -111
    Y3740     COST       8787
    Y3740     G3740      -123
    Y3741     COST       10528
    Y3741     G3741      -152
    Y3742     COST       16928
    Y3742     G3742      -441
    Y3743     COST       15497
    Y3743     G3743      -240
    Y3744     COST       12769
    Y3744     G3744      -509
    Y3745     COST       20368
    Y3745     G3745      -33
    Y3746     COST       23562
    Y3746     G3746      -24
    Y3747     COST       24751
    Y3747     G3747      -543
    Y3748     COST       20065
    Y3748     G3748      -401
    Y3749     COST       24496
    Y3749     G3749      -136
    Y3750     COST       11023
    Y3750     G3750      -467
    Y3751     COST       10961
    Y3751     G3751      -543
    Y3752     COST       11239
    Y3752     G3752      -543
    Y3753     COST       14858
    Y3753     G3753      -543
    Y3754     COST       10209
    Y3754     G3754      -196
    Y3755     COST       24346
    Y3755     G3755      -543
    Y3756     COST       21855
    Y3756     G3756      -543
    Y3757     COST       20311
    Y3757     G3757      -248
    Y3758     COST       13956
    Y3758     G3758      -543
    Y3759     COST       12889
    Y3759     G3759      -535
    Y3760     COST       13946
    Y3760     G3760      -94
    Y3761     COST       23885
    Y3761     G3761      -543
    Y3762     COST       22766
    Y3762     G3762      -263
    Y3763     COST       24983
    Y3763     G3763      -185
    Y3764     COST       18048
    Y3764     G3764      -543
    Y3765     COST       23493
    Y3765     G3765      -256
    Y3766     COST       14829
    Y3766     G3766      -238
    Y3767     COST       24619
    Y3767     G3767      -25
    Y3768     COST       9190
    Y3768     G3768      -506
    Y3769     COST       17171
    Y3769     G3769      -543
    Y3770     COST       16066
    Y3770     G3770      -296
    Y3771     COST       22042
    Y3771     G3771      -95
    Y3772     COST       8404
    Y3772     G3772      -543
    Y3773     COST       11702
    Y3773     G3773      -543
    Y3774     COST       7392
    Y3774     G3774      -543
    Y3775     COST       15671
    Y3775     G3775      -286
    Y3776     COST       21561
    Y3776     G3776      -5
    Y3777     COST       20925
    Y3777     G3777      -543
    Y3778     COST       24627
    Y3778     G3778      -31
    Y3779     COST       21176
    Y3779     G3779      -250
    Y3780     COST       13124
    Y3780     G3780      -152
    Y3781     COST       6905
    Y3781     G3781      -543
    Y3782     COST       12694
    Y3782     G3782      -38
    Y3783     COST       7799
    Y3783     G3783      -6
    Y3784     COST       15940
    Y3784     G3784      -309
    Y3785     COST       21586
    Y3785     G3785      -109
    Y3786     COST       18870
    Y3786     G3786      -351
    Y3787     COST       25079
    Y3787     G3787      -432
    Y3788     COST       24247
    Y3788     G3788      -147
    Y3789     COST       25121
    Y3789     G3789      -344
    Y3790     COST       21230
    Y3790     G3790      -543
    Y3791     COST       6876
    Y3791     G3791      -502
    Y3792     COST       10037
    Y3792     G3792      -543
    Y3793     COST       13302
    Y3793     G3793      -367
    Y3794     COST       8213
    Y3794     G3794      -130
    Y3795     COST       20619
    Y3795     G3795      -522
    Y3796     COST       16864
    Y3796     G3796      -258
    Y3797     COST       10011
    Y3797     G3797      -16
    Y3798     COST       21606
    Y3798     G3798      -205
    Y3799     COST       7781
    Y3799     G3799      -543
    Y3800     COST       8964
    Y3800     G3800      -43
    Y3801     COST       11587
    Y3801     G3801      -402
    Y3802     COST       16575
    Y3802     G3802      -176
    Y3803     COST       21315
    Y3803     G3803      -526
    Y3804     COST       11304
    Y3804     G3804      -93
    Y3805     COST       8434
    Y3805     G3805      -91
    Y3806     COST       15797
    Y3806     G3806      -1154
    Y3807     COST       7917
    Y3807     G3807      -123
    Y3808     COST       18520
    Y3808     G3808      -435
    Y3809     COST       17949
    Y3809     G3809      -461
    Y3810     COST       22580
    Y3810     G3810      -159
    Y3811     COST       10274
    Y3811     G3811      -509
    Y3812     COST       17720
    Y3812     G3812      -218
    Y3813     COST       17909
    Y3813     G3813      -154
    Y3814     COST       14112
    Y3814     G3814      -516
    Y3815     COST       14342
    Y3815     G3815      -152
    Y3816     COST       21497
    Y3816     G3816      -580
    Y3817     COST       15474
    Y3817     G3817      -1154
    Y3818     COST       7941
    Y3818     G3818      -66
    Y3819     COST       14349
    Y3819     G3819      -796
    Y3820     COST       6487
    Y3820     G3820      -159
    Y3821     COST       23309
    Y3821     G3821      -86
    Y3822     COST       9386
    Y3822     G3822      -235
    Y3823     COST       20681
    Y3823     G3823      -737
    Y3824     COST       17909
    Y3824     G3824      -1154
    Y3825     COST       14323
    Y3825     G3825      -1154
    Y3826     COST       24000
    Y3826     G3826      -274
    Y3827     COST       10292
    Y3827     G3827      -1154
    Y3828     COST       21445
    Y3828     G3828      -364
    Y3829     COST       6732
    Y3829     G3829      -1061
    Y3830     COST       17451
    Y3830     G3830      -325
    Y3831     COST       13461
    Y3831     G3831      -283
    Y3832     COST       17133
    Y3832     G3832      -108
    Y3833     COST       12528
    Y3833     G3833      -128
    Y3834     COST       15525
    Y3834     G3834      -20
    Y3835     COST       23604
    Y3835     G3835      -1154
    Y3836     COST       15292
    Y3836     G3836      -499
    Y3837     COST       24481
    Y3837     G3837      -1154
    Y3838     COST       17761
    Y3838     G3838      -324
    Y3839     COST       10274
    Y3839     G3839      -111
    Y3840     COST       19619
    Y3840     G3840      -123
    Y3841     COST       17533
    Y3841     G3841      -152
    Y3842     COST       25466
    Y3842     G3842      -441
    Y3843     COST       16919
    Y3843     G3843      -240
    Y3844     COST       12756
    Y3844     G3844      -509
    Y3845     COST       22705
    Y3845     G3845      -33
    Y3846     COST       19612
    Y3846     G3846      -24
    Y3847     COST       10874
    Y3847     G3847      -1154
    Y3848     COST       19618
    Y3848     G3848      -401
    Y3849     COST       20972
    Y3849     G3849      -136
    Y3850     COST       24955
    Y3850     G3850      -467
    Y3851     COST       15620
    Y3851     G3851      -807
    Y3852     COST       24130
    Y3852     G3852      -737
    Y3853     COST       9219
    Y3853     G3853      -1154
    Y3854     COST       11722
    Y3854     G3854      -196
    Y3855     COST       10894
    Y3855     G3855      -643
    Y3856     COST       23668
    Y3856     G3856      -1154
    Y3857     COST       24158
    Y3857     G3857      -248
    Y3858     COST       24564
    Y3858     G3858      -1154
    Y3859     COST       22404
    Y3859     G3859      -535
    Y3860     COST       7440
    Y3860     G3860      -94
    Y3861     COST       22014
    Y3861     G3861      -1126
    Y3862     COST       16411
    Y3862     G3862      -263
    Y3863     COST       18601
    Y3863     G3863      -185
    Y3864     COST       20877
    Y3864     G3864      -581
    Y3865     COST       13026
    Y3865     G3865      -256
    Y3866     COST       22431
    Y3866     G3866      -238
    Y3867     COST       23694
    Y3867     G3867      -25
    Y3868     COST       9573
    Y3868     G3868      -506
    Y3869     COST       19063
    Y3869     G3869      -560
    Y3870     COST       15207
    Y3870     G3870      -296
    Y3871     COST       14811
    Y3871     G3871      -95
    Y3872     COST       21905
    Y3872     G3872      -1154
    Y3873     COST       15935
    Y3873     G3873      -566
    Y3874     COST       7399
    Y3874     G3874      -698
    Y3875     COST       18316
    Y3875     G3875      -286
    Y3876     COST       20547
    Y3876     G3876      -5
    Y3877     COST       10877
    Y3877     G3877      -1154
    Y3878     COST       9945
    Y3878     G3878      -31
    Y3879     COST       6942
    Y3879     G3879      -250
    Y3880     COST       23716
    Y3880     G3880      -152
    Y3881     COST       10057
    Y3881     G3881      -1154
    Y3882     COST       21950
    Y3882     G3882      -38
    Y3883     COST       16320
    Y3883     G3883      -6
    Y3884     COST       14710
    Y3884     G3884      -309
    Y3885     COST       17964
    Y3885     G3885      -109
    Y3886     COST       17063
    Y3886     G3886      -351
    Y3887     COST       16082
    Y3887     G3887      -432
    Y3888     COST       17122
    Y3888     G3888      -147
    Y3889     COST       24213
    Y3889     G3889      -344
    Y3890     COST       9657
    Y3890     G3890      -1154
    Y3891     COST       17637
    Y3891     G3891      -502
    Y3892     COST       14373
    Y3892     G3892      -806
    Y3893     COST       9660
    Y3893     G3893      -367
    Y3894     COST       7759
    Y3894     G3894      -130
    Y3895     COST       16871
    Y3895     G3895      -522
    Y3896     COST       8579
    Y3896     G3896      -258
    Y3897     COST       13325
    Y3897     G3897      -16
    Y3898     COST       19425
    Y3898     G3898      -205
    Y3899     COST       25453
    Y3899     G3899      -1154
    Y3900     COST       24470
    Y3900     G3900      -43
    Y3901     COST       19580
    Y3901     G3901      -402
    Y3902     COST       9146
    Y3902     G3902      -176
    Y3903     COST       10905
    Y3903     G3903      -526
    Y3904     COST       18146
    Y3904     G3904      -93
    Y3905     COST       25208
    Y3905     G3905      -91
    Y3906     COST       17022
    Y3906     G3906      -528
    Y3907     COST       10456
    Y3907     G3907      -123
    Y3908     COST       7906
    Y3908     G3908      -435
    Y3909     COST       12778
    Y3909     G3909      -461
    Y3910     COST       12853
    Y3910     G3910      -159
    Y3911     COST       24070
    Y3911     G3911      -509
    Y3912     COST       10680
    Y3912     G3912      -218
    Y3913     COST       9408
    Y3913     G3913      -154
    Y3914     COST       15778
    Y3914     G3914      -516
    Y3915     COST       9818
    Y3915     G3915      -152
    Y3916     COST       16159
    Y3916     G3916      -528
    Y3917     COST       15474
    Y3917     G3917      -528
    Y3918     COST       15392
    Y3918     G3918      -66
    Y3919     COST       9442
    Y3919     G3919      -528
    Y3920     COST       8719
    Y3920     G3920      -159
    Y3921     COST       18783
    Y3921     G3921      -86
    Y3922     COST       20672
    Y3922     G3922      -235
    Y3923     COST       22612
    Y3923     G3923      -528
    Y3924     COST       21039
    Y3924     G3924      -528
    Y3925     COST       23275
    Y3925     G3925      -528
    Y3926     COST       24535
    Y3926     G3926      -274
    Y3927     COST       13564
    Y3927     G3927      -528
    Y3928     COST       11095
    Y3928     G3928      -364
    Y3929     COST       25277
    Y3929     G3929      -528
    Y3930     COST       18554
    Y3930     G3930      -325
    Y3931     COST       12342
    Y3931     G3931      -283
    Y3932     COST       21014
    Y3932     G3932      -108
    Y3933     COST       20410
    Y3933     G3933      -128
    Y3934     COST       19290
    Y3934     G3934      -20
    Y3935     COST       17386
    Y3935     G3935      -528
    Y3936     COST       9477
    Y3936     G3936      -499
    Y3937     COST       18494
    Y3937     G3937      -528
    Y3938     COST       10212
    Y3938     G3938      -324
    Y3939     COST       15294
    Y3939     G3939      -111
    Y3940     COST       18729
    Y3940     G3940      -123
    Y3941     COST       17370
    Y3941     G3941      -152
    Y3942     COST       10278
    Y3942     G3942      -441
    Y3943     COST       13275
    Y3943     G3943      -240
    Y3944     COST       23210
    Y3944     G3944      -509
    Y3945     COST       16234
    Y3945     G3945      -33
    Y3946     COST       18202
    Y3946     G3946      -24
    Y3947     COST       6536
    Y3947     G3947      -528
    Y3948     COST       19636
    Y3948     G3948      -401
    Y3949     COST       16916
    Y3949     G3949      -136
    Y3950     COST       22400
    Y3950     G3950      -467
    Y3951     COST       16229
    Y3951     G3951      -528
    Y3952     COST       24929
    Y3952     G3952      -528
    Y3953     COST       21805
    Y3953     G3953      -528
    Y3954     COST       11634
    Y3954     G3954      -196
    Y3955     COST       23448
    Y3955     G3955      -528
    Y3956     COST       22249
    Y3956     G3956      -528
    Y3957     COST       24585
    Y3957     G3957      -248
    Y3958     COST       15095
    Y3958     G3958      -528
    Y3959     COST       20282
    Y3959     G3959      -528
    Y3960     COST       20894
    Y3960     G3960      -94
    Y3961     COST       24557
    Y3961     G3961      -528
    Y3962     COST       15229
    Y3962     G3962      -263
    Y3963     COST       16026
    Y3963     G3963      -185
    Y3964     COST       8842
    Y3964     G3964      -528
    Y3965     COST       22388
    Y3965     G3965      -256
    Y3966     COST       8334
    Y3966     G3966      -238
    Y3967     COST       16420
    Y3967     G3967      -25
    Y3968     COST       23650
    Y3968     G3968      -506
    Y3969     COST       11888
    Y3969     G3969      -528
    Y3970     COST       6604
    Y3970     G3970      -296
    Y3971     COST       20331
    Y3971     G3971      -95
    Y3972     COST       18619
    Y3972     G3972      -528
    Y3973     COST       23931
    Y3973     G3973      -528
    Y3974     COST       8807
    Y3974     G3974      -528
    Y3975     COST       20334
    Y3975     G3975      -286
    Y3976     COST       24603
    Y3976     G3976      -5
    Y3977     COST       16847
    Y3977     G3977      -528
    Y3978     COST       10308
    Y3978     G3978      -31
    Y3979     COST       24636
    Y3979     G3979      -250
    Y3980     COST       8720
    Y3980     G3980      -152
    Y3981     COST       7818
    Y3981     G3981      -528
    Y3982     COST       20815
    Y3982     G3982      -38
    Y3983     COST       19313
    Y3983     G3983      -6
    Y3984     COST       23751
    Y3984     G3984      -309
    Y3985     COST       6677
    Y3985     G3985      -109
    Y3986     COST       9887
    Y3986     G3986      -351
    Y3987     COST       15159
    Y3987     G3987      -432
    Y3988     COST       15161
    Y3988     G3988      -147
    Y3989     COST       19756
    Y3989     G3989      -344
    Y3990     COST       22125
    Y3990     G3990      -528
    Y3991     COST       20588
    Y3991     G3991      -502
    Y3992     COST       14000
    Y3992     G3992      -528
    Y3993     COST       21968
    Y3993     G3993      -367
    Y3994     COST       23782
    Y3994     G3994      -130
    Y3995     COST       19770
    Y3995     G3995      -522
    Y3996     COST       24897
    Y3996     G3996      -258
    Y3997     COST       22894
    Y3997     G3997      -16
    Y3998     COST       20250
    Y3998     G3998      -205
    Y3999     COST       18287
    Y3999     G3999      -528
    Y4000     COST       19942
    Y4000     G4000      -43
    Y4001     COST       12849
    Y4001     G4001      -284
    Y4002     COST       8664
    Y4002     G4002      -176
    Y4003     COST       23536
    Y4003     G4003      -284
    Y4004     COST       24085
    Y4004     G4004      -93
    Y4005     COST       10453
    Y4005     G4005      -91
    Y4006     COST       21520
    Y4006     G4006      -284
    Y4007     COST       22626
    Y4007     G4007      -123
    Y4008     COST       8431
    Y4008     G4008      -284
    Y4009     COST       25164
    Y4009     G4009      -284
    Y4010     COST       14283
    Y4010     G4010      -159
    Y4011     COST       12792
    Y4011     G4011      -284
    Y4012     COST       22988
    Y4012     G4012      -218
    Y4013     COST       18778
    Y4013     G4013      -154
    Y4014     COST       8027
    Y4014     G4014      -284
    Y4015     COST       18515
    Y4015     G4015      -152
    Y4016     COST       17658
    Y4016     G4016      -284
    Y4017     COST       12451
    Y4017     G4017      -284
    Y4018     COST       8466
    Y4018     G4018      -66
    Y4019     COST       22998
    Y4019     G4019      -284
    Y4020     COST       12500
    Y4020     G4020      -159
    Y4021     COST       10956
    Y4021     G4021      -86
    Y4022     COST       16619
    Y4022     G4022      -235
    Y4023     COST       11551
    Y4023     G4023      -284
    Y4024     COST       15042
    Y4024     G4024      -284
    Y4025     COST       11207
    Y4025     G4025      -284
    Y4026     COST       25504
    Y4026     G4026      -274
    Y4027     COST       13243
    Y4027     G4027      -284
    Y4028     COST       20031
    Y4028     G4028      -284
    Y4029     COST       8380
    Y4029     G4029      -284
    Y4030     COST       12722
    Y4030     G4030      -284
    Y4031     COST       22278
    Y4031     G4031      -283
    Y4032     COST       25519
    Y4032     G4032      -108
    Y4033     COST       17390
    Y4033     G4033      -128
    Y4034     COST       13470
    Y4034     G4034      -20
    Y4035     COST       21386
    Y4035     G4035      -284
    Y4036     COST       9702
    Y4036     G4036      -284
    Y4037     COST       19258
    Y4037     G4037      -284
    Y4038     COST       22684
    Y4038     G4038      -284
    Y4039     COST       17512
    Y4039     G4039      -111
    Y4040     COST       18503
    Y4040     G4040      -123
    Y4041     COST       15755
    Y4041     G4041      -152
    Y4042     COST       6765
    Y4042     G4042      -284
    Y4043     COST       8815
    Y4043     G4043      -240
    Y4044     COST       19975
    Y4044     G4044      -284
    Y4045     COST       8763
    Y4045     G4045      -33
    Y4046     COST       9681
    Y4046     G4046      -24
    Y4047     COST       23219
    Y4047     G4047      -284
    Y4048     COST       20638
    Y4048     G4048      -284
    Y4049     COST       24130
    Y4049     G4049      -136
    Y4050     COST       19006
    Y4050     G4050      -284
    Y4051     COST       13956
    Y4051     G4051      -284
    Y4052     COST       23125
    Y4052     G4052      -284
    Y4053     COST       10367
    Y4053     G4053      -284
    Y4054     COST       8340
    Y4054     G4054      -196
    Y4055     COST       10857
    Y4055     G4055      -284
    Y4056     COST       18080
    Y4056     G4056      -284
    Y4057     COST       8332
    Y4057     G4057      -248
    Y4058     COST       9180
    Y4058     G4058      -284
    Y4059     COST       7353
    Y4059     G4059      -284
    Y4060     COST       9192
    Y4060     G4060      -94
    Y4061     COST       9961
    Y4061     G4061      -284
    Y4062     COST       11448
    Y4062     G4062      -263
    Y4063     COST       7825
    Y4063     G4063      -185
    Y4064     COST       20948
    Y4064     G4064      -284
    Y4065     COST       11437
    Y4065     G4065      -256
    Y4066     COST       25065
    Y4066     G4066      -238
    Y4067     COST       7137
    Y4067     G4067      -25
    Y4068     COST       15566
    Y4068     G4068      -284
    Y4069     COST       16439
    Y4069     G4069      -284
    Y4070     COST       16813
    Y4070     G4070      -284
    Y4071     COST       10430
    Y4071     G4071      -95
    Y4072     COST       20605
    Y4072     G4072      -284
    Y4073     COST       7824
    Y4073     G4073      -284
    Y4074     COST       7819
    Y4074     G4074      -284
    Y4075     COST       15145
    Y4075     G4075      -284
    Y4076     COST       14392
    Y4076     G4076      -5
    Y4077     COST       8166
    Y4077     G4077      -284
    Y4078     COST       14012
    Y4078     G4078      -31
    Y4079     COST       14786
    Y4079     G4079      -250
    Y4080     COST       16127
    Y4080     G4080      -152
    Y4081     COST       18861
    Y4081     G4081      -284
    Y4082     COST       22328
    Y4082     G4082      -38
    Y4083     COST       23828
    Y4083     G4083      -6
    Y4084     COST       13658
    Y4084     G4084      -284
    Y4085     COST       25119
    Y4085     G4085      -109
    Y4086     COST       9654
    Y4086     G4086      -284
    Y4087     COST       25343
    Y4087     G4087      -284
    Y4088     COST       13981
    Y4088     G4088      -147
    Y4089     COST       16873
    Y4089     G4089      -284
    Y4090     COST       9882
    Y4090     G4090      -284
    Y4091     COST       20633
    Y4091     G4091      -284
    Y4092     COST       18000
    Y4092     G4092      -284
    Y4093     COST       11802
    Y4093     G4093      -284
    Y4094     COST       11808
    Y4094     G4094      -130
    Y4095     COST       17093
    Y4095     G4095      -284
    Y4096     COST       24690
    Y4096     G4096      -258
    Y4097     COST       15133
    Y4097     G4097      -16
    Y4098     COST       7312
    Y4098     G4098      -205
    Y4099     COST       10603
    Y4099     G4099      -284
    Y4100     COST       16189
    Y4100     G4100      -43
    Y4101     COST       10943
    Y4101     G4101      -384
    Y4102     COST       15796
    Y4102     G4102      -176
    Y4103     COST       9328
    Y4103     G4103      -384
    Y4104     COST       17035
    Y4104     G4104      -93
    Y4105     COST       18150
    Y4105     G4105      -91
    Y4106     COST       6791
    Y4106     G4106      -384
    Y4107     COST       21068
    Y4107     G4107      -123
    Y4108     COST       16594
    Y4108     G4108      -384
    Y4109     COST       10696
    Y4109     G4109      -384
    Y4110     COST       13160
    Y4110     G4110      -159
    Y4111     COST       7576
    Y4111     G4111      -384
    Y4112     COST       19585
    Y4112     G4112      -218
    Y4113     COST       18835
    Y4113     G4113      -154
    Y4114     COST       10267
    Y4114     G4114      -384
    Y4115     COST       13208
    Y4115     G4115      -152
    Y4116     COST       23303
    Y4116     G4116      -384
    Y4117     COST       14116
    Y4117     G4117      -384
    Y4118     COST       16636
    Y4118     G4118      -66
    Y4119     COST       16684
    Y4119     G4119      -384
    Y4120     COST       22167
    Y4120     G4120      -159
    Y4121     COST       14323
    Y4121     G4121      -86
    Y4122     COST       17653
    Y4122     G4122      -235
    Y4123     COST       9845
    Y4123     G4123      -384
    Y4124     COST       10530
    Y4124     G4124      -384
    Y4125     COST       6721
    Y4125     G4125      -384
    Y4126     COST       9510
    Y4126     G4126      -274
    Y4127     COST       22949
    Y4127     G4127      -384
    Y4128     COST       6735
    Y4128     G4128      -364
    Y4129     COST       16087
    Y4129     G4129      -384
    Y4130     COST       9716
    Y4130     G4130      -325
    Y4131     COST       22508
    Y4131     G4131      -283
    Y4132     COST       16299
    Y4132     G4132      -108
    Y4133     COST       22505
    Y4133     G4133      -128
    Y4134     COST       15511
    Y4134     G4134      -20
    Y4135     COST       25299
    Y4135     G4135      -384
    Y4136     COST       21008
    Y4136     G4136      -384
    Y4137     COST       11597
    Y4137     G4137      -384
    Y4138     COST       15720
    Y4138     G4138      -324
    Y4139     COST       6713
    Y4139     G4139      -111
    Y4140     COST       6715
    Y4140     G4140      -123
    Y4141     COST       14232
    Y4141     G4141      -152
    Y4142     COST       12499
    Y4142     G4142      -384
    Y4143     COST       8032
    Y4143     G4143      -240
    Y4144     COST       13498
    Y4144     G4144      -384
    Y4145     COST       15068
    Y4145     G4145      -33
    Y4146     COST       20388
    Y4146     G4146      -24
    Y4147     COST       17386
    Y4147     G4147      -384
    Y4148     COST       18521
    Y4148     G4148      -384
    Y4149     COST       21780
    Y4149     G4149      -136
    Y4150     COST       18106
    Y4150     G4150      -384
    Y4151     COST       19046
    Y4151     G4151      -384
    Y4152     COST       10220
    Y4152     G4152      -384
    Y4153     COST       18488
    Y4153     G4153      -384
    Y4154     COST       7513
    Y4154     G4154      -196
    Y4155     COST       23905
    Y4155     G4155      -384
    Y4156     COST       14649
    Y4156     G4156      -384
    Y4157     COST       16003
    Y4157     G4157      -248
    Y4158     COST       15772
    Y4158     G4158      -384
    Y4159     COST       20534
    Y4159     G4159      -384
    Y4160     COST       16679
    Y4160     G4160      -94
    Y4161     COST       7643
    Y4161     G4161      -384
    Y4162     COST       24120
    Y4162     G4162      -263
    Y4163     COST       10651
    Y4163     G4163      -185
    Y4164     COST       16781
    Y4164     G4164      -384
    Y4165     COST       13446
    Y4165     G4165      -256
    Y4166     COST       23709
    Y4166     G4166      -238
    Y4167     COST       9221
    Y4167     G4167      -25
    Y4168     COST       16907
    Y4168     G4168      -384
    Y4169     COST       6940
    Y4169     G4169      -384
    Y4170     COST       16070
    Y4170     G4170      -296
    Y4171     COST       14804
    Y4171     G4171      -95
    Y4172     COST       10868
    Y4172     G4172      -384
    Y4173     COST       19861
    Y4173     G4173      -384
    Y4174     COST       19887
    Y4174     G4174      -384
    Y4175     COST       19062
    Y4175     G4175      -286
    Y4176     COST       13707
    Y4176     G4176      -5
    Y4177     COST       10332
    Y4177     G4177      -384
    Y4178     COST       17219
    Y4178     G4178      -31
    Y4179     COST       10078
    Y4179     G4179      -250
    Y4180     COST       15166
    Y4180     G4180      -152
    Y4181     COST       12238
    Y4181     G4181      -384
    Y4182     COST       6905
    Y4182     G4182      -38
    Y4183     COST       9203
    Y4183     G4183      -6
    Y4184     COST       7132
    Y4184     G4184      -309
    Y4185     COST       17962
    Y4185     G4185      -109
    Y4186     COST       15855
    Y4186     G4186      -351
    Y4187     COST       16385
    Y4187     G4187      -384
    Y4188     COST       14410
    Y4188     G4188      -147
    Y4189     COST       21944
    Y4189     G4189      -344
    Y4190     COST       20266
    Y4190     G4190      -384
    Y4191     COST       7632
    Y4191     G4191      -384
    Y4192     COST       21585
    Y4192     G4192      -384
    Y4193     COST       19116
    Y4193     G4193      -367
    Y4194     COST       19087
    Y4194     G4194      -130
    Y4195     COST       21619
    Y4195     G4195      -384
    Y4196     COST       24691
    Y4196     G4196      -258
    Y4197     COST       17244
    Y4197     G4197      -16
    Y4198     COST       6852
    Y4198     G4198      -205
    Y4199     COST       24358
    Y4199     G4199      -384
    Y4200     COST       9335
    Y4200     G4200      -43
    Y4201     COST       24465
    Y4201     G4201      -92
    Y4202     COST       7908
    Y4202     G4202      -92
    Y4203     COST       10236
    Y4203     G4203      -92
    Y4204     COST       25214
    Y4204     G4204      -92
    Y4205     COST       22668
    Y4205     G4205      -91
    Y4206     COST       15801
    Y4206     G4206      -92
    Y4207     COST       21323
    Y4207     G4207      -92
    Y4208     COST       8951
    Y4208     G4208      -92
    Y4209     COST       19596
    Y4209     G4209      -92
    Y4210     COST       17661
    Y4210     G4210      -92
    Y4211     COST       17947
    Y4211     G4211      -92
    Y4212     COST       7545
    Y4212     G4212      -92
    Y4213     COST       21487
    Y4213     G4213      -92
    Y4214     COST       10942
    Y4214     G4214      -92
    Y4215     COST       10736
    Y4215     G4215      -92
    Y4216     COST       7188
    Y4216     G4216      -92
    Y4217     COST       9374
    Y4217     G4217      -92
    Y4218     COST       7578
    Y4218     G4218      -66
    Y4219     COST       16629
    Y4219     G4219      -92
    Y4220     COST       25560
    Y4220     G4220      -92
    Y4221     COST       21033
    Y4221     G4221      -86
    Y4222     COST       12066
    Y4222     G4222      -92
    Y4223     COST       14135
    Y4223     G4223      -92
    Y4224     COST       7963
    Y4224     G4224      -92
    Y4225     COST       15379
    Y4225     G4225      -92
    Y4226     COST       21846
    Y4226     G4226      -92
    Y4227     COST       6726
    Y4227     G4227      -92
    Y4228     COST       17873
    Y4228     G4228      -92
    Y4229     COST       11001
    Y4229     G4229      -92
    Y4230     COST       16551
    Y4230     G4230      -92
    Y4231     COST       11596
    Y4231     G4231      -92
    Y4232     COST       9264
    Y4232     G4232      -92
    Y4233     COST       18542
    Y4233     G4233      -92
    Y4234     COST       19625
    Y4234     G4234      -20
    Y4235     COST       17401
    Y4235     G4235      -92
    Y4236     COST       13788
    Y4236     G4236      -92
    Y4237     COST       19493
    Y4237     G4237      -92
    Y4238     COST       11823
    Y4238     G4238      -92
    Y4239     COST       17744
    Y4239     G4239      -92
    Y4240     COST       6749
    Y4240     G4240      -92
    Y4241     COST       15291
    Y4241     G4241      -92
    Y4242     COST       17825
    Y4242     G4242      -92
    Y4243     COST       12746
    Y4243     G4243      -92
    Y4244     COST       14198
    Y4244     G4244      -92
    Y4245     COST       15540
    Y4245     G4245      -33
    Y4246     COST       23231
    Y4246     G4246      -24
    Y4247     COST       22911
    Y4247     G4247      -92
    Y4248     COST       7640
    Y4248     G4248      -92
    Y4249     COST       9530
    Y4249     G4249      -92
    Y4250     COST       23680
    Y4250     G4250      -92
    Y4251     COST       25487
    Y4251     G4251      -92
    Y4252     COST       6592
    Y4252     G4252      -92
    Y4253     COST       16763
    Y4253     G4253      -92
    Y4254     COST       22408
    Y4254     G4254      -92
    Y4255     COST       16387
    Y4255     G4255      -92
    Y4256     COST       10144
    Y4256     G4256      -92
    Y4257     COST       6637
    Y4257     G4257      -92
    Y4258     COST       21853
    Y4258     G4258      -92
    Y4259     COST       24126
    Y4259     G4259      -92
    Y4260     COST       21654
    Y4260     G4260      -92
    Y4261     COST       23608
    Y4261     G4261      -92
    Y4262     COST       18285
    Y4262     G4262      -92
    Y4263     COST       8345
    Y4263     G4263      -92
    Y4264     COST       16048
    Y4264     G4264      -92
    Y4265     COST       18969
    Y4265     G4265      -92
    Y4266     COST       10319
    Y4266     G4266      -92
    Y4267     COST       19892
    Y4267     G4267      -25
    Y4268     COST       13025
    Y4268     G4268      -92
    Y4269     COST       24161
    Y4269     G4269      -92
    Y4270     COST       14657
    Y4270     G4270      -92
    Y4271     COST       17195
    Y4271     G4271      -92
    Y4272     COST       24868
    Y4272     G4272      -92
    Y4273     COST       23917
    Y4273     G4273      -92
    Y4274     COST       17192
    Y4274     G4274      -92
    Y4275     COST       18868
    Y4275     G4275      -92
    Y4276     COST       6637
    Y4276     G4276      -5
    Y4277     COST       10060
    Y4277     G4277      -92
    Y4278     COST       11879
    Y4278     G4278      -31
    Y4279     COST       8913
    Y4279     G4279      -92
    Y4280     COST       19310
    Y4280     G4280      -92
    Y4281     COST       19324
    Y4281     G4281      -92
    Y4282     COST       15891
    Y4282     G4282      -38
    Y4283     COST       21204
    Y4283     G4283      -6
    Y4284     COST       19318
    Y4284     G4284      -92
    Y4285     COST       13330
    Y4285     G4285      -92
    Y4286     COST       20218
    Y4286     G4286      -92
    Y4287     COST       11168
    Y4287     G4287      -92
    Y4288     COST       23868
    Y4288     G4288      -92
    Y4289     COST       23085
    Y4289     G4289      -92
    Y4290     COST       11760
    Y4290     G4290      -92
    Y4291     COST       17102
    Y4291     G4291      -92
    Y4292     COST       11159
    Y4292     G4292      -92
    Y4293     COST       11742
    Y4293     G4293      -92
    Y4294     COST       18665
    Y4294     G4294      -92
    Y4295     COST       19120
    Y4295     G4295      -92
    Y4296     COST       11136
    Y4296     G4296      -92
    Y4297     COST       8132
    Y4297     G4297      -16
    Y4298     COST       7302
    Y4298     G4298      -92
    Y4299     COST       23701
    Y4299     G4299      -92
    Y4300     COST       19204
    Y4300     G4300      -43
    Y4301     COST       15361
    Y4301     G4301      -402
    Y4302     COST       23047
    Y4302     G4302      -176
    Y4303     COST       19579
    Y4303     G4303      -526
    Y4304     COST       9403
    Y4304     G4304      -93
    Y4305     COST       10454
    Y4305     G4305      -91
    Y4306     COST       20466
    Y4306     G4306      -1200
    Y4307     COST       16655
    Y4307     G4307      -123
    Y4308     COST       23001
    Y4308     G4308      -435
    Y4309     COST       9225
    Y4309     G4309      -461
    Y4310     COST       13882
    Y4310     G4310      -159
    Y4311     COST       15416
    Y4311     G4311      -509
    Y4312     COST       19733
    Y4312     G4312      -218
    Y4313     COST       25543
    Y4313     G4313      -154
    Y4314     COST       25549
    Y4314     G4314      -516
    Y4315     COST       7201
    Y4315     G4315      -152
    Y4316     COST       16157
    Y4316     G4316      -580
    Y4317     COST       19557
    Y4317     G4317      -1171
    Y4318     COST       24318
    Y4318     G4318      -66
    Y4319     COST       12294
    Y4319     G4319      -796
    Y4320     COST       24017
    Y4320     G4320      -159
    Y4321     COST       17458
    Y4321     G4321      -86
    Y4322     COST       18773
    Y4322     G4322      -235
    Y4323     COST       24259
    Y4323     G4323      -737
    Y4324     COST       18535
    Y4324     G4324      -1273
    Y4325     COST       9058
    Y4325     G4325      -1261
    Y4326     COST       22262
    Y4326     G4326      -274
    Y4327     COST       16512
    Y4327     G4327      -1181
    Y4328     COST       12492
    Y4328     G4328      -364
    Y4329     COST       21448
    Y4329     G4329      -1061
    Y4330     COST       20410
    Y4330     G4330      -325
    Y4331     COST       6732
    Y4331     G4331      -283
    Y4332     COST       20407
    Y4332     G4332      -108
    Y4333     COST       8733
    Y4333     G4333      -128
    Y4334     COST       6922
    Y4334     G4334      -20
    Y4335     COST       22743
    Y4335     G4335      -1273
    Y4336     COST       20961
    Y4336     G4336      -499
    Y4337     COST       13504
    Y4337     G4337      -1211
    Y4338     COST       9251
    Y4338     G4338      -324
    Y4339     COST       23204
    Y4339     G4339      -111
    Y4340     COST       8411
    Y4340     G4340      -123
    Y4341     COST       23580
    Y4341     G4341      -152
    Y4342     COST       15298
    Y4342     G4342      -441
    Y4343     COST       16319
    Y4343     G4343      -240
    Y4344     COST       20729
    Y4344     G4344      -509
    Y4345     COST       7418
    Y4345     G4345      -33
    Y4346     COST       19242
    Y4346     G4346      -24
    Y4347     COST       7638
    Y4347     G4347      -1273
    Y4348     COST       19535
    Y4348     G4348      -401
    Y4349     COST       15310
    Y4349     G4349      -136
    Y4350     COST       7646
    Y4350     G4350      -467
    Y4351     COST       24734
    Y4351     G4351      -807
    Y4352     COST       18674
    Y4352     G4352      -737
    Y4353     COST       16902
    Y4353     G4353      -1273
    Y4354     COST       7644
    Y4354     G4354      -196
    Y4355     COST       12989
    Y4355     G4355      -643
    Y4356     COST       14488
    Y4356     G4356      -1273
    Y4357     COST       10365
    Y4357     G4357      -248
    Y4358     COST       25477
    Y4358     G4358      -1273
    Y4359     COST       18264
    Y4359     G4359      -535
    Y4360     COST       14481
    Y4360     G4360      -94
    Y4361     COST       20911
    Y4361     G4361      -1126
    Y4362     COST       6620
    Y4362     G4362      -263
    Y4363     COST       14709
    Y4363     G4363      -185
    Y4364     COST       22440
    Y4364     G4364      -581
    Y4365     COST       21637
    Y4365     G4365      -256
    Y4366     COST       21198
    Y4366     G4366      -238
    Y4367     COST       8118
    Y4367     G4367      -25
    Y4368     COST       6998
    Y4368     G4368      -506
    Y4369     COST       10313
    Y4369     G4369      -560
    Y4370     COST       8814
    Y4370     G4370      -296
    Y4371     COST       15204
    Y4371     G4371      -95
    Y4372     COST       14801
    Y4372     G4372      -1273
    Y4373     COST       16410
    Y4373     G4373      -566
    Y4374     COST       15927
    Y4374     G4374      -698
    Y4375     COST       21894
    Y4375     G4375      -286
    Y4376     COST       19424
    Y4376     G4376      -5
    Y4377     COST       10443
    Y4377     G4377      -1273
    Y4378     COST       18606
    Y4378     G4378      -31
    Y4379     COST       10073
    Y4379     G4379      -250
    Y4380     COST       10070
    Y4380     G4380      -152
    Y4381     COST       24190
    Y4381     G4381      -1273
    Y4382     COST       17564
    Y4382     G4382      -38
    Y4383     COST       24638
    Y4383     G4383      -6
    Y4384     COST       14792
    Y4384     G4384      -309
    Y4385     COST       17964
    Y4385     G4385      -109
    Y4386     COST       18853
    Y4386     G4386      -351
    Y4387     COST       22860
    Y4387     G4387      -432
    Y4388     COST       16371
    Y4388     G4388      -147
    Y4389     COST       19312
    Y4389     G4389      -344
    Y4390     COST       17257
    Y4390     G4390      -1245
    Y4391     COST       8155
    Y4391     G4391      -502
    Y4392     COST       17105
    Y4392     G4392      -806
    Y4393     COST       11827
    Y4393     G4393      -367
    Y4394     COST       23412
    Y4394     G4394      -130
    Y4395     COST       6635
    Y4395     G4395      -522
    Y4396     COST       12650
    Y4396     G4396      -258
    Y4397     COST       12647
    Y4397     G4397      -16
    Y4398     COST       12651
    Y4398     G4398      -205
    Y4399     COST       16630
    Y4399     G4399      -1273
    Y4400     COST       18824
    Y4400     G4400      -43
    Y4401     COST       9784
    Y4401     G4401      -402
    Y4402     COST       21715
    Y4402     G4402      -176
    Y4403     COST       24368
    Y4403     G4403      -526
    Y4404     COST       19716
    Y4404     G4404      -93
    Y4405     COST       13838
    Y4405     G4405      -91
    Y4406     COST       15074
    Y4406     G4406      -1200
    Y4407     COST       10932
    Y4407     G4407      -123
    Y4408     COST       6810
    Y4408     G4408      -435
    Y4409     COST       24817
    Y4409     G4409      -461
    Y4410     COST       17044
    Y4410     G4410      -159
    Y4411     COST       19210
    Y4411     G4411      -509
    Y4412     COST       17876
    Y4412     G4412      -218
    Y4413     COST       20656
    Y4413     G4413      -154
    Y4414     COST       10953
    Y4414     G4414      -516
    Y4415     COST       17879
    Y4415     G4415      -152
    Y4416     COST       15474
    Y4416     G4416      -580
    Y4417     COST       12313
    Y4417     G4417      -1171
    Y4418     COST       7220
    Y4418     G4418      -66
    Y4419     COST       16555
    Y4419     G4419      -796
    Y4420     COST       20445
    Y4420     G4420      -159
    Y4421     COST       20425
    Y4421     G4421      -86
    Y4422     COST       21052
    Y4422     G4422      -235
    Y4423     COST       7746
    Y4423     G4423      -737
    Y4424     COST       18800
    Y4424     G4424      -2217
    Y4425     COST       18127
    Y4425     G4425      -1261
    Y4426     COST       8002
    Y4426     G4426      -274
    Y4427     COST       7736
    Y4427     G4427      -1181
    Y4428     COST       8760
    Y4428     G4428      -364
    Y4429     COST       12714
    Y4429     G4429      -1061
    Y4430     COST       6702
    Y4430     G4430      -325
    Y4431     COST       16497
    Y4431     G4431      -283
    Y4432     COST       19271
    Y4432     G4432      -108
    Y4433     COST       24382
    Y4433     G4433      -128
    Y4434     COST       22514
    Y4434     G4434      -20
    Y4435     COST       7295
    Y4435     G4435      -1461
    Y4436     COST       16504
    Y4436     G4436      -499
    Y4437     COST       20395
    Y4437     G4437      -1211
    Y4438     COST       24763
    Y4438     G4438      -324
    Y4439     COST       16481
    Y4439     G4439      -111
    Y4440     COST       17380
    Y4440     G4440      -123
    Y4441     COST       6546
    Y4441     G4441      -152
    Y4442     COST       18753
    Y4442     G4442      -441
    Y4443     COST       18527
    Y4443     G4443      -240
    Y4444     COST       23967
    Y4444     G4444      -509
    Y4445     COST       20985
    Y4445     G4445      -33
    Y4446     COST       16682
    Y4446     G4446      -24
    Y4447     COST       19235
    Y4447     G4447      -1392
    Y4448     COST       16679
    Y4448     G4448      -401
    Y4449     COST       18489
    Y4449     G4449      -136
    Y4450     COST       25405
    Y4450     G4450      -467
    Y4451     COST       14199
    Y4451     G4451      -807
    Y4452     COST       25027
    Y4452     G4452      -737
    Y4453     COST       15987
    Y4453     G4453      -1467
    Y4454     COST       10865
    Y4454     G4454      -196
    Y4455     COST       7425
    Y4455     G4455      -643
    Y4456     COST       19986
    Y4456     G4456      -1867
    Y4457     COST       23230
    Y4457     G4457      -248
    Y4458     COST       7412
    Y4458     G4458      -1620
    Y4459     COST       19991
    Y4459     G4459      -535
    Y4460     COST       15214
    Y4460     G4460      -94
    Y4461     COST       12132
    Y4461     G4461      -1126
    Y4462     COST       24126
    Y4462     G4462      -263
    Y4463     COST       7425
    Y4463     G4463      -185
    Y4464     COST       15751
    Y4464     G4464      -581
    Y4465     COST       17551
    Y4465     G4465      -256
    Y4466     COST       25401
    Y4466     G4466      -238
    Y4467     COST       11115
    Y4467     G4467      -25
    Y4468     COST       11671
    Y4468     G4468      -506
    Y4469     COST       17343
    Y4469     G4469      -560
    Y4470     COST       12622
    Y4470     G4470      -296
    Y4471     COST       24556
    Y4471     G4471      -95
    Y4472     COST       25298
    Y4472     G4472      -1924
    Y4473     COST       22860
    Y4473     G4473      -566
    Y4474     COST       23691
    Y4474     G4474      -698
    Y4475     COST       22828
    Y4475     G4475      -286
    Y4476     COST       9688
    Y4476     G4476      -5
    Y4477     COST       24636
    Y4477     G4477      -1326
    Y4478     COST       14017
    Y4478     G4478      -31
    Y4479     COST       8948
    Y4479     G4479      -250
    Y4480     COST       11883
    Y4480     G4480      -152
    Y4481     COST       18684
    Y4481     G4481      -1443
    Y4482     COST       9147
    Y4482     G4482      -38
    Y4483     COST       14040
    Y4483     G4483      -6
    Y4484     COST       16834
    Y4484     G4484      -309
    Y4485     COST       17213
    Y4485     G4485      -109
    Y4486     COST       14033
    Y4486     G4486      -351
    Y4487     COST       18874
    Y4487     G4487      -432
    Y4488     COST       10039
    Y4488     G4488      -147
    Y4489     COST       18687
    Y4489     G4489      -344
    Y4490     COST       14409
    Y4490     G4490      -1245
    Y4491     COST       22141
    Y4491     G4491      -502
    Y4492     COST       22871
    Y4492     G4492      -806
    Y4493     COST       25349
    Y4493     G4493      -367
    Y4494     COST       25156
    Y4494     G4494      -130
    Y4495     COST       17998
    Y4495     G4495      -522
    Y4496     COST       14382
    Y4496     G4496      -258
    Y4497     COST       8893
    Y4497     G4497      -16
    Y4498     COST       10389
    Y4498     G4498      -205
    Y4499     COST       7146
    Y4499     G4499      -1353
    Y4500     COST       13550
    Y4500     G4500      -43
    Y4501     COST       20701
    Y4501     G4501      -402
    Y4502     COST       19579
    Y4502     G4502      -176
    Y4503     COST       10096
    Y4503     G4503      -526
    Y4504     COST       10238
    Y4504     G4504      -93
    Y4505     COST       13855
    Y4505     G4505      -91
    Y4506     COST       9402
    Y4506     G4506      -1151
    Y4507     COST       12806
    Y4507     G4507      -123
    Y4508     COST       16153
    Y4508     G4508      -435
    Y4509     COST       10932
    Y4509     G4509      -461
    Y4510     COST       7165
    Y4510     G4510      -159
    Y4511     COST       18293
    Y4511     G4511      -509
    Y4512     COST       21274
    Y4512     G4512      -218
    Y4513     COST       18274
    Y4513     G4513      -154
    Y4514     COST       7578
    Y4514     G4514      -516
    Y4515     COST       15388
    Y4515     G4515      -152
    Y4516     COST       8460
    Y4516     G4516      -580
    Y4517     COST       7951
    Y4517     G4517      -1151
    Y4518     COST       20425
    Y4518     G4518      -66
    Y4519     COST       14320
    Y4519     G4519      -796
    Y4520     COST       21491
    Y4520     G4520      -159
    Y4521     COST       8492
    Y4521     G4521      -86
    Y4522     COST       16284
    Y4522     G4522      -235
    Y4523     COST       20681
    Y4523     G4523      -737
    Y4524     COST       18810
    Y4524     G4524      -1151
    Y4525     COST       25540
    Y4525     G4525      -1151
    Y4526     COST       18234
    Y4526     G4526      -274
    Y4527     COST       14138
    Y4527     G4527      -1151
    Y4528     COST       11004
    Y4528     G4528      -364
    Y4529     COST       14126
    Y4529     G4529      -1061
    Y4530     COST       8008
    Y4530     G4530      -325
    Y4531     COST       7256
    Y4531     G4531      -283
    Y4532     COST       14158
    Y4532     G4532      -108
    Y4533     COST       15827
    Y4533     G4533      -128
    Y4534     COST       22518
    Y4534     G4534      -20
    Y4535     COST       15047
    Y4535     G4535      -1151
    Y4536     COST       20015
    Y4536     G4536      -499
    Y4537     COST       23637
    Y4537     G4537      -1151
    Y4538     COST       22510
    Y4538     G4538      -324
    Y4539     COST       25515
    Y4539     G4539      -111
    Y4540     COST       10642
    Y4540     G4540      -123
    Y4541     COST       19629
    Y4541     G4541      -152
    Y4542     COST       8025
    Y4542     G4542      -441
    Y4543     COST       12541
    Y4543     G4543      -240
    Y4544     COST       17375
    Y4544     G4544      -509
    Y4545     COST       13810
    Y4545     G4545      -33
    Y4546     COST       8400
    Y4546     G4546      -24
    Y4547     COST       22454
    Y4547     G4547      -1151
    Y4548     COST       11199
    Y4548     G4548      -401
    Y4549     COST       8093
    Y4549     G4549      -136
    Y4550     COST       20068
    Y4550     G4550      -467
    Y4551     COST       21129
    Y4551     G4551      -807
    Y4552     COST       12992
    Y4552     G4552      -737
    Y4553     COST       10340
    Y4553     G4553      -1151
    Y4554     COST       20278
    Y4554     G4554      -196
    Y4555     COST       23127
    Y4555     G4555      -643
    Y4556     COST       25027
    Y4556     G4556      -1151
    Y4557     COST       8859
    Y4557     G4557      -248
    Y4558     COST       12976
    Y4558     G4558      -1151
    Y4559     COST       8348
    Y4559     G4559      -535
    Y4560     COST       21637
    Y4560     G4560      -94
    Y4561     COST       6739
    Y4561     G4561      -1126
    Y4562     COST       21918
    Y4562     G4562      -263
    Y4563     COST       13030
    Y4563     G4563      -185
    Y4564     COST       19417
    Y4564     G4564      -581
    Y4565     COST       20096
    Y4565     G4565      -256
    Y4566     COST       24163
    Y4566     G4566      -238
    Y4567     COST       11921
    Y4567     G4567      -25
    Y4568     COST       22059
    Y4568     G4568      -506
    Y4569     COST       11076
    Y4569     G4569      -560
    Y4570     COST       17080
    Y4570     G4570      -296
    Y4571     COST       13915
    Y4571     G4571      -95
    Y4572     COST       24640
    Y4572     G4572      -1151
    Y4573     COST       18988
    Y4573     G4573      -566
    Y4574     COST       11195
    Y4574     G4574      -698
    Y4575     COST       8260
    Y4575     G4575      -286
    Y4576     COST       20819
    Y4576     G4576      -5
    Y4577     COST       7364
    Y4577     G4577      -1151
    Y4578     COST       20211
    Y4578     G4578      -31
    Y4579     COST       16336
    Y4579     G4579      -250
    Y4580     COST       12949
    Y4580     G4580      -152
    Y4581     COST       12868
    Y4581     G4581      -1151
    Y4582     COST       23744
    Y4582     G4582      -38
    Y4583     COST       8625
    Y4583     G4583      -6
    Y4584     COST       22352
    Y4584     G4584      -309
    Y4585     COST       19074
    Y4585     G4585      -109
    Y4586     COST       20844
    Y4586     G4586      -351
    Y4587     COST       23799
    Y4587     G4587      -432
    Y4588     COST       11146
    Y4588     G4588      -147
    Y4589     COST       8231
    Y4589     G4589      -344
    Y4590     COST       9136
    Y4590     G4590      -1151
    Y4591     COST       22359
    Y4591     G4591      -502
    Y4592     COST       23403
    Y4592     G4592      -806
    Y4593     COST       18905
    Y4593     G4593      -367
    Y4594     COST       19800
    Y4594     G4594      -130
    Y4595     COST       8890
    Y4595     G4595      -522
    Y4596     COST       16864
    Y4596     G4596      -258
    Y4597     COST       11827
    Y4597     G4597      -16
    Y4598     COST       18941
    Y4598     G4598      -205
    Y4599     COST       6997
    Y4599     G4599      -1151
    Y4600     COST       9341
    Y4600     G4600      -43
    Y4601     COST       15806
    Y4601     G4601      -402
    Y4602     COST       20429
    Y4602     G4602      -176
    Y4603     COST       10452
    Y4603     G4603      -526
    Y4604     COST       21090
    Y4604     G4604      -93
    Y4605     COST       13181
    Y4605     G4605      -91
    Y4606     COST       21734
    Y4606     G4606      -973
    Y4607     COST       10936
    Y4607     G4607      -123
    Y4608     COST       14287
    Y4608     G4608      -435
    Y4609     COST       17941
    Y4609     G4609      -461
    Y4610     COST       25579
    Y4610     G4610      -159
    Y4611     COST       22568
    Y4611     G4611      -509
    Y4612     COST       7735
    Y4612     G4612      -218
    Y4613     COST       6888
    Y4613     G4613      -154
    Y4614     COST       6511
    Y4614     G4614      -516
    Y4615     COST       8743
    Y4615     G4615      -152
    Y4616     COST       22160
    Y4616     G4616      -580
    Y4617     COST       11564
    Y4617     G4617      -973
    Y4618     COST       15814
    Y4618     G4618      -66
    Y4619     COST       15045
    Y4619     G4619      -796
    Y4620     COST       10183
    Y4620     G4620      -159
    Y4621     COST       21849
    Y4621     G4621      -86
    Y4622     COST       14102
    Y4622     G4622      -235
    Y4623     COST       19244
    Y4623     G4623      -737
    Y4624     COST       19481
    Y4624     G4624      -973
    Y4625     COST       15493
    Y4625     G4625      -973
    Y4626     COST       9015
    Y4626     G4626      -274
    Y4627     COST       23988
    Y4627     G4627      -973
    Y4628     COST       15726
    Y4628     G4628      -364
    Y4629     COST       17785
    Y4629     G4629      -973
    Y4630     COST       22687
    Y4630     G4630      -325
    Y4631     COST       19285
    Y4631     G4631      -283
    Y4632     COST       17873
    Y4632     G4632      -108
    Y4633     COST       22500
    Y4633     G4633      -128
    Y4634     COST       16315
    Y4634     G4634      -20
    Y4635     COST       22742
    Y4635     G4635      -973
    Y4636     COST       24011
    Y4636     G4636      -499
    Y4637     COST       20021
    Y4637     G4637      -973
    Y4638     COST       22372
    Y4638     G4638      -324
    Y4639     COST       10975
    Y4639     G4639      -111
    Y4640     COST       23141
    Y4640     G4640      -123
    Y4641     COST       21776
    Y4641     G4641      -152
    Y4642     COST       25237
    Y4642     G4642      -441
    Y4643     COST       14169
    Y4643     G4643      -240
    Y4644     COST       19765
    Y4644     G4644      -509
    Y4645     COST       22454
    Y4645     G4645      -33
    Y4646     COST       13803
    Y4646     G4646      -24
    Y4647     COST       21330
    Y4647     G4647      -973
    Y4648     COST       10648
    Y4648     G4648      -401
    Y4649     COST       9074
    Y4649     G4649      -136
    Y4650     COST       21346
    Y4650     G4650      -467
    Y4651     COST       19881
    Y4651     G4651      -807
    Y4652     COST       16758
    Y4652     G4652      -737
    Y4653     COST       20506
    Y4653     G4653      -973
    Y4654     COST       18709
    Y4654     G4654      -196
    Y4655     COST       14711
    Y4655     G4655      -643
    Y4656     COST       23737
    Y4656     G4656      -973
    Y4657     COST       8944
    Y4657     G4657      -248
    Y4658     COST       12162
    Y4658     G4658      -973
    Y4659     COST       18276
    Y4659     G4659      -535
    Y4660     COST       20908
    Y4660     G4660      -94
    Y4661     COST       23826
    Y4661     G4661      -973
    Y4662     COST       11700
    Y4662     G4662      -263
    Y4663     COST       8338
    Y4663     G4663      -185
    Y4664     COST       7389
    Y4664     G4664      -581
    Y4665     COST       24933
    Y4665     G4665      -256
    Y4666     COST       25015
    Y4666     G4666      -238
    Y4667     COST       11879
    Y4667     G4667      -25
    Y4668     COST       11073
    Y4668     G4668      -506
    Y4669     COST       24143
    Y4669     G4669      -560
    Y4670     COST       11663
    Y4670     G4670      -296
    Y4671     COST       24171
    Y4671     G4671      -95
    Y4672     COST       11435
    Y4672     G4672      -973
    Y4673     COST       14661
    Y4673     G4673      -566
    Y4674     COST       21141
    Y4674     G4674      -698
    Y4675     COST       11394
    Y4675     G4675      -286
    Y4676     COST       14948
    Y4676     G4676      -5
    Y4677     COST       21678
    Y4677     G4677      -973
    Y4678     COST       15667
    Y4678     G4678      -31
    Y4679     COST       16433
    Y4679     G4679      -250
    Y4680     COST       19784
    Y4680     G4680      -152
    Y4681     COST       13128
    Y4681     G4681      -973
    Y4682     COST       21180
    Y4682     G4682      -38
    Y4683     COST       10019
    Y4683     G4683      -6
    Y4684     COST       22328
    Y4684     G4684      -309
    Y4685     COST       11784
    Y4685     G4685      -109
    Y4686     COST       11405
    Y4686     G4686      -351
    Y4687     COST       25301
    Y4687     G4687      -432
    Y4688     COST       17062
    Y4688     G4688      -147
    Y4689     COST       9649
    Y4689     G4689      -344
    Y4690     COST       9154
    Y4690     G4690      -973
    Y4691     COST       17952
    Y4691     G4691      -502
    Y4692     COST       7805
    Y4692     G4692      -806
    Y4693     COST       16095
    Y4693     G4693      -367
    Y4694     COST       16865
    Y4694     G4694      -130
    Y4695     COST       17105
    Y4695     G4695      -522
    Y4696     COST       15876
    Y4696     G4696      -258
    Y4697     COST       18367
    Y4697     G4697      -16
    Y4698     COST       10386
    Y4698     G4698      -205
    Y4699     COST       18145
    Y4699     G4699      -973
    Y4700     COST       20705
    Y4700     G4700      -43
    Y4701     COST       16651
    Y4701     G4701      -402
    Y4702     COST       16577
    Y4702     G4702      -176
    Y4703     COST       13559
    Y4703     G4703      -526
    Y4704     COST       17478
    Y4704     G4704      -93
    Y4705     COST       16585
    Y4705     G4705      -91
    Y4706     COST       19714
    Y4706     G4706      -765
    Y4707     COST       24444
    Y4707     G4707      -123
    Y4708     COST       12028
    Y4708     G4708      -435
    Y4709     COST       14217
    Y4709     G4709      -461
    Y4710     COST       17893
    Y4710     G4710      -159
    Y4711     COST       6468
    Y4711     G4711      -509
    Y4712     COST       16218
    Y4712     G4712      -218
    Y4713     COST       20654
    Y4713     G4713      -154
    Y4714     COST       9367
    Y4714     G4714      -516
    Y4715     COST       14567
    Y4715     G4715      -152
    Y4716     COST       18132
    Y4716     G4716      -580
    Y4717     COST       24418
    Y4717     G4717      -765
    Y4718     COST       9380
    Y4718     G4718      -66
    Y4719     COST       17875
    Y4719     G4719      -765
    Y4720     COST       7193
    Y4720     G4720      -159
    Y4721     COST       7619
    Y4721     G4721      -86
    Y4722     COST       14328
    Y4722     G4722      -235
    Y4723     COST       8381
    Y4723     G4723      -737
    Y4724     COST       20456
    Y4724     G4724      -765
    Y4725     COST       14323
    Y4725     G4725      -765
    Y4726     COST       14097
    Y4726     G4726      -274
    Y4727     COST       10561
    Y4727     G4727      -765
    Y4728     COST       6849
    Y4728     G4728      -364
    Y4729     COST       18760
    Y4729     G4729      -765
    Y4730     COST       15486
    Y4730     G4730      -325
    Y4731     COST       24396
    Y4731     G4731      -283
    Y4732     COST       21388
    Y4732     G4732      -108
    Y4733     COST       6480
    Y4733     G4733      -128
    Y4734     COST       25273
    Y4734     G4734      -20
    Y4735     COST       17839
    Y4735     G4735      -765
    Y4736     COST       15068
    Y4736     G4736      -499
    Y4737     COST       20964
    Y4737     G4737      -765
    Y4738     COST       20998
    Y4738     G4738      -324
    Y4739     COST       7988
    Y4739     G4739      -111
    Y4740     COST       12484
    Y4740     G4740      -123
    Y4741     COST       22480
    Y4741     G4741      -152
    Y4742     COST       19608
    Y4742     G4742      -441
    Y4743     COST       19468
    Y4743     G4743      -240
    Y4744     COST       7648
    Y4744     G4744      -509
    Y4745     COST       7233
    Y4745     G4745      -33
    Y4746     COST       8771
    Y4746     G4746      -24
    Y4747     COST       24745
    Y4747     G4747      -765
    Y4748     COST       22026
    Y4748     G4748      -401
    Y4749     COST       18504
    Y4749     G4749      -136
    Y4750     COST       18132
    Y4750     G4750      -467
    Y4751     COST       6530
    Y4751     G4751      -765
    Y4752     COST       9245
    Y4752     G4752      -737
    Y4753     COST       19381
    Y4753     G4753      -765
    Y4754     COST       7882
    Y4754     G4754      -196
    Y4755     COST       13437
    Y4755     G4755      -643
    Y4756     COST       20066
    Y4756     G4756      -765
    Y4757     COST       11091
    Y4757     G4757      -248
    Y4758     COST       11688
    Y4758     G4758      -765
    Y4759     COST       17328
    Y4759     G4759      -535
    Y4760     COST       23910
    Y4760     G4760      -94
    Y4761     COST       10893
    Y4761     G4761      -765
    Y4762     COST       24570
    Y4762     G4762      -263
    Y4763     COST       19462
    Y4763     G4763      -185
    Y4764     COST       13700
    Y4764     G4764      -581
    Y4765     COST       16794
    Y4765     G4765      -256
    Y4766     COST       8501
    Y4766     G4766      -238
    Y4767     COST       22050
    Y4767     G4767      -25
    Y4768     COST       19871
    Y4768     G4768      -506
    Y4769     COST       20113
    Y4769     G4769      -560
    Y4770     COST       21113
    Y4770     G4770      -296
    Y4771     COST       11657
    Y4771     G4771      -95
    Y4772     COST       20110
    Y4772     G4772      -765
    Y4773     COST       10314
    Y4773     G4773      -566
    Y4774     COST       22061
    Y4774     G4774      -698
    Y4775     COST       16851
    Y4775     G4775      -286
    Y4776     COST       23707
    Y4776     G4776      -5
    Y4777     COST       21889
    Y4777     G4777      -765
    Y4778     COST       16037
    Y4778     G4778      -31
    Y4779     COST       14846
    Y4779     G4779      -250
    Y4780     COST       8644
    Y4780     G4780      -152
    Y4781     COST       13358
    Y4781     G4781      -765
    Y4782     COST       10356
    Y4782     G4782      -38
    Y4783     COST       23082
    Y4783     G4783      -6
    Y4784     COST       22304
    Y4784     G4784      -309
    Y4785     COST       23807
    Y4785     G4785      -109
    Y4786     COST       12998
    Y4786     G4786      -351
    Y4787     COST       18016
    Y4787     G4787      -432
    Y4788     COST       20583
    Y4788     G4788      -147
    Y4789     COST       8226
    Y4789     G4789      -344
    Y4790     COST       9145
    Y4790     G4790      -765
    Y4791     COST       7372
    Y4791     G4791      -502
    Y4792     COST       24923
    Y4792     G4792      -765
    Y4793     COST       11386
    Y4793     G4793      -367
    Y4794     COST       12650
    Y4794     G4794      -130
    Y4795     COST       15656
    Y4795     G4795      -522
    Y4796     COST       9563
    Y4796     G4796      -258
    Y4797     COST       8127
    Y4797     G4797      -16
    Y4798     COST       15658
    Y4798     G4798      -205
    Y4799     COST       22473
    Y4799     G4799      -765
    Y4800     COST       21321
    Y4800     G4800      -43
    Y4801     COST       6782
    Y4801     G4801      -402
    Y4802     COST       7547
    Y4802     G4802      -176
    Y4803     COST       9326
    Y4803     G4803      -526
    Y4804     COST       8666
    Y4804     G4804      -93
    Y4805     COST       22216
    Y4805     G4805      -91
    Y4806     COST       9325
    Y4806     G4806      -650
    Y4807     COST       13554
    Y4807     G4807      -123
    Y4808     COST       12783
    Y4808     G4808      -435
    Y4809     COST       6793
    Y4809     G4809      -461
    Y4810     COST       20471
    Y4810     G4810      -159
    Y4811     COST       17037
    Y4811     G4811      -509
    Y4812     COST       8453
    Y4812     G4812      -218
    Y4813     COST       24064
    Y4813     G4813      -154
    Y4814     COST       9368
    Y4814     G4814      -516
    Y4815     COST       10263
    Y4815     G4815      -152
    Y4816     COST       15382
    Y4816     G4816      -580
    Y4817     COST       15781
    Y4817     G4817      -650
    Y4818     COST       21495
    Y4818     G4818      -66
    Y4819     COST       15268
    Y4819     G4819      -650
    Y4820     COST       13577
    Y4820     G4820      -159
    Y4821     COST       7960
    Y4821     G4821      -86
    Y4822     COST       9020
    Y4822     G4822      -235
    Y4823     COST       18804
    Y4823     G4823      -650
    Y4824     COST       13875
    Y4824     G4824      -650
    Y4825     COST       16607
    Y4825     G4825      -650
    Y4826     COST       10972
    Y4826     G4826      -274
    Y4827     COST       15714
    Y4827     G4827      -650
    Y4828     COST       10180
    Y4828     G4828      -364
    Y4829     COST       18246
    Y4829     G4829      -650
    Y4830     COST       18549
    Y4830     G4830      -325
    Y4831     COST       21825
    Y4831     G4831      -283
    Y4832     COST       13234
    Y4832     G4832      -108
    Y4833     COST       12492
    Y4833     G4833      -128
    Y4834     COST       9495
    Y4834     G4834      -20
    Y4835     COST       16292
    Y4835     G4835      -650
    Y4836     COST       14581
    Y4836     G4836      -499
    Y4837     COST       17007
    Y4837     G4837      -650
    Y4838     COST       20967
    Y4838     G4838      -324
    Y4839     COST       6535
    Y4839     G4839      -111
    Y4840     COST       12008
    Y4840     G4840      -123
    Y4841     COST       19628
    Y4841     G4841      -152
    Y4842     COST       15584
    Y4842     G4842      -441
    Y4843     COST       9744
    Y4843     G4843      -240
    Y4844     COST       9303
    Y4844     G4844      -509
    Y4845     COST       17352
    Y4845     G4845      -33
    Y4846     COST       13060
    Y4846     G4846      -24
    Y4847     COST       13437
    Y4847     G4847      -650
    Y4848     COST       22055
    Y4848     G4848      -401
    Y4849     COST       13947
    Y4849     G4849      -136
    Y4850     COST       21876
    Y4850     G4850      -467
    Y4851     COST       22691
    Y4851     G4851      -650
    Y4852     COST       15580
    Y4852     G4852      -650
    Y4853     COST       14708
    Y4853     G4853      -650
    Y4854     COST       11440
    Y4854     G4854      -196
    Y4855     COST       15770
    Y4855     G4855      -643
    Y4856     COST       20880
    Y4856     G4856      -650
    Y4857     COST       12762
    Y4857     G4857      -248
    Y4858     COST       25039
    Y4858     G4858      -650
    Y4859     COST       14447
    Y4859     G4859      -535
    Y4860     COST       19862
    Y4860     G4860      -94
    Y4861     COST       17326
    Y4861     G4861      -650
    Y4862     COST       8514
    Y4862     G4862      -263
    Y4863     COST       22050
    Y4863     G4863      -185
    Y4864     COST       21904
    Y4864     G4864      -581
    Y4865     COST       12114
    Y4865     G4865      -256
    Y4866     COST       10843
    Y4866     G4866      -238
    Y4867     COST       21156
    Y4867     G4867      -25
    Y4868     COST       11876
    Y4868     G4868      -506
    Y4869     COST       17224
    Y4869     G4869      -560
    Y4870     COST       22789
    Y4870     G4870      -296
    Y4871     COST       14814
    Y4871     G4871      -95
    Y4872     COST       23352
    Y4872     G4872      -650
    Y4873     COST       14773
    Y4873     G4873      -566
    Y4874     COST       13975
    Y4874     G4874      -650
    Y4875     COST       13652
    Y4875     G4875      -286
    Y4876     COST       23740
    Y4876     G4876      -5
    Y4877     COST       19318
    Y4877     G4877      -650
    Y4878     COST       8933
    Y4878     G4878      -31
    Y4879     COST       15688
    Y4879     G4879      -250
    Y4880     COST       11415
    Y4880     G4880      -152
    Y4881     COST       8598
    Y4881     G4881      -650
    Y4882     COST       18863
    Y4882     G4882      -38
    Y4883     COST       12179
    Y4883     G4883      -6
    Y4884     COST       11147
    Y4884     G4884      -309
    Y4885     COST       16893
    Y4885     G4885      -109
    Y4886     COST       17589
    Y4886     G4886      -351
    Y4887     COST       22334
    Y4887     G4887      -432
    Y4888     COST       11800
    Y4888     G4888      -147
    Y4889     COST       15854
    Y4889     G4889      -344
    Y4890     COST       19809
    Y4890     G4890      -650
    Y4891     COST       17630
    Y4891     G4891      -502
    Y4892     COST       10029
    Y4892     G4892      -650
    Y4893     COST       14884
    Y4893     G4893      -367
    Y4894     COST       14383
    Y4894     G4894      -130
    Y4895     COST       15877
    Y4895     G4895      -522
    Y4896     COST       24245
    Y4896     G4896      -258
    Y4897     COST       17612
    Y4897     G4897      -16
    Y4898     COST       11821
    Y4898     G4898      -205
    Y4899     COST       23172
    Y4899     G4899      -650
    Y4900     COST       9156
    Y4900     G4900      -43
    Y4901     COST       19198
    Y4901     G4901      -402
    Y4902     COST       8446
    Y4902     G4902      -176
    Y4903     COST       22673
    Y4903     G4903      -526
    Y4904     COST       11446
    Y4904     G4904      -93
    Y4905     COST       11446
    Y4905     G4905      -91
    Y4906     COST       22217
    Y4906     G4906      -1200
    Y4907     COST       9326
    Y4907     G4907      -123
    Y4908     COST       25565
    Y4908     G4908      -435
    Y4909     COST       12788
    Y4909     G4909      -461
    Y4910     COST       22579
    Y4910     G4910      -159
    Y4911     COST       24063
    Y4911     G4911      -509
    Y4912     COST       17905
    Y4912     G4912      -218
    Y4913     COST       19681
    Y4913     G4913      -154
    Y4914     COST       12832
    Y4914     G4914      -516
    Y4915     COST       7334
    Y4915     G4915      -152
    Y4916     COST       7476
    Y4916     G4916      -580
    Y4917     COST       14999
    Y4917     G4917      -1171
    Y4918     COST       12447
    Y4918     G4918      -66
    Y4919     COST       24781
    Y4919     G4919      -796
    Y4920     COST       12849
    Y4920     G4920      -159
    Y4921     COST       16705
    Y4921     G4921      -86
    Y4922     COST       21040
    Y4922     G4922      -235
    Y4923     COST       24783
    Y4923     G4923      -737
    Y4924     COST       24785
    Y4924     G4924      -2217
    Y4925     COST       20989
    Y4925     G4925      -1261
    Y4926     COST       13258
    Y4926     G4926      -274
    Y4927     COST       12489
    Y4927     G4927      -1181
    Y4928     COST       22607
    Y4928     G4928      -364
    Y4929     COST       23626
    Y4929     G4929      -1061
    Y4930     COST       18535
    Y4930     G4930      -325
    Y4931     COST       18766
    Y4931     G4931      -283
    Y4932     COST       20780
    Y4932     G4932      -108
    Y4933     COST       18766
    Y4933     G4933      -128
    Y4934     COST       19125
    Y4934     G4934      -20
    Y4935     COST       21455
    Y4935     G4935      -1461
    Y4936     COST       17804
    Y4936     G4936      -499
    Y4937     COST       20780
    Y4937     G4937      -1211
    Y4938     COST       24382
    Y4938     G4938      -324
    Y4939     COST       6547
    Y4939     G4939      -111
    Y4940     COST       23257
    Y4940     G4940      -123
    Y4941     COST       21792
    Y4941     G4941      -152
    Y4942     COST       24716
    Y4942     G4942      -441
    Y4943     COST       10893
    Y4943     G4943      -240
    Y4944     COST       9531
    Y4944     G4944      -509
    Y4945     COST       23994
    Y4945     G4945      -33
    Y4946     COST       11621
    Y4946     G4946      -24
    Y4947     COST       15757
    Y4947     G4947      -1392
    Y4948     COST       12822
    Y4948     G4948      -401
    Y4949     COST       10766
    Y4949     G4949      -136
    Y4950     COST       6560
    Y4950     G4950      -467
    Y4951     COST       23888
    Y4951     G4951      -807
    Y4952     COST       23896
    Y4952     G4952      -737
    Y4953     COST       17293
    Y4953     G4953      -1467
    Y4954     COST       13417
    Y4954     G4954      -196
    Y4955     COST       25437
    Y4955     G4955      -643
    Y4956     COST       15609
    Y4956     G4956      -1867
    Y4957     COST       15225
    Y4957     G4957      -248
    Y4958     COST       24727
    Y4958     G4958      -1620
    Y4959     COST       24550
    Y4959     G4959      -535
    Y4960     COST       15214
    Y4960     G4960      -94
    Y4961     COST       9179
    Y4961     G4961      -1126
    Y4962     COST       7842
    Y4962     G4962      -263
    Y4963     COST       22446
    Y4963     G4963      -185
    Y4964     COST       15221
    Y4964     G4964      -581
    Y4965     COST       24969
    Y4965     G4965      -256
    Y4966     COST       11458
    Y4966     G4966      -238
    Y4967     COST       24601
    Y4967     G4967      -25
    Y4968     COST       13689
    Y4968     G4968      -506
    Y4969     COST       8829
    Y4969     G4969      -560
    Y4970     COST       10893
    Y4970     G4970      -296
    Y4971     COST       8933
    Y4971     G4971      -95
    Y4972     COST       15668
    Y4972     G4972      -1924
    Y4973     COST       8256
    Y4973     G4973      -566
    Y4974     COST       14770
    Y4974     G4974      -698
    Y4975     COST       10423
    Y4975     G4975      -286
    Y4976     COST       9690
    Y4976     G4976      -5
    Y4977     COST       13646
    Y4977     G4977      -1326
    Y4978     COST       23732
    Y4978     G4978      -31
    Y4979     COST       24969
    Y4979     G4979      -250
    Y4980     COST       15783
    Y4980     G4980      -152
    Y4981     COST       17151
    Y4981     G4981      -1443
    Y4982     COST       23288
    Y4982     G4982      -38
    Y4983     COST       8941
    Y4983     G4983      -6
    Y4984     COST       14397
    Y4984     G4984      -309
    Y4985     COST       7716
    Y4985     G4985      -109
    Y4986     COST       11872
    Y4986     G4986      -351
    Y4987     COST       10394
    Y4987     G4987      -432
    Y4988     COST       8875
    Y4988     G4988      -147
    Y4989     COST       14731
    Y4989     G4989      -344
    Y4990     COST       24666
    Y4990     G4990      -1245
    Y4991     COST       10411
    Y4991     G4991      -502
    Y4992     COST       17273
    Y4992     G4992      -806
    Y4993     COST       7716
    Y4993     G4993      -367
    Y4994     COST       18893
    Y4994     G4994      -130
    Y4995     COST       10029
    Y4995     G4995      -522
    Y4996     COST       19356
    Y4996     G4996      -258
    Y4997     COST       14760
    Y4997     G4997      -16
    Y4998     COST       21240
    Y4998     G4998      -205
    Y4999     COST       18895
    Y4999     G4999      -1353
    MARKEND   'MARKER'                 'INTEND'
RHS
    RHS       A0         302
    RHS       A1         1793
    RHS       A2         2192
    RHS       A3         1558
    RHS       A4         738
    RHS       A5         1657
    RHS       A6         797
    RHS       A7         674
    RHS       A8         686
    RHS       A9         914
    RHS       A10        325
    RHS       A11        207
    RHS       A12        1314
    RHS       A13        2143
    RHS       A14        1179
    RHS       A15        402
    RHS       A16        675
    RHS       A17        3784
    RHS       A18        1599
    RHS       A19        576
    RHS       A20        790
    RHS       A21        49
    RHS       A22        204
    RHS       A23        1244
    RHS       A24        879
    RHS       A25        826
    RHS       A26        246
    RHS       A27        1146
    RHS       A28        52
    RHS       A29        203
    RHS       A30        729
    RHS       A31        607
    RHS       A32        1666
    RHS       A33        1108
    RHS       A34        1918
    RHS       A35        177
    RHS       A36        277
    RHS       A37        543
    RHS       A38        1154
    RHS       A39        528
    RHS       A40        284
    RHS       A41        384
    RHS       A42        92
    RHS       A43        1273
    RHS       A44        2582
    RHS       A45        1151
    RHS       A46        973
    RHS       A47        765
    RHS       A48        650
    RHS       A49        3985
    RHS       B0         43
    RHS       B1         402
    RHS       B2         176
    RHS       B3         526
    RHS       B4         93
    RHS       B5         91
    RHS       B6         1200
    RHS       B7         123
    RHS       B8         435
    RHS       B9         461
    RHS       B10        159
    RHS       B11        509
    RHS       B12        218
    RHS       B13        154
    RHS       B14        516
    RHS       B15        152
    RHS       B16        580
    RHS       B17        1171
    RHS       B18        66
    RHS       B19        796
    RHS       B20        159
    RHS       B21        86
    RHS       B22        235
    RHS       B23        737
    RHS       B24        2217
    RHS       B25        1261
    RHS       B26        274
    RHS       B27        1181
    RHS       B28        364
    RHS       B29        1061
    RHS       B30        325
    RHS       B31        283
    RHS       B32        108
    RHS       B33        128
    RHS       B34        20
    RHS       B35        1461
    RHS       B36        499
    RHS       B37        1211
    RHS       B38        324
    RHS       B39        111
    RHS       B40        123
    RHS       B41        152
    RHS       B42        441
    RHS       B43        240
    RHS       B44        509
    RHS       B45        33
    RHS       B46        24
    RHS       B47        1392
    RHS       B48        401
    RHS       B49        136
    RHS       B50        467
    RHS       B51        807
    RHS       B52        737
    RHS       B53        1467
    RHS       B54        196
    RHS       B55        643
    RHS       B56        1867
    RHS       B57        248
    RHS       B58        1620
    RHS       B59        535
    RHS       B60        94
    RHS       B61        1126
    RHS       B62        263
    RHS       B63        185
    RHS       B64        581
    RHS       B65        256
    RHS       B66        238
    RHS       B67        25
    RHS       B68        506
    RHS       B69        560
    RHS       B70        296
    RHS       B71        95
    RHS       B72        1924
    RHS       B73        566
    RHS       B74        698
    RHS       B75        286
    RHS       B76        5
    RHS       B77        1326
    RHS       B78        31
    RHS       B79        250
    RHS       B80        152
    RHS       B81        1443
    RHS       B82        38
    RHS       B83        6
    RHS       B84        309
    RHS       B85        109
    RHS       B86        351
    RHS       B87        432
    RHS       B88        147
    RHS       B89        344
    RHS       B90        1245
    RHS       B91        502
    RHS       B92        806
    RHS       B93        367
    RHS       B94        130
    RHS       B95        522
    RHS       B96        258
    RHS       B97        16
    RHS       B98        205
    RHS       B99        1353
BOUNDS
 BV bnd       Y0
 BV bnd       Y1
 BV bnd       Y2
 BV bnd       Y3
 BV bnd       Y4
 BV bnd       Y5
 BV bnd       Y6
 BV bnd       Y7
 BV bnd       Y8
 BV bnd       Y9
 BV bnd       Y10
 BV bnd       Y11
 BV bnd       Y12
 BV bnd       Y13
 BV bnd       Y14
 BV bnd       Y15
 BV bnd       Y16
 BV bnd       Y17
 BV bnd       Y18
 BV bnd       Y19
 BV bnd       Y20
 BV bnd       Y21
 BV bnd       Y22
 BV bnd       Y23
 BV bnd       Y24
 BV bnd       Y25
 BV bnd       Y26
 BV bnd       Y27
 BV bnd       Y28
 BV bnd       Y29
 BV bnd       Y30
 BV bnd       Y31
 BV bnd       Y32
 BV bnd       Y33
 BV bnd       Y34
 BV bnd       Y35
 BV bnd       Y36
 BV bnd       Y37
 BV bnd       Y38
 BV bnd       Y39
 BV bnd       Y40
 BV bnd       Y41
 BV bnd       Y42
 BV bnd       Y43
 BV bnd       Y44
 BV bnd       Y45
 BV bnd       Y46
 BV bnd       Y47
 BV bnd       Y48
 BV bnd       Y49
 BV bnd       Y50
 BV bnd       Y51
 BV bnd       Y52
 BV bnd       Y53
 BV bnd       Y54
 BV bnd       Y55
 BV bnd       Y56
 BV bnd       Y57
 BV bnd       Y58
 BV bnd       Y59
 BV bnd       Y60
 BV bnd       Y61
 BV bnd       Y62
 BV bnd       Y63
 BV bnd       Y64
 BV bnd       Y65
 BV bnd       Y66
 BV bnd       Y67
 BV bnd       Y68
 BV bnd       Y69
 BV bnd       Y70
 BV bnd       Y71
 BV bnd       Y72
 BV bnd       Y73
 BV bnd       Y74
 BV bnd       Y75
 BV bnd       Y76
 BV bnd       Y77
 BV bnd       Y78
 BV bnd       Y79
 BV bnd       Y80
 BV bnd       Y81
 BV bnd       Y82
 BV bnd       Y83
 BV bnd       Y84
 BV bnd       Y85
 BV bnd       Y86
 BV bnd       Y87
 BV bnd       Y88
 BV bnd       Y89
 BV bnd       Y90
 BV bnd       Y91
 BV bnd       Y92
 BV bnd       Y93
 BV bnd       Y94
 BV bnd       Y95
 BV bnd       Y96
 BV bnd       Y97
 BV bnd       Y98
 BV bnd       Y99
 BV bnd       Y100
 BV bnd       Y101
 BV bnd       Y102
 BV bnd       Y103
 BV bnd       Y104
 BV bnd       Y105
 BV bnd       Y106
 BV bnd       Y107
 BV bnd       Y108
 BV bnd       Y109
 BV bnd       Y110
 BV bnd       Y111
 BV bnd       Y112
 BV bnd       Y113
 BV bnd       Y114
 BV bnd       Y115
 BV bnd       Y116
 BV bnd       Y117
 BV bnd       Y118
 BV bnd       Y119
 BV bnd       Y120
 BV bnd       Y121
 BV bnd       Y122
 BV bnd       Y123
 BV bnd       Y124
 BV bnd       Y125
 BV bnd       Y126
 BV bnd       Y127
 BV bnd       Y128
 BV bnd       Y129
 BV bnd       Y130
 BV bnd       Y131
 BV bnd       Y132
 BV bnd       Y133
 BV bnd       Y134
 BV bnd       Y135
 BV bnd       Y136
 BV bnd       Y137
 BV bnd       Y138
 BV bnd       Y139
 BV bnd       Y140
 BV bnd       Y141
 BV bnd       Y142
 BV bnd       Y143
 BV bnd       Y144
 BV bnd       Y145
 BV bnd       Y146
 BV bnd       Y147
 BV bnd       Y148
 BV bnd       Y149
 BV bnd       Y150
 BV bnd       Y151
 BV bnd       Y152
 BV bnd       Y153
 BV bnd       Y154
 BV bnd       Y155
 BV bnd       Y156
 BV bnd       Y157
 BV bnd       Y158
 BV bnd       Y159
 BV bnd       Y160
 BV bnd       Y161
 BV bnd       Y162
 BV bnd       Y163
 BV bnd       Y164
 BV bnd       Y165
 BV bnd       Y166
 BV bnd       Y167
 BV bnd       Y168
 BV bnd       Y169
 BV bnd       Y170
 BV bnd       Y171
 BV bnd       Y172
 BV bnd       Y173
 BV bnd       Y174
 BV bnd       Y175
 BV bnd       Y176
 BV bnd       Y177
 BV bnd       Y178
 BV bnd       Y179
 BV bnd       Y180
 BV bnd       Y181
 BV bnd       Y182
 BV bnd       Y183
 BV bnd       Y184
 BV bnd       Y185
 BV bnd       Y186
 BV bnd       Y187
 BV bnd       Y188
 BV bnd       Y189
 BV bnd       Y190
 BV bnd       Y191
 BV bnd       Y192
 BV bnd       Y193
 BV bnd       Y194
 BV bnd       Y195
 BV bnd       Y196
 BV bnd       Y197
 BV bnd       Y198
 BV bnd       Y199
 BV bnd       Y200
 BV bnd       Y201
 BV bnd       Y202
 BV bnd       Y203
 BV bnd       Y204
 BV bnd       Y205
 BV bnd       Y206
 BV bnd       Y207
 BV bnd       Y208
 BV bnd       Y209
 BV bnd       Y210
 BV bnd       Y211
 BV bnd       Y212
 BV bnd       Y213
 BV bnd       Y214
 BV bnd       Y215
 BV bnd       Y216
 BV bnd       Y217
 BV bnd       Y218
 BV bnd       Y219
 BV bnd       Y220
 BV bnd       Y221
 BV bnd       Y222
 BV bnd       Y223
 BV bnd       Y224
 BV bnd       Y225
 BV bnd       Y226
 BV bnd       Y227
 BV bnd       Y228
 BV bnd       Y229
 BV bnd       Y230
 BV bnd       Y231
 BV bnd       Y232
 BV bnd       Y233
 BV bnd       Y234
 BV bnd       Y235
 BV bnd       Y236
 BV bnd       Y237
 BV bnd       Y238
 BV bnd       Y239
 BV bnd       Y240
 BV bnd       Y241
 BV bnd       Y242
 BV bnd       Y243
 BV bnd       Y244
 BV bnd       Y245
 BV bnd       Y246
 BV bnd       Y247
 BV bnd       Y248
 BV bnd       Y249
 BV bnd       Y250
 BV bnd       Y251
 BV bnd       Y252
 BV bnd       Y253
 BV bnd       Y254
 BV bnd       Y255
 BV bnd       Y256
 BV bnd       Y257
 BV bnd       Y258
 BV bnd       Y259
 BV bnd       Y260
 BV bnd       Y261
 BV bnd       Y262
 BV bnd       Y263
 BV bnd       Y264
 BV bnd       Y265
 BV bnd       Y266
 BV bnd       Y267
 BV bnd       Y268
 BV bnd       Y269
 BV bnd       Y270
 BV bnd       Y271
 BV bnd       Y272
 BV bnd       Y273
 BV bnd       Y274
 BV bnd       Y275
 BV bnd       Y276
 BV bnd       Y277
 BV bnd       Y278
 BV bnd       Y279
 BV bnd       Y280
 BV bnd       Y281
 BV bnd       Y282
 BV bnd       Y283
 BV bnd       Y284
 BV bnd       Y285
 BV bnd       Y286
 BV bnd       Y287
 BV bnd       Y288
 BV bnd       Y289
 BV bnd       Y290
 BV bnd       Y291
 BV bnd       Y292
 BV bnd       Y293
 BV bnd       Y294
 BV bnd       Y295
 BV bnd       Y296
 BV bnd       Y297
 BV bnd       Y298
 BV bnd       Y299
 BV bnd       Y300
 BV bnd       Y301
 BV bnd       Y302
 BV bnd       Y303
 BV bnd       Y304
 BV bnd       Y305
 BV bnd       Y306
 BV bnd       Y307
 BV bnd       Y308
 BV bnd       Y309
 BV bnd       Y310
 BV bnd       Y311
 BV bnd       Y312
 BV bnd       Y313
 BV bnd       Y314
 BV bnd       Y315
 BV bnd       Y316
 BV bnd       Y317
 BV bnd       Y318
 BV bnd       Y319
 BV bnd       Y320
 BV bnd       Y321
 BV bnd       Y322
 BV bnd       Y323
 BV bnd       Y324
 BV bnd       Y325
 BV bnd       Y326
 BV bnd       Y327
 BV bnd       Y328
 BV bnd       Y329
 BV bnd       Y330
 BV bnd       Y331
 BV bnd       Y332
 BV bnd       Y333
 BV bnd       Y334
 BV bnd       Y335
 BV bnd       Y336
 BV bnd       Y337
 BV bnd       Y338
 BV bnd       Y339
 BV bnd       Y340
 BV bnd       Y341
 BV bnd       Y342
 BV bnd       Y343
 BV bnd       Y344
 BV bnd       Y345
 BV bnd       Y346
 BV bnd       Y347
 BV bnd       Y348
 BV bnd       Y349
 BV bnd       Y350
 BV bnd       Y351
 BV bnd       Y352
 BV bnd       Y353
 BV bnd       Y354
 BV bnd       Y355
 BV bnd       Y356
 BV bnd       Y357
 BV bnd       Y358
 BV bnd       Y359
 BV bnd       Y360
 BV bnd       Y361
 BV bnd       Y362
 BV bnd       Y363
 BV bnd       Y364
 BV bnd       Y365
 BV bnd       Y366
 BV bnd       Y367
 BV bnd       Y368
 BV bnd       Y369
 BV bnd       Y370
 BV bnd       Y371
 BV bnd       Y372
 BV bnd       Y373
 BV bnd       Y374
 BV bnd       Y375
 BV bnd       Y376
 BV bnd       Y377
 BV bnd       Y378
 BV bnd       Y379
 BV bnd       Y380
 BV bnd       Y381
 BV bnd       Y382
 BV bnd       Y383
 BV bnd       Y384
 BV bnd       Y385
 BV bnd       Y386
 BV bnd       Y387
 BV bnd       Y388
 BV bnd       Y389
 BV bnd       Y390
 BV bnd       Y391
 BV bnd       Y392
 BV bnd       Y393
 BV bnd       Y394
 BV bnd       Y395
 BV bnd       Y396
 BV bnd       Y397
 BV bnd       Y398
 BV bnd       Y399
 BV bnd       Y400
 BV bnd       Y401
 BV bnd       Y402
 BV bnd       Y403
 BV bnd       Y404
 BV bnd       Y405
 BV bnd       Y406
 BV bnd       Y407
 BV bnd       Y408
 BV bnd       Y409
 BV bnd       Y410
 BV bnd       Y411
 BV bnd       Y412
 BV bnd       Y413
 BV bnd       Y414
 BV bnd       Y415
 BV bnd       Y416
 BV bnd       Y417
 BV bnd       Y418
 BV bnd       Y419
 BV bnd       Y420
 BV bnd       Y421
 BV bnd       Y422
 BV bnd       Y423
 BV bnd       Y424
 BV bnd       Y425
 BV bnd       Y426
 BV bnd       Y427
 BV bnd       Y428
 BV bnd       Y429
 BV bnd       Y430
 BV bnd       Y431
 BV bnd       Y432
 BV bnd       Y433
 BV bnd       Y434
 BV bnd       Y435
 BV bnd       Y436
 BV bnd       Y437
 BV bnd       Y438
 BV bnd       Y439
 BV bnd       Y440
 BV bnd       Y441
 BV bnd       Y442
 BV bnd       Y443
 BV bnd       Y444
 BV bnd       Y445
 BV bnd       Y446
 BV bnd       Y447
 BV bnd       Y448
 BV bnd       Y449
 BV bnd       Y450
 BV bnd       Y451
 BV bnd       Y452
 BV bnd       Y453
 BV bnd       Y454
 BV bnd       Y455
 BV bnd       Y456
 BV bnd       Y457
 BV bnd       Y458
 BV bnd       Y459
 BV bnd       Y460
 BV bnd       Y461
 BV bnd       Y462
 BV bnd       Y463
 BV bnd       Y464
 BV bnd       Y465
 BV bnd       Y466
 BV bnd       Y467
 BV bnd       Y468
 BV bnd       Y469
 BV bnd       Y470
 BV bnd       Y471
 BV bnd       Y472
 BV bnd       Y473
 BV bnd       Y474
 BV bnd       Y475
 BV bnd       Y476
 BV bnd       Y477
 BV bnd       Y478
 BV bnd       Y479
 BV bnd       Y480
 BV bnd       Y481
 BV bnd       Y482
 BV bnd       Y483
 BV bnd       Y484
 BV bnd       Y485
 BV bnd       Y486
 BV bnd       Y487
 BV bnd       Y488
 BV bnd       Y489
 BV bnd       Y490
 BV bnd       Y491
 BV bnd       Y492
 BV bnd       Y493
 BV bnd       Y494
 BV bnd       Y495
 BV bnd       Y496
 BV bnd       Y497
 BV bnd       Y498
 BV bnd       Y499
 BV bnd       Y500
 BV bnd       Y501
 BV bnd       Y502
 BV bnd       Y503
 BV bnd       Y504
 BV bnd       Y505
 BV bnd       Y506
 BV bnd       Y507
 BV bnd       Y508
 BV bnd       Y509
 BV bnd       Y510
 BV bnd       Y511
 BV bnd       Y512
 BV bnd       Y513
 BV bnd       Y514
 BV bnd       Y515
 BV bnd       Y516
 BV bnd       Y517
 BV bnd       Y518
 BV bnd       Y519
 BV bnd       Y520
 BV bnd       Y521
 BV bnd       Y522
 BV bnd       Y523
 BV bnd       Y524
 BV bnd       Y525
 BV bnd       Y526
 BV bnd       Y527
 BV bnd       Y528
 BV bnd       Y529
 BV bnd       Y530
 BV bnd       Y531
 BV bnd       Y532
 BV bnd       Y533
 BV bnd       Y534
 BV bnd       Y535
 BV bnd       Y536
 BV bnd       Y537
 BV bnd       Y538
 BV bnd       Y539
 BV bnd       Y540
 BV bnd       Y541
 BV bnd       Y542
 BV bnd       Y543
 BV bnd       Y544
 BV bnd       Y545
 BV bnd       Y546
 BV bnd       Y547
 BV bnd       Y548
 BV bnd       Y549
 BV bnd       Y550
 BV bnd       Y551
 BV bnd       Y552
 BV bnd       Y553
 BV bnd       Y554
 BV bnd       Y555
 BV bnd       Y556
 BV bnd       Y557
 BV bnd       Y558
 BV bnd       Y559
 BV bnd       Y560
 BV bnd       Y561
 BV bnd       Y562
 BV bnd       Y563
 BV bnd       Y564
 BV bnd       Y565
 BV bnd       Y566
 BV bnd       Y567
 BV bnd       Y568
 BV bnd       Y569
 BV bnd       Y570
 BV bnd       Y571
 BV bnd       Y572
 BV bnd       Y573
 BV bnd       Y574
 BV bnd       Y575
 BV bnd       Y576
 BV bnd       Y577
 BV bnd       Y578
 BV bnd       Y579
 BV bnd       Y580
 BV bnd       Y581
 BV bnd       Y582
 BV bnd       Y583
 BV bnd       Y584
 BV bnd       Y585
 BV bnd       Y586
 BV bnd       Y587
 BV bnd       Y588
 BV bnd       Y589
 BV bnd       Y590
 BV bnd       Y591
 BV bnd       Y592
 BV bnd       Y593
 BV bnd       Y594
 BV bnd       Y595
 BV bnd       Y596
 BV bnd       Y597
 BV bnd       Y598
 BV bnd       Y599
 BV bnd       Y600
 BV bnd       Y601
 BV bnd       Y602
 BV bnd       Y603
 BV bnd       Y604
 BV bnd       Y605
 BV bnd       Y606
 BV bnd       Y607
 BV bnd       Y608
 BV bnd       Y609
 BV bnd       Y610
 BV bnd       Y611
 BV bnd       Y612
 BV bnd       Y613
 BV bnd       Y614
 BV bnd       Y615
 BV bnd       Y616
 BV bnd       Y617
 BV bnd       Y618
 BV bnd       Y619
 BV bnd       Y620
 BV bnd       Y621
 BV bnd       Y622
 BV bnd       Y623
 BV bnd       Y624
 BV bnd       Y625
 BV bnd       Y626
 BV bnd       Y627
 BV bnd       Y628
 BV bnd       Y629
 BV bnd       Y630
 BV bnd       Y631
 BV bnd       Y632
 BV bnd       Y633
 BV bnd       Y634
 BV bnd       Y635
 BV bnd       Y636
 BV bnd       Y637
 BV bnd       Y638
 BV bnd       Y639
 BV bnd       Y640
 BV bnd       Y641
 BV bnd       Y642
 BV bnd       Y643
 BV bnd       Y644
 BV bnd       Y645
 BV bnd       Y646
 BV bnd       Y647
 BV bnd       Y648
 BV bnd       Y649
 BV bnd       Y650
 BV bnd       Y651
 BV bnd       Y652
 BV bnd       Y653
 BV bnd       Y654
 BV bnd       Y655
 BV bnd       Y656
 BV bnd       Y657
 BV bnd       Y658
 BV bnd       Y659
 BV bnd       Y660
 BV bnd       Y661
 BV bnd       Y662
 BV bnd       Y663
 BV bnd       Y664
 BV bnd       Y665
 BV bnd       Y666
 BV bnd       Y667
 BV bnd       Y668
 BV bnd       Y669
 BV bnd       Y670
 BV bnd       Y671
 BV bnd       Y672
 BV bnd       Y673
 BV bnd       Y674
 BV bnd       Y675
 BV bnd       Y676
 BV bnd       Y677
 BV bnd       Y678
 BV bnd       Y679
 BV bnd       Y680
 BV bnd       Y681
 BV bnd       Y682
 BV bnd       Y683
 BV bnd       Y684
 BV bnd       Y685
 BV bnd       Y686
 BV bnd       Y687
 BV bnd       Y688
 BV bnd       Y689
 BV bnd       Y690
 BV bnd       Y691
 BV bnd       Y692
 BV bnd       Y693
 BV bnd       Y694
 BV bnd       Y695
 BV bnd       Y696
 BV bnd       Y697
 BV bnd       Y698
 BV bnd       Y699
 BV bnd       Y700
 BV bnd       Y701
 BV bnd       Y702
 BV bnd       Y703
 BV bnd       Y704
 BV bnd       Y705
 BV bnd       Y706
 BV bnd       Y707
 BV bnd       Y708
 BV bnd       Y709
 BV bnd       Y710
 BV bnd       Y711
 BV bnd       Y712
 BV bnd       Y713
 BV bnd       Y714
 BV bnd       Y715
 BV bnd       Y716
 BV bnd       Y717
 BV bnd       Y718
 BV bnd       Y719
 BV bnd       Y720
 BV bnd       Y721
 BV bnd       Y722
 BV bnd       Y723
 BV bnd       Y724
 BV bnd       Y725
 BV bnd       Y726
 BV bnd       Y727
 BV bnd       Y728
 BV bnd       Y729
 BV bnd       Y730
 BV bnd       Y731
 BV bnd       Y732
 BV bnd       Y733
 BV bnd       Y734
 BV bnd       Y735
 BV bnd       Y736
 BV bnd       Y737
 BV bnd       Y738
 BV bnd       Y739
 BV bnd       Y740
 BV bnd       Y741
 BV bnd       Y742
 BV bnd       Y743
 BV bnd       Y744
 BV bnd       Y745
 BV bnd       Y746
 BV bnd       Y747
 BV bnd       Y748
 BV bnd       Y749
 BV bnd       Y750
 BV bnd       Y751
 BV bnd       Y752
 BV bnd       Y753
 BV bnd       Y754
 BV bnd       Y755
 BV bnd       Y756
 BV bnd       Y757
 BV bnd       Y758
 BV bnd       Y759
 BV bnd       Y760
 BV bnd       Y761
 BV bnd       Y762
 BV bnd       Y763
 BV bnd       Y764
 BV bnd       Y765
 BV bnd       Y766
 BV bnd       Y767
 BV bnd       Y768
 BV bnd       Y769
 BV bnd       Y770
 BV bnd       Y771
 BV bnd       Y772
 BV bnd       Y773
 BV bnd       Y774
 BV bnd       Y775
 BV bnd       Y776
 BV bnd       Y777
 BV bnd       Y778
 BV bnd       Y779
 BV bnd       Y780
 BV bnd       Y781
 BV bnd       Y782
 BV bnd       Y783
 BV bnd       Y784
 BV bnd       Y785
 BV bnd       Y786
 BV bnd       Y787
 BV bnd       Y788
 BV bnd       Y789
 BV bnd       Y790
 BV bnd       Y791
 BV bnd       Y792
 BV bnd       Y793
 BV bnd       Y794
 BV bnd       Y795
 BV bnd       Y796
 BV bnd       Y797
 BV bnd       Y798
 BV bnd       Y799
 BV bnd       Y800
 BV bnd       Y801
 BV bnd       Y802
 BV bnd       Y803
 BV bnd       Y804
 BV bnd       Y805
 BV bnd       Y806
 BV bnd       Y807
 BV bnd       Y808
 BV bnd       Y809
 BV bnd       Y810
 BV bnd       Y811
 BV bnd       Y812
 BV bnd       Y813
 BV bnd       Y814
 BV bnd       Y815
 BV bnd       Y816
 BV bnd       Y817
 BV bnd       Y818
 BV bnd       Y819
 BV bnd       Y820
 BV bnd       Y821
 BV bnd       Y822
 BV bnd       Y823
 BV bnd       Y824
 BV bnd       Y825
 BV bnd       Y826
 BV bnd       Y827
 BV bnd       Y828
 BV bnd       Y829
 BV bnd       Y830
 BV bnd       Y831
 BV bnd       Y832
 BV bnd       Y833
 BV bnd       Y834
 BV bnd       Y835
 BV bnd       Y836
 BV bnd       Y837
 BV bnd       Y838
 BV bnd       Y839
 BV bnd       Y840
 BV bnd       Y841
 BV bnd       Y842
 BV bnd       Y843
 BV bnd       Y844
 BV bnd       Y845
 BV bnd       Y846
 BV bnd       Y847
 BV bnd       Y848
 BV bnd       Y849
 BV bnd       Y850
 BV bnd       Y851
 BV bnd       Y852
 BV bnd       Y853
 BV bnd       Y854
 BV bnd       Y855
 BV bnd       Y856
 BV bnd       Y857
 BV bnd       Y858
 BV bnd       Y859
 BV bnd       Y860
 BV bnd       Y861
 BV bnd       Y862
 BV bnd       Y863
 BV bnd       Y864
 BV bnd       Y865
 BV bnd       Y866
 BV bnd       Y867
 BV bnd       Y868
 BV bnd       Y869
 BV bnd       Y870
 BV bnd       Y871
 BV bnd       Y872
 BV bnd       Y873
 BV bnd       Y874
 BV bnd       Y875
 BV bnd       Y876
 BV bnd       Y877
 BV bnd       Y878
 BV bnd       Y879
 BV bnd       Y880
 BV bnd       Y881
 BV bnd       Y882
 BV bnd       Y883
 BV bnd       Y884
 BV bnd       Y885
 BV bnd       Y886
 BV bnd       Y887
 BV bnd       Y888
 BV bnd       Y889
 BV bnd       Y890
 BV bnd       Y891
 BV bnd       Y892
 BV bnd       Y893
 BV bnd       Y894
 BV bnd       Y895
 BV bnd       Y896
 BV bnd       Y897
 BV bnd       Y898
 BV bnd       Y899
 BV bnd       Y900
 BV bnd       Y901
 BV bnd       Y902
 BV bnd       Y903
 BV bnd       Y904
 BV bnd       Y905
 BV bnd       Y906
 BV bnd       Y907
 BV bnd       Y908
 BV bnd       Y909
 BV bnd       Y910
 BV bnd       Y911
 BV bnd       Y912
 BV bnd       Y913
 BV bnd       Y914
 BV bnd       Y915
 BV bnd       Y916
 BV bnd       Y917
 BV bnd       Y918
 BV bnd       Y919
 BV bnd       Y920
 BV bnd       Y921
 BV bnd       Y922
 BV bnd       Y923
 BV bnd       Y924
 BV bnd       Y925
 BV bnd       Y926
 BV bnd       Y927
 BV bnd       Y928
 BV bnd       Y929
 BV bnd       Y930
 BV bnd       Y931
 BV bnd       Y932
 BV bnd       Y933
 BV bnd       Y934
 BV bnd       Y935
 BV bnd       Y936
 BV bnd       Y937
 BV bnd       Y938
 BV bnd       Y939
 BV bnd       Y940
 BV bnd       Y941
 BV bnd       Y942
 BV bnd       Y943
 BV bnd       Y944
 BV bnd       Y945
 BV bnd       Y946
 BV bnd       Y947
 BV bnd       Y948
 BV bnd       Y949
 BV bnd       Y950
 BV bnd       Y951
 BV bnd       Y952
 BV bnd       Y953
 BV bnd       Y954
 BV bnd       Y955
 BV bnd       Y956
 BV bnd       Y957
 BV bnd       Y958
 BV bnd       Y959
 BV bnd       Y960
 BV bnd       Y961
 BV bnd       Y962
 BV bnd       Y963
 BV bnd       Y964
 BV bnd       Y965
 BV bnd       Y966
 BV bnd       Y967
 BV bnd       Y968
 BV bnd       Y969
 BV bnd       Y970
 BV bnd       Y971
 BV bnd       Y972
 BV bnd       Y973
 BV bnd       Y974
 BV bnd       Y975
 BV bnd       Y976
 BV bnd       Y977
 BV bnd       Y978
 BV bnd       Y979
 BV bnd       Y980
 BV bnd       Y981
 BV bnd       Y982
 BV bnd       Y983
 BV bnd       Y984
 BV bnd       Y985
 BV bnd       Y986
 BV bnd       Y987
 BV bnd       Y988
 BV bnd       Y989
 BV bnd       Y990
 BV bnd       Y991
 BV bnd       Y992
 BV bnd       Y993
 BV bnd       Y994
 BV bnd       Y995
 BV bnd       Y996
 BV bnd       Y997
 BV bnd       Y998
 BV bnd       Y999
 BV bnd       Y1000
 BV bnd       Y1001
 BV bnd       Y1002
 BV bnd       Y1003
 BV bnd       Y1004
 BV bnd       Y1005
 BV bnd       Y1006
 BV bnd       Y1007
 BV bnd       Y1008
 BV bnd       Y1009
 BV bnd       Y1010
 BV bnd       Y1011
 BV bnd       Y1012
 BV bnd       Y1013
 BV bnd       Y1014
 BV bnd       Y1015
 BV bnd       Y1016
 BV bnd       Y1017
 BV bnd       Y1018
 BV bnd       Y1019
 BV bnd       Y1020
 BV bnd       Y1021
 BV bnd       Y1022
 BV bnd       Y1023
 BV bnd       Y1024
 BV bnd       Y1025
 BV bnd       Y1026
 BV bnd       Y1027
 BV bnd       Y1028
 BV bnd       Y1029
 BV bnd       Y1030
 BV bnd       Y1031
 BV bnd       Y1032
 BV bnd       Y1033
 BV bnd       Y1034
 BV bnd       Y1035
 BV bnd       Y1036
 BV bnd       Y1037
 BV bnd       Y1038
 BV bnd       Y1039
 BV bnd       Y1040
 BV bnd       Y1041
 BV bnd       Y1042
 BV bnd       Y1043
 BV bnd       Y1044
 BV bnd       Y1045
 BV bnd       Y1046
 BV bnd       Y1047
 BV bnd       Y1048
 BV bnd       Y1049
 BV bnd       Y1050
 BV bnd       Y1051
 BV bnd       Y1052
 BV bnd       Y1053
 BV bnd       Y1054
 BV bnd       Y1055
 BV bnd       Y1056
 BV bnd       Y1057
 BV bnd       Y1058
 BV bnd       Y1059
 BV bnd       Y1060
 BV bnd       Y1061
 BV bnd       Y1062
 BV bnd       Y1063
 BV bnd       Y1064
 BV bnd       Y1065
 BV bnd       Y1066
 BV bnd       Y1067
 BV bnd       Y1068
 BV bnd       Y1069
 BV bnd       Y1070
 BV bnd       Y1071
 BV bnd       Y1072
 BV bnd       Y1073
 BV bnd       Y1074
 BV bnd       Y1075
 BV bnd       Y1076
 BV bnd       Y1077
 BV bnd       Y1078
 BV bnd       Y1079
 BV bnd       Y1080
 BV bnd       Y1081
 BV bnd       Y1082
 BV bnd       Y1083
 BV bnd       Y1084
 BV bnd       Y1085
 BV bnd       Y1086
 BV bnd       Y1087
 BV bnd       Y1088
 BV bnd       Y1089
 BV bnd       Y1090
 BV bnd       Y1091
 BV bnd       Y1092
 BV bnd       Y1093
 BV bnd       Y1094
 BV bnd       Y1095
 BV bnd       Y1096
 BV bnd       Y1097
 BV bnd       Y1098
 BV bnd       Y1099
 BV bnd       Y1100
 BV bnd       Y1101
 BV bnd       Y1102
 BV bnd       Y1103
 BV bnd       Y1104
 BV bnd       Y1105
 BV bnd       Y1106
 BV bnd       Y1107
 BV bnd       Y1108
 BV bnd       Y1109
 BV bnd       Y1110
 BV bnd       Y1111
 BV bnd       Y1112
 BV bnd       Y1113
 BV bnd       Y1114
 BV bnd       Y1115
 BV bnd       Y1116
 BV bnd       Y1117
 BV bnd       Y1118
 BV bnd       Y1119
 BV bnd       Y1120
 BV bnd       Y1121
 BV bnd       Y1122
 BV bnd       Y1123
 BV bnd       Y1124
 BV bnd       Y1125
 BV bnd       Y1126
 BV bnd       Y1127
 BV bnd       Y1128
 BV bnd       Y1129
 BV bnd       Y1130
 BV bnd       Y1131
 BV bnd       Y1132
 BV bnd       Y1133
 BV bnd       Y1134
 BV bnd       Y1135
 BV bnd       Y1136
 BV bnd       Y1137
 BV bnd       Y1138
 BV bnd       Y1139
 BV bnd       Y1140
 BV bnd       Y1141
 BV bnd       Y1142
 BV bnd       Y1143
 BV bnd       Y1144
 BV bnd       Y1145
 BV bnd       Y1146
 BV bnd       Y1147
 BV bnd       Y1148
 BV bnd       Y1149
 BV bnd       Y1150
 BV bnd       Y1151
 BV bnd       Y1152
 BV bnd       Y1153
 BV bnd       Y1154
 BV bnd       Y1155
 BV bnd       Y1156
 BV bnd       Y1157
 BV bnd       Y1158
 BV bnd       Y1159
 BV bnd       Y1160
 BV bnd       Y1161
 BV bnd       Y1162
 BV bnd       Y1163
 BV bnd       Y1164
 BV bnd       Y1165
 BV bnd       Y1166
 BV bnd       Y1167
 BV bnd       Y1168
 BV bnd       Y1169
 BV bnd       Y1170
 BV bnd       Y1171
 BV bnd       Y1172
 BV bnd       Y1173
 BV bnd       Y1174
 BV bnd       Y1175
 BV bnd       Y1176
 BV bnd       Y1177
 BV bnd       Y1178
 BV bnd       Y1179
 BV bnd       Y1180
 BV bnd       Y1181
 BV bnd       Y1182
 BV bnd       Y1183
 BV bnd       Y1184
 BV bnd       Y1185
 BV bnd       Y1186
 BV bnd       Y1187
 BV bnd       Y1188
 BV bnd       Y1189
 BV bnd       Y1190
 BV bnd       Y1191
 BV bnd       Y1192
 BV bnd       Y1193
 BV bnd       Y1194
 BV bnd       Y1195
 BV bnd       Y1196
 BV bnd       Y1197
 BV bnd       Y1198
 BV bnd       Y1199
 BV bnd       Y1200
 BV bnd       Y1201
 BV bnd       Y1202
 BV bnd       Y1203
 BV bnd       Y1204
 BV bnd       Y1205
 BV bnd       Y1206
 BV bnd       Y1207
 BV bnd       Y1208
 BV bnd       Y1209
 BV bnd       Y1210
 BV bnd       Y1211
 BV bnd       Y1212
 BV bnd       Y1213
 BV bnd       Y1214
 BV bnd       Y1215
 BV bnd       Y1216
 BV bnd       Y1217
 BV bnd       Y1218
 BV bnd       Y1219
 BV bnd       Y1220
 BV bnd       Y1221
 BV bnd       Y1222
 BV bnd       Y1223
 BV bnd       Y1224
 BV bnd       Y1225
 BV bnd       Y1226
 BV bnd       Y1227
 BV bnd       Y1228
 BV bnd       Y1229
 BV bnd       Y1230
 BV bnd       Y1231
 BV bnd       Y1232
 BV bnd       Y1233
 BV bnd       Y1234
 BV bnd       Y1235
 BV bnd       Y1236
 BV bnd       Y1237
 BV bnd       Y1238
 BV bnd       Y1239
 BV bnd       Y1240
 BV bnd       Y1241
 BV bnd       Y1242
 BV bnd       Y1243
 BV bnd       Y1244
 BV bnd       Y1245
 BV bnd       Y1246
 BV bnd       Y1247
 BV bnd       Y1248
 BV bnd       Y1249
 BV bnd       Y1250
 BV bnd       Y1251
 BV bnd       Y1252
 BV bnd       Y1253
 BV bnd       Y1254
 BV bnd       Y1255
 BV bnd       Y1256
 BV bnd       Y1257
 BV bnd       Y1258
 BV bnd       Y1259
 BV bnd       Y1260
 BV bnd       Y1261
 BV bnd       Y1262
 BV bnd       Y1263
 BV bnd       Y1264
 BV bnd       Y1265
 BV bnd       Y1266
 BV bnd       Y1267
 BV bnd       Y1268
 BV bnd       Y1269
 BV bnd       Y1270
 BV bnd       Y1271
 BV bnd       Y1272
 BV bnd       Y1273
 BV bnd       Y1274
 BV bnd       Y1275
 BV bnd       Y1276
 BV bnd       Y1277
 BV bnd       Y1278
 BV bnd       Y1279
 BV bnd       Y1280
 BV bnd       Y1281
 BV bnd       Y1282
 BV bnd       Y1283
 BV bnd       Y1284
 BV bnd       Y1285
 BV bnd       Y1286
 BV bnd       Y1287
 BV bnd       Y1288
 BV bnd       Y1289
 BV bnd       Y1290
 BV bnd       Y1291
 BV bnd       Y1292
 BV bnd       Y1293
 BV bnd       Y1294
 BV bnd       Y1295
 BV bnd       Y1296
 BV bnd       Y1297
 BV bnd       Y1298
 BV bnd       Y1299
 BV bnd       Y1300
 BV bnd       Y1301
 BV bnd       Y1302
 BV bnd       Y1303
 BV bnd       Y1304
 BV bnd       Y1305
 BV bnd       Y1306
 BV bnd       Y1307
 BV bnd       Y1308
 BV bnd       Y1309
 BV bnd       Y1310
 BV bnd       Y1311
 BV bnd       Y1312
 BV bnd       Y1313
 BV bnd       Y1314
 BV bnd       Y1315
 BV bnd       Y1316
 BV bnd       Y1317
 BV bnd       Y1318
 BV bnd       Y1319
 BV bnd       Y1320
 BV bnd       Y1321
 BV bnd       Y1322
 BV bnd       Y1323
 BV bnd       Y1324
 BV bnd       Y1325
 BV bnd       Y1326
 BV bnd       Y1327
 BV bnd       Y1328
 BV bnd       Y1329
 BV bnd       Y1330
 BV bnd       Y1331
 BV bnd       Y1332
 BV bnd       Y1333
 BV bnd       Y1334
 BV bnd       Y1335
 BV bnd       Y1336
 BV bnd       Y1337
 BV bnd       Y1338
 BV bnd       Y1339
 BV bnd       Y1340
 BV bnd       Y1341
 BV bnd       Y1342
 BV bnd       Y1343
 BV bnd       Y1344
 BV bnd       Y1345
 BV bnd       Y1346
 BV bnd       Y1347
 BV bnd       Y1348
 BV bnd       Y1349
 BV bnd       Y1350
 BV bnd       Y1351
 BV bnd       Y1352
 BV bnd       Y1353
 BV bnd       Y1354
 BV bnd       Y1355
 BV bnd       Y1356
 BV bnd       Y1357
 BV bnd       Y1358
 BV bnd       Y1359
 BV bnd       Y1360
 BV bnd       Y1361
 BV bnd       Y1362
 BV bnd       Y1363
 BV bnd       Y1364
 BV bnd       Y1365
 BV bnd       Y1366
 BV bnd       Y1367
 BV bnd       Y1368
 BV bnd       Y1369
 BV bnd       Y1370
 BV bnd       Y1371
 BV bnd       Y1372
 BV bnd       Y1373
 BV bnd       Y1374
 BV bnd       Y1375
 BV bnd       Y1376
 BV bnd       Y1377
 BV bnd       Y1378
 BV bnd       Y1379
 BV bnd       Y1380
 BV bnd       Y1381
 BV bnd       Y1382
 BV bnd       Y1383
 BV bnd       Y1384
 BV bnd       Y1385
 BV bnd       Y1386
 BV bnd       Y1387
 BV bnd       Y1388
 BV bnd       Y1389
 BV bnd       Y1390
 BV bnd       Y1391
 BV bnd       Y1392
 BV bnd       Y1393
 BV bnd       Y1394
 BV bnd       Y1395
 BV bnd       Y1396
 BV bnd       Y1397
 BV bnd       Y1398
 BV bnd       Y1399
 BV bnd       Y1400
 BV bnd       Y1401
 BV bnd       Y1402
 BV bnd       Y1403
 BV bnd       Y1404
 BV bnd       Y1405
 BV bnd       Y1406
 BV bnd       Y1407
 BV bnd       Y1408
 BV bnd       Y1409
 BV bnd       Y1410
 BV bnd       Y1411
 BV bnd       Y1412
 BV bnd       Y1413
 BV bnd       Y1414
 BV bnd       Y1415
 BV bnd       Y1416
 BV bnd       Y1417
 BV bnd       Y1418
 BV bnd       Y1419
 BV bnd       Y1420
 BV bnd       Y1421
 BV bnd       Y1422
 BV bnd       Y1423
 BV bnd       Y1424
 BV bnd       Y1425
 BV bnd       Y1426
 BV bnd       Y1427
 BV bnd       Y1428
 BV bnd       Y1429
 BV bnd       Y1430
 BV bnd       Y1431
 BV bnd       Y1432
 BV bnd       Y1433
 BV bnd       Y1434
 BV bnd       Y1435
 BV bnd       Y1436
 BV bnd       Y1437
 BV bnd       Y1438
 BV bnd       Y1439
 BV bnd       Y1440
 BV bnd       Y1441
 BV bnd       Y1442
 BV bnd       Y1443
 BV bnd       Y1444
 BV bnd       Y1445
 BV bnd       Y1446
 BV bnd       Y1447
 BV bnd       Y1448
 BV bnd       Y1449
 BV bnd       Y1450
 BV bnd       Y1451
 BV bnd       Y1452
 BV bnd       Y1453
 BV bnd       Y1454
 BV bnd       Y1455
 BV bnd       Y1456
 BV bnd       Y1457
 BV bnd       Y1458
 BV bnd       Y1459
 BV bnd       Y1460
 BV bnd       Y1461
 BV bnd       Y1462
 BV bnd       Y1463
 BV bnd       Y1464
 BV bnd       Y1465
 BV bnd       Y1466
 BV bnd       Y1467
 BV bnd       Y1468
 BV bnd       Y1469
 BV bnd       Y1470
 BV bnd       Y1471
 BV bnd       Y1472
 BV bnd       Y1473
 BV bnd       Y1474
 BV bnd       Y1475
 BV bnd       Y1476
 BV bnd       Y1477
 BV bnd       Y1478
 BV bnd       Y1479
 BV bnd       Y1480
 BV bnd       Y1481
 BV bnd       Y1482
 BV bnd       Y1483
 BV bnd       Y1484
 BV bnd       Y1485
 BV bnd       Y1486
 BV bnd       Y1487
 BV bnd       Y1488
 BV bnd       Y1489
 BV bnd       Y1490
 BV bnd       Y1491
 BV bnd       Y1492
 BV bnd       Y1493
 BV bnd       Y1494
 BV bnd       Y1495
 BV bnd       Y1496
 BV bnd       Y1497
 BV bnd       Y1498
 BV bnd       Y1499
 BV bnd       Y1500
 BV bnd       Y1501
 BV bnd       Y1502
 BV bnd       Y1503
 BV bnd       Y1504
 BV bnd       Y1505
 BV bnd       Y1506
 BV bnd       Y1507
 BV bnd       Y1508
 BV bnd       Y1509
 BV bnd       Y1510
 BV bnd       Y1511
 BV bnd       Y1512
 BV bnd       Y1513
 BV bnd       Y1514
 BV bnd       Y1515
 BV bnd       Y1516
 BV bnd       Y1517
 BV bnd       Y1518
 BV bnd       Y1519
 BV bnd       Y1520
 BV bnd       Y1521
 BV bnd       Y1522
 BV bnd       Y1523
 BV bnd       Y1524
 BV bnd       Y1525
 BV bnd       Y1526
 BV bnd       Y1527
 BV bnd       Y1528
 BV bnd       Y1529
 BV bnd       Y1530
 BV bnd       Y1531
 BV bnd       Y1532
 BV bnd       Y1533
 BV bnd       Y1534
 BV bnd       Y1535
 BV bnd       Y1536
 BV bnd       Y1537
 BV bnd       Y1538
 BV bnd       Y1539
 BV bnd       Y1540
 BV bnd       Y1541
 BV bnd       Y1542
 BV bnd       Y1543
 BV bnd       Y1544
 BV bnd       Y1545
 BV bnd       Y1546
 BV bnd       Y1547
 BV bnd       Y1548
 BV bnd       Y1549
 BV bnd       Y1550
 BV bnd       Y1551
 BV bnd       Y1552
 BV bnd       Y1553
 BV bnd       Y1554
 BV bnd       Y1555
 BV bnd       Y1556
 BV bnd       Y1557
 BV bnd       Y1558
 BV bnd       Y1559
 BV bnd       Y1560
 BV bnd       Y1561
 BV bnd       Y1562
 BV bnd       Y1563
 BV bnd       Y1564
 BV bnd       Y1565
 BV bnd       Y1566
 BV bnd       Y1567
 BV bnd       Y1568
 BV bnd       Y1569
 BV bnd       Y1570
 BV bnd       Y1571
 BV bnd       Y1572
 BV bnd       Y1573
 BV bnd       Y1574
 BV bnd       Y1575
 BV bnd       Y1576
 BV bnd       Y1577
 BV bnd       Y1578
 BV bnd       Y1579
 BV bnd       Y1580
 BV bnd       Y1581
 BV bnd       Y1582
 BV bnd       Y1583
 BV bnd       Y1584
 BV bnd       Y1585
 BV bnd       Y1586
 BV bnd       Y1587
 BV bnd       Y1588
 BV bnd       Y1589
 BV bnd       Y1590
 BV bnd       Y1591
 BV bnd       Y1592
 BV bnd       Y1593
 BV bnd       Y1594
 BV bnd       Y1595
 BV bnd       Y1596
 BV bnd       Y1597
 BV bnd       Y1598
 BV bnd       Y1599
 BV bnd       Y1600
 BV bnd       Y1601
 BV bnd       Y1602
 BV bnd       Y1603
 BV bnd       Y1604
 BV bnd       Y1605
 BV bnd       Y1606
 BV bnd       Y1607
 BV bnd       Y1608
 BV bnd       Y1609
 BV bnd       Y1610
 BV bnd       Y1611
 BV bnd       Y1612
 BV bnd       Y1613
 BV bnd       Y1614
 BV bnd       Y1615
 BV bnd       Y1616
 BV bnd       Y1617
 BV bnd       Y1618
 BV bnd       Y1619
 BV bnd       Y1620
 BV bnd       Y1621
 BV bnd       Y1622
 BV bnd       Y1623
 BV bnd       Y1624
 BV bnd       Y1625
 BV bnd       Y1626
 BV bnd       Y1627
 BV bnd       Y1628
 BV bnd       Y1629
 BV bnd       Y1630
 BV bnd       Y1631
 BV bnd       Y1632
 BV bnd       Y1633
 BV bnd       Y1634
 BV bnd       Y1635
 BV bnd       Y1636
 BV bnd       Y1637
 BV bnd       Y1638
 BV bnd       Y1639
 BV bnd       Y1640
 BV bnd       Y1641
 BV bnd       Y1642
 BV bnd       Y1643
 BV bnd       Y1644
 BV bnd       Y1645
 BV bnd       Y1646
 BV bnd       Y1647
 BV bnd       Y1648
 BV bnd       Y1649
 BV bnd       Y1650
 BV bnd       Y1651
 BV bnd       Y1652
 BV bnd       Y1653
 BV bnd       Y1654
 BV bnd       Y1655
 BV bnd       Y1656
 BV bnd       Y1657
 BV bnd       Y1658
 BV bnd       Y1659
 BV bnd       Y1660
 BV bnd       Y1661
 BV bnd       Y1662
 BV bnd       Y1663
 BV bnd       Y1664
 BV bnd       Y1665
 BV bnd       Y1666
 BV bnd       Y1667
 BV bnd       Y1668
 BV bnd       Y1669
 BV bnd       Y1670
 BV bnd       Y1671
 BV bnd       Y1672
 BV bnd       Y1673
 BV bnd       Y1674
 BV bnd       Y1675
 BV bnd       Y1676
 BV bnd       Y1677
 BV bnd       Y1678
 BV bnd       Y1679
 BV bnd       Y1680
 BV bnd       Y1681
 BV bnd       Y1682
 BV bnd       Y1683
 BV bnd       Y1684
 BV bnd       Y1685
 BV bnd       Y1686
 BV bnd       Y1687
 BV bnd       Y1688
 BV bnd       Y1689
 BV bnd       Y1690
 BV bnd       Y1691
 BV bnd       Y1692
 BV bnd       Y1693
 BV bnd       Y1694
 BV bnd       Y1695
 BV bnd       Y1696
 BV bnd       Y1697
 BV bnd       Y1698
 BV bnd       Y1699
 BV bnd       Y1700
 BV bnd       Y1701
 BV bnd       Y1702
 BV bnd       Y1703
 BV bnd       Y1704
 BV bnd       Y1705
 BV bnd       Y1706
 BV bnd       Y1707
 BV bnd       Y1708
 BV bnd       Y1709
 BV bnd       Y1710
 BV bnd       Y1711
 BV bnd       Y1712
 BV bnd       Y1713
 BV bnd       Y1714
 BV bnd       Y1715
 BV bnd       Y1716
 BV bnd       Y1717
 BV bnd       Y1718
 BV bnd       Y1719
 BV bnd       Y1720
 BV bnd       Y1721
 BV bnd       Y1722
 BV bnd       Y1723
 BV bnd       Y1724
 BV bnd       Y1725
 BV bnd       Y1726
 BV bnd       Y1727
 BV bnd       Y1728
 BV bnd       Y1729
 BV bnd       Y1730
 BV bnd       Y1731
 BV bnd       Y1732
 BV bnd       Y1733
 BV bnd       Y1734
 BV bnd       Y1735
 BV bnd       Y1736
 BV bnd       Y1737
 BV bnd       Y1738
 BV bnd       Y1739
 BV bnd       Y1740
 BV bnd       Y1741
 BV bnd       Y1742
 BV bnd       Y1743
 BV bnd       Y1744
 BV bnd       Y1745
 BV bnd       Y1746
 BV bnd       Y1747
 BV bnd       Y1748
 BV bnd       Y1749
 BV bnd       Y1750
 BV bnd       Y1751
 BV bnd       Y1752
 BV bnd       Y1753
 BV bnd       Y1754
 BV bnd       Y1755
 BV bnd       Y1756
 BV bnd       Y1757
 BV bnd       Y1758
 BV bnd       Y1759
 BV bnd       Y1760
 BV bnd       Y1761
 BV bnd       Y1762
 BV bnd       Y1763
 BV bnd       Y1764
 BV bnd       Y1765
 BV bnd       Y1766
 BV bnd       Y1767
 BV bnd       Y1768
 BV bnd       Y1769
 BV bnd       Y1770
 BV bnd       Y1771
 BV bnd       Y1772
 BV bnd       Y1773
 BV bnd       Y1774
 BV bnd       Y1775
 BV bnd       Y1776
 BV bnd       Y1777
 BV bnd       Y1778
 BV bnd       Y1779
 BV bnd       Y1780
 BV bnd       Y1781
 BV bnd       Y1782
 BV bnd       Y1783
 BV bnd       Y1784
 BV bnd       Y1785
 BV bnd       Y1786
 BV bnd       Y1787
 BV bnd       Y1788
 BV bnd       Y1789
 BV bnd       Y1790
 BV bnd       Y1791
 BV bnd       Y1792
 BV bnd       Y1793
 BV bnd       Y1794
 BV bnd       Y1795
 BV bnd       Y1796
 BV bnd       Y1797
 BV bnd       Y1798
 BV bnd       Y1799
 BV bnd       Y1800
 BV bnd       Y1801
 BV bnd       Y1802
 BV bnd       Y1803
 BV bnd       Y1804
 BV bnd       Y1805
 BV bnd       Y1806
 BV bnd       Y1807
 BV bnd       Y1808
 BV bnd       Y1809
 BV bnd       Y1810
 BV bnd       Y1811
 BV bnd       Y1812
 BV bnd       Y1813
 BV bnd       Y1814
 BV bnd       Y1815
 BV bnd       Y1816
 BV bnd       Y1817
 BV bnd       Y1818
 BV bnd       Y1819
 BV bnd       Y1820
 BV bnd       Y1821
 BV bnd       Y1822
 BV bnd       Y1823
 BV bnd       Y1824
 BV bnd       Y1825
 BV bnd       Y1826
 BV bnd       Y1827
 BV bnd       Y1828
 BV bnd       Y1829
 BV bnd       Y1830
 BV bnd       Y1831
 BV bnd       Y1832
 BV bnd       Y1833
 BV bnd       Y1834
 BV bnd       Y1835
 BV bnd       Y1836
 BV bnd       Y1837
 BV bnd       Y1838
 BV bnd       Y1839
 BV bnd       Y1840
 BV bnd       Y1841
 BV bnd       Y1842
 BV bnd       Y1843
 BV bnd       Y1844
 BV bnd       Y1845
 BV bnd       Y1846
 BV bnd       Y1847
 BV bnd       Y1848
 BV bnd       Y1849
 BV bnd       Y1850
 BV bnd       Y1851
 BV bnd       Y1852
 BV bnd       Y1853
 BV bnd       Y1854
 BV bnd       Y1855
 BV bnd       Y1856
 BV bnd       Y1857
 BV bnd       Y1858
 BV bnd       Y1859
 BV bnd       Y1860
 BV bnd       Y1861
 BV bnd       Y1862
 BV bnd       Y1863
 BV bnd       Y1864
 BV bnd       Y1865
 BV bnd       Y1866
 BV bnd       Y1867
 BV bnd       Y1868
 BV bnd       Y1869
 BV bnd       Y1870
 BV bnd       Y1871
 BV bnd       Y1872
 BV bnd       Y1873
 BV bnd       Y1874
 BV bnd       Y1875
 BV bnd       Y1876
 BV bnd       Y1877
 BV bnd       Y1878
 BV bnd       Y1879
 BV bnd       Y1880
 BV bnd       Y1881
 BV bnd       Y1882
 BV bnd       Y1883
 BV bnd       Y1884
 BV bnd       Y1885
 BV bnd       Y1886
 BV bnd       Y1887
 BV bnd       Y1888
 BV bnd       Y1889
 BV bnd       Y1890
 BV bnd       Y1891
 BV bnd       Y1892
 BV bnd       Y1893
 BV bnd       Y1894
 BV bnd       Y1895
 BV bnd       Y1896
 BV bnd       Y1897
 BV bnd       Y1898
 BV bnd       Y1899
 BV bnd       Y1900
 BV bnd       Y1901
 BV bnd       Y1902
 BV bnd       Y1903
 BV bnd       Y1904
 BV bnd       Y1905
 BV bnd       Y1906
 BV bnd       Y1907
 BV bnd       Y1908
 BV bnd       Y1909
 BV bnd       Y1910
 BV bnd       Y1911
 BV bnd       Y1912
 BV bnd       Y1913
 BV bnd       Y1914
 BV bnd       Y1915
 BV bnd       Y1916
 BV bnd       Y1917
 BV bnd       Y1918
 BV bnd       Y1919
 BV bnd       Y1920
 BV bnd       Y1921
 BV bnd       Y1922
 BV bnd       Y1923
 BV bnd       Y1924
 BV bnd       Y1925
 BV bnd       Y1926
 BV bnd       Y1927
 BV bnd       Y1928
 BV bnd       Y1929
 BV bnd       Y1930
 BV bnd       Y1931
 BV bnd       Y1932
 BV bnd       Y1933
 BV bnd       Y1934
 BV bnd       Y1935
 BV bnd       Y1936
 BV bnd       Y1937
 BV bnd       Y1938
 BV bnd       Y1939
 BV bnd       Y1940
 BV bnd       Y1941
 BV bnd       Y1942
 BV bnd       Y1943
 BV bnd       Y1944
 BV bnd       Y1945
 BV bnd       Y1946
 BV bnd       Y1947
 BV bnd       Y1948
 BV bnd       Y1949
 BV bnd       Y1950
 BV bnd       Y1951
 BV bnd       Y1952
 BV bnd       Y1953
 BV bnd       Y1954
 BV bnd       Y1955
 BV bnd       Y1956
 BV bnd       Y1957
 BV bnd       Y1958
 BV bnd       Y1959
 BV bnd       Y1960
 BV bnd       Y1961
 BV bnd       Y1962
 BV bnd       Y1963
 BV bnd       Y1964
 BV bnd       Y1965
 BV bnd       Y1966
 BV bnd       Y1967
 BV bnd       Y1968
 BV bnd       Y1969
 BV bnd       Y1970
 BV bnd       Y1971
 BV bnd       Y1972
 BV bnd       Y1973
 BV bnd       Y1974
 BV bnd       Y1975
 BV bnd       Y1976
 BV bnd       Y1977
 BV bnd       Y1978
 BV bnd       Y1979
 BV bnd       Y1980
 BV bnd       Y1981
 BV bnd       Y1982
 BV bnd       Y1983
 BV bnd       Y1984
 BV bnd       Y1985
 BV bnd       Y1986
 BV bnd       Y1987
 BV bnd       Y1988
 BV bnd       Y1989
 BV bnd       Y1990
 BV bnd       Y1991
 BV bnd       Y1992
 BV bnd       Y1993
 BV bnd       Y1994
 BV bnd       Y1995
 BV bnd       Y1996
 BV bnd       Y1997
 BV bnd       Y1998
 BV bnd       Y1999
 BV bnd       Y2000
 BV bnd       Y2001
 BV bnd       Y2002
 BV bnd       Y2003
 BV bnd       Y2004
 BV bnd       Y2005
 BV bnd       Y2006
 BV bnd       Y2007
 BV bnd       Y2008
 BV bnd       Y2009
 BV bnd       Y2010
 BV bnd       Y2011
 BV bnd       Y2012
 BV bnd       Y2013
 BV bnd       Y2014
 BV bnd       Y2015
 BV bnd       Y2016
 BV bnd       Y2017
 BV bnd       Y2018
 BV bnd       Y2019
 BV bnd       Y2020
 BV bnd       Y2021
 BV bnd       Y2022
 BV bnd       Y2023
 BV bnd       Y2024
 BV bnd       Y2025
 BV bnd       Y2026
 BV bnd       Y2027
 BV bnd       Y2028
 BV bnd       Y2029
 BV bnd       Y2030
 BV bnd       Y2031
 BV bnd       Y2032
 BV bnd       Y2033
 BV bnd       Y2034
 BV bnd       Y2035
 BV bnd       Y2036
 BV bnd       Y2037
 BV bnd       Y2038
 BV bnd       Y2039
 BV bnd       Y2040
 BV bnd       Y2041
 BV bnd       Y2042
 BV bnd       Y2043
 BV bnd       Y2044
 BV bnd       Y2045
 BV bnd       Y2046
 BV bnd       Y2047
 BV bnd       Y2048
 BV bnd       Y2049
 BV bnd       Y2050
 BV bnd       Y2051
 BV bnd       Y2052
 BV bnd       Y2053
 BV bnd       Y2054
 BV bnd       Y2055
 BV bnd       Y2056
 BV bnd       Y2057
 BV bnd       Y2058
 BV bnd       Y2059
 BV bnd       Y2060
 BV bnd       Y2061
 BV bnd       Y2062
 BV bnd       Y2063
 BV bnd       Y2064
 BV bnd       Y2065
 BV bnd       Y2066
 BV bnd       Y2067
 BV bnd       Y2068
 BV bnd       Y2069
 BV bnd       Y2070
 BV bnd       Y2071
 BV bnd       Y2072
 BV bnd       Y2073
 BV bnd       Y2074
 BV bnd       Y2075
 BV bnd       Y2076
 BV bnd       Y2077
 BV bnd       Y2078
 BV bnd       Y2079
 BV bnd       Y2080
 BV bnd       Y2081
 BV bnd       Y2082
 BV bnd       Y2083
 BV bnd       Y2084
 BV bnd       Y2085
 BV bnd       Y2086
 BV bnd       Y2087
 BV bnd       Y2088
 BV bnd       Y2089
 BV bnd       Y2090
 BV bnd       Y2091
 BV bnd       Y2092
 BV bnd       Y2093
 BV bnd       Y2094
 BV bnd       Y2095
 BV bnd       Y2096
 BV bnd       Y2097
 BV bnd       Y2098
 BV bnd       Y2099
 BV bnd       Y2100
 BV bnd       Y2101
 BV bnd       Y2102
 BV bnd       Y2103
 BV bnd       Y2104
 BV bnd       Y2105
 BV bnd       Y2106
 BV bnd       Y2107
 BV bnd       Y2108
 BV bnd       Y2109
 BV bnd       Y2110
 BV bnd       Y2111
 BV bnd       Y2112
 BV bnd       Y2113
 BV bnd       Y2114
 BV bnd       Y2115
 BV bnd       Y2116
 BV bnd       Y2117
 BV bnd       Y2118
 BV bnd       Y2119
 BV bnd       Y2120
 BV bnd       Y2121
 BV bnd       Y2122
 BV bnd       Y2123
 BV bnd       Y2124
 BV bnd       Y2125
 BV bnd       Y2126
 BV bnd       Y2127
 BV bnd       Y2128
 BV bnd       Y2129
 BV bnd       Y2130
 BV bnd       Y2131
 BV bnd       Y2132
 BV bnd       Y2133
 BV bnd       Y2134
 BV bnd       Y2135
 BV bnd       Y2136
 BV bnd       Y2137
 BV bnd       Y2138
 BV bnd       Y2139
 BV bnd       Y2140
 BV bnd       Y2141
 BV bnd       Y2142
 BV bnd       Y2143
 BV bnd       Y2144
 BV bnd       Y2145
 BV bnd       Y2146
 BV bnd       Y2147
 BV bnd       Y2148
 BV bnd       Y2149
 BV bnd       Y2150
 BV bnd       Y2151
 BV bnd       Y2152
 BV bnd       Y2153
 BV bnd       Y2154
 BV bnd       Y2155
 BV bnd       Y2156
 BV bnd       Y2157
 BV bnd       Y2158
 BV bnd       Y2159
 BV bnd       Y2160
 BV bnd       Y2161
 BV bnd       Y2162
 BV bnd       Y2163
 BV bnd       Y2164
 BV bnd       Y2165
 BV bnd       Y2166
 BV bnd       Y2167
 BV bnd       Y2168
 BV bnd       Y2169
 BV bnd       Y2170
 BV bnd       Y2171
 BV bnd       Y2172
 BV bnd       Y2173
 BV bnd       Y2174
 BV bnd       Y2175
 BV bnd       Y2176
 BV bnd       Y2177
 BV bnd       Y2178
 BV bnd       Y2179
 BV bnd       Y2180
 BV bnd       Y2181
 BV bnd       Y2182
 BV bnd       Y2183
 BV bnd       Y2184
 BV bnd       Y2185
 BV bnd       Y2186
 BV bnd       Y2187
 BV bnd       Y2188
 BV bnd       Y2189
 BV bnd       Y2190
 BV bnd       Y2191
 BV bnd       Y2192
 BV bnd       Y2193
 BV bnd       Y2194
 BV bnd       Y2195
 BV bnd       Y2196
 BV bnd       Y2197
 BV bnd       Y2198
 BV bnd       Y2199
 BV bnd       Y2200
 BV bnd       Y2201
 BV bnd       Y2202
 BV bnd       Y2203
 BV bnd       Y2204
 BV bnd       Y2205
 BV bnd       Y2206
 BV bnd       Y2207
 BV bnd       Y2208
 BV bnd       Y2209
 BV bnd       Y2210
 BV bnd       Y2211
 BV bnd       Y2212
 BV bnd       Y2213
 BV bnd       Y2214
 BV bnd       Y2215
 BV bnd       Y2216
 BV bnd       Y2217
 BV bnd       Y2218
 BV bnd       Y2219
 BV bnd       Y2220
 BV bnd       Y2221
 BV bnd       Y2222
 BV bnd       Y2223
 BV bnd       Y2224
 BV bnd       Y2225
 BV bnd       Y2226
 BV bnd       Y2227
 BV bnd       Y2228
 BV bnd       Y2229
 BV bnd       Y2230
 BV bnd       Y2231
 BV bnd       Y2232
 BV bnd       Y2233
 BV bnd       Y2234
 BV bnd       Y2235
 BV bnd       Y2236
 BV bnd       Y2237
 BV bnd       Y2238
 BV bnd       Y2239
 BV bnd       Y2240
 BV bnd       Y2241
 BV bnd       Y2242
 BV bnd       Y2243
 BV bnd       Y2244
 BV bnd       Y2245
 BV bnd       Y2246
 BV bnd       Y2247
 BV bnd       Y2248
 BV bnd       Y2249
 BV bnd       Y2250
 BV bnd       Y2251
 BV bnd       Y2252
 BV bnd       Y2253
 BV bnd       Y2254
 BV bnd       Y2255
 BV bnd       Y2256
 BV bnd       Y2257
 BV bnd       Y2258
 BV bnd       Y2259
 BV bnd       Y2260
 BV bnd       Y2261
 BV bnd       Y2262
 BV bnd       Y2263
 BV bnd       Y2264
 BV bnd       Y2265
 BV bnd       Y2266
 BV bnd       Y2267
 BV bnd       Y2268
 BV bnd       Y2269
 BV bnd       Y2270
 BV bnd       Y2271
 BV bnd       Y2272
 BV bnd       Y2273
 BV bnd       Y2274
 BV bnd       Y2275
 BV bnd       Y2276
 BV bnd       Y2277
 BV bnd       Y2278
 BV bnd       Y2279
 BV bnd       Y2280
 BV bnd       Y2281
 BV bnd       Y2282
 BV bnd       Y2283
 BV bnd       Y2284
 BV bnd       Y2285
 BV bnd       Y2286
 BV bnd       Y2287
 BV bnd       Y2288
 BV bnd       Y2289
 BV bnd       Y2290
 BV bnd       Y2291
 BV bnd       Y2292
 BV bnd       Y2293
 BV bnd       Y2294
 BV bnd       Y2295
 BV bnd       Y2296
 BV bnd       Y2297
 BV bnd       Y2298
 BV bnd       Y2299
 BV bnd       Y2300
 BV bnd       Y2301
 BV bnd       Y2302
 BV bnd       Y2303
 BV bnd       Y2304
 BV bnd       Y2305
 BV bnd       Y2306
 BV bnd       Y2307
 BV bnd       Y2308
 BV bnd       Y2309
 BV bnd       Y2310
 BV bnd       Y2311
 BV bnd       Y2312
 BV bnd       Y2313
 BV bnd       Y2314
 BV bnd       Y2315
 BV bnd       Y2316
 BV bnd       Y2317
 BV bnd       Y2318
 BV bnd       Y2319
 BV bnd       Y2320
 BV bnd       Y2321
 BV bnd       Y2322
 BV bnd       Y2323
 BV bnd       Y2324
 BV bnd       Y2325
 BV bnd       Y2326
 BV bnd       Y2327
 BV bnd       Y2328
 BV bnd       Y2329
 BV bnd       Y2330
 BV bnd       Y2331
 BV bnd       Y2332
 BV bnd       Y2333
 BV bnd       Y2334
 BV bnd       Y2335
 BV bnd       Y2336
 BV bnd       Y2337
 BV bnd       Y2338
 BV bnd       Y2339
 BV bnd       Y2340
 BV bnd       Y2341
 BV bnd       Y2342
 BV bnd       Y2343
 BV bnd       Y2344
 BV bnd       Y2345
 BV bnd       Y2346
 BV bnd       Y2347
 BV bnd       Y2348
 BV bnd       Y2349
 BV bnd       Y2350
 BV bnd       Y2351
 BV bnd       Y2352
 BV bnd       Y2353
 BV bnd       Y2354
 BV bnd       Y2355
 BV bnd       Y2356
 BV bnd       Y2357
 BV bnd       Y2358
 BV bnd       Y2359
 BV bnd       Y2360
 BV bnd       Y2361
 BV bnd       Y2362
 BV bnd       Y2363
 BV bnd       Y2364
 BV bnd       Y2365
 BV bnd       Y2366
 BV bnd       Y2367
 BV bnd       Y2368
 BV bnd       Y2369
 BV bnd       Y2370
 BV bnd       Y2371
 BV bnd       Y2372
 BV bnd       Y2373
 BV bnd       Y2374
 BV bnd       Y2375
 BV bnd       Y2376
 BV bnd       Y2377
 BV bnd       Y2378
 BV bnd       Y2379
 BV bnd       Y2380
 BV bnd       Y2381
 BV bnd       Y2382
 BV bnd       Y2383
 BV bnd       Y2384
 BV bnd       Y2385
 BV bnd       Y2386
 BV bnd       Y2387
 BV bnd       Y2388
 BV bnd       Y2389
 BV bnd       Y2390
 BV bnd       Y2391
 BV bnd       Y2392
 BV bnd       Y2393
 BV bnd       Y2394
 BV bnd       Y2395
 BV bnd       Y2396
 BV bnd       Y2397
 BV bnd       Y2398
 BV bnd       Y2399
 BV bnd       Y2400
 BV bnd       Y2401
 BV bnd       Y2402
 BV bnd       Y2403
 BV bnd       Y2404
 BV bnd       Y2405
 BV bnd       Y2406
 BV bnd       Y2407
 BV bnd       Y2408
 BV bnd       Y2409
 BV bnd       Y2410
 BV bnd       Y2411
 BV bnd       Y2412
 BV bnd       Y2413
 BV bnd       Y2414
 BV bnd       Y2415
 BV bnd       Y2416
 BV bnd       Y2417
 BV bnd       Y2418
 BV bnd       Y2419
 BV bnd       Y2420
 BV bnd       Y2421
 BV bnd       Y2422
 BV bnd       Y2423
 BV bnd       Y2424
 BV bnd       Y2425
 BV bnd       Y2426
 BV bnd       Y2427
 BV bnd       Y2428
 BV bnd       Y2429
 BV bnd       Y2430
 BV bnd       Y2431
 BV bnd       Y2432
 BV bnd       Y2433
 BV bnd       Y2434
 BV bnd       Y2435
 BV bnd       Y2436
 BV bnd       Y2437
 BV bnd       Y2438
 BV bnd       Y2439
 BV bnd       Y2440
 BV bnd       Y2441
 BV bnd       Y2442
 BV bnd       Y2443
 BV bnd       Y2444
 BV bnd       Y2445
 BV bnd       Y2446
 BV bnd       Y2447
 BV bnd       Y2448
 BV bnd       Y2449
 BV bnd       Y2450
 BV bnd       Y2451
 BV bnd       Y2452
 BV bnd       Y2453
 BV bnd       Y2454
 BV bnd       Y2455
 BV bnd       Y2456
 BV bnd       Y2457
 BV bnd       Y2458
 BV bnd       Y2459
 BV bnd       Y2460
 BV bnd       Y2461
 BV bnd       Y2462
 BV bnd       Y2463
 BV bnd       Y2464
 BV bnd       Y2465
 BV bnd       Y2466
 BV bnd       Y2467
 BV bnd       Y2468
 BV bnd       Y2469
 BV bnd       Y2470
 BV bnd       Y2471
 BV bnd       Y2472
 BV bnd       Y2473
 BV bnd       Y2474
 BV bnd       Y2475
 BV bnd       Y2476
 BV bnd       Y2477
 BV bnd       Y2478
 BV bnd       Y2479
 BV bnd       Y2480
 BV bnd       Y2481
 BV bnd       Y2482
 BV bnd       Y2483
 BV bnd       Y2484
 BV bnd       Y2485
 BV bnd       Y2486
 BV bnd       Y2487
 BV bnd       Y2488
 BV bnd       Y2489
 BV bnd       Y2490
 BV bnd       Y2491
 BV bnd       Y2492
 BV bnd       Y2493
 BV bnd       Y2494
 BV bnd       Y2495
 BV bnd       Y2496
 BV bnd       Y2497
 BV bnd       Y2498
 BV bnd       Y2499
 BV bnd       Y2500
 BV bnd       Y2501
 BV bnd       Y2502
 BV bnd       Y2503
 BV bnd       Y2504
 BV bnd       Y2505
 BV bnd       Y2506
 BV bnd       Y2507
 BV bnd       Y2508
 BV bnd       Y2509
 BV bnd       Y2510
 BV bnd       Y2511
 BV bnd       Y2512
 BV bnd       Y2513
 BV bnd       Y2514
 BV bnd       Y2515
 BV bnd       Y2516
 BV bnd       Y2517
 BV bnd       Y2518
 BV bnd       Y2519
 BV bnd       Y2520
 BV bnd       Y2521
 BV bnd       Y2522
 BV bnd       Y2523
 BV bnd       Y2524
 BV bnd       Y2525
 BV bnd       Y2526
 BV bnd       Y2527
 BV bnd       Y2528
 BV bnd       Y2529
 BV bnd       Y2530
 BV bnd       Y2531
 BV bnd       Y2532
 BV bnd       Y2533
 BV bnd       Y2534
 BV bnd       Y2535
 BV bnd       Y2536
 BV bnd       Y2537
 BV bnd       Y2538
 BV bnd       Y2539
 BV bnd       Y2540
 BV bnd       Y2541
 BV bnd       Y2542
 BV bnd       Y2543
 BV bnd       Y2544
 BV bnd       Y2545
 BV bnd       Y2546
 BV bnd       Y2547
 BV bnd       Y2548
 BV bnd       Y2549
 BV bnd       Y2550
 BV bnd       Y2551
 BV bnd       Y2552
 BV bnd       Y2553
 BV bnd       Y2554
 BV bnd       Y2555
 BV bnd       Y2556
 BV bnd       Y2557
 BV bnd       Y2558
 BV bnd       Y2559
 BV bnd       Y2560
 BV bnd       Y2561
 BV bnd       Y2562
 BV bnd       Y2563
 BV bnd       Y2564
 BV bnd       Y2565
 BV bnd       Y2566
 BV bnd       Y2567
 BV bnd       Y2568
 BV bnd       Y2569
 BV bnd       Y2570
 BV bnd       Y2571
 BV bnd       Y2572
 BV bnd       Y2573
 BV bnd       Y2574
 BV bnd       Y2575
 BV bnd       Y2576
 BV bnd       Y2577
 BV bnd       Y2578
 BV bnd       Y2579
 BV bnd       Y2580
 BV bnd       Y2581
 BV bnd       Y2582
 BV bnd       Y2583
 BV bnd       Y2584
 BV bnd       Y2585
 BV bnd       Y2586
 BV bnd       Y2587
 BV bnd       Y2588
 BV bnd       Y2589
 BV bnd       Y2590
 BV bnd       Y2591
 BV bnd       Y2592
 BV bnd       Y2593
 BV bnd       Y2594
 BV bnd       Y2595
 BV bnd       Y2596
 BV bnd       Y2597
 BV bnd       Y2598
 BV bnd       Y2599
 BV bnd       Y2600
 BV bnd       Y2601
 BV bnd       Y2602
 BV bnd       Y2603
 BV bnd       Y2604
 BV bnd       Y2605
 BV bnd       Y2606
 BV bnd       Y2607
 BV bnd       Y2608
 BV bnd       Y2609
 BV bnd       Y2610
 BV bnd       Y2611
 BV bnd       Y2612
 BV bnd       Y2613
 BV bnd       Y2614
 BV bnd       Y2615
 BV bnd       Y2616
 BV bnd       Y2617
 BV bnd       Y2618
 BV bnd       Y2619
 BV bnd       Y2620
 BV bnd       Y2621
 BV bnd       Y2622
 BV bnd       Y2623
 BV bnd       Y2624
 BV bnd       Y2625
 BV bnd       Y2626
 BV bnd       Y2627
 BV bnd       Y2628
 BV bnd       Y2629
 BV bnd       Y2630
 BV bnd       Y2631
 BV bnd       Y2632
 BV bnd       Y2633
 BV bnd       Y2634
 BV bnd       Y2635
 BV bnd       Y2636
 BV bnd       Y2637
 BV bnd       Y2638
 BV bnd       Y2639
 BV bnd       Y2640
 BV bnd       Y2641
 BV bnd       Y2642
 BV bnd       Y2643
 BV bnd       Y2644
 BV bnd       Y2645
 BV bnd       Y2646
 BV bnd       Y2647
 BV bnd       Y2648
 BV bnd       Y2649
 BV bnd       Y2650
 BV bnd       Y2651
 BV bnd       Y2652
 BV bnd       Y2653
 BV bnd       Y2654
 BV bnd       Y2655
 BV bnd       Y2656
 BV bnd       Y2657
 BV bnd       Y2658
 BV bnd       Y2659
 BV bnd       Y2660
 BV bnd       Y2661
 BV bnd       Y2662
 BV bnd       Y2663
 BV bnd       Y2664
 BV bnd       Y2665
 BV bnd       Y2666
 BV bnd       Y2667
 BV bnd       Y2668
 BV bnd       Y2669
 BV bnd       Y2670
 BV bnd       Y2671
 BV bnd       Y2672
 BV bnd       Y2673
 BV bnd       Y2674
 BV bnd       Y2675
 BV bnd       Y2676
 BV bnd       Y2677
 BV bnd       Y2678
 BV bnd       Y2679
 BV bnd       Y2680
 BV bnd       Y2681
 BV bnd       Y2682
 BV bnd       Y2683
 BV bnd       Y2684
 BV bnd       Y2685
 BV bnd       Y2686
 BV bnd       Y2687
 BV bnd       Y2688
 BV bnd       Y2689
 BV bnd       Y2690
 BV bnd       Y2691
 BV bnd       Y2692
 BV bnd       Y2693
 BV bnd       Y2694
 BV bnd       Y2695
 BV bnd       Y2696
 BV bnd       Y2697
 BV bnd       Y2698
 BV bnd       Y2699
 BV bnd       Y2700
 BV bnd       Y2701
 BV bnd       Y2702
 BV bnd       Y2703
 BV bnd       Y2704
 BV bnd       Y2705
 BV bnd       Y2706
 BV bnd       Y2707
 BV bnd       Y2708
 BV bnd       Y2709
 BV bnd       Y2710
 BV bnd       Y2711
 BV bnd       Y2712
 BV bnd       Y2713
 BV bnd       Y2714
 BV bnd       Y2715
 BV bnd       Y2716
 BV bnd       Y2717
 BV bnd       Y2718
 BV bnd       Y2719
 BV bnd       Y2720
 BV bnd       Y2721
 BV bnd       Y2722
 BV bnd       Y2723
 BV bnd       Y2724
 BV bnd       Y2725
 BV bnd       Y2726
 BV bnd       Y2727
 BV bnd       Y2728
 BV bnd       Y2729
 BV bnd       Y2730
 BV bnd       Y2731
 BV bnd       Y2732
 BV bnd       Y2733
 BV bnd       Y2734
 BV bnd       Y2735
 BV bnd       Y2736
 BV bnd       Y2737
 BV bnd       Y2738
 BV bnd       Y2739
 BV bnd       Y2740
 BV bnd       Y2741
 BV bnd       Y2742
 BV bnd       Y2743
 BV bnd       Y2744
 BV bnd       Y2745
 BV bnd       Y2746
 BV bnd       Y2747
 BV bnd       Y2748
 BV bnd       Y2749
 BV bnd       Y2750
 BV bnd       Y2751
 BV bnd       Y2752
 BV bnd       Y2753
 BV bnd       Y2754
 BV bnd       Y2755
 BV bnd       Y2756
 BV bnd       Y2757
 BV bnd       Y2758
 BV bnd       Y2759
 BV bnd       Y2760
 BV bnd       Y2761
 BV bnd       Y2762
 BV bnd       Y2763
 BV bnd       Y2764
 BV bnd       Y2765
 BV bnd       Y2766
 BV bnd       Y2767
 BV bnd       Y2768
 BV bnd       Y2769
 BV bnd       Y2770
 BV bnd       Y2771
 BV bnd       Y2772
 BV bnd       Y2773
 BV bnd       Y2774
 BV bnd       Y2775
 BV bnd       Y2776
 BV bnd       Y2777
 BV bnd       Y2778
 BV bnd       Y2779
 BV bnd       Y2780
 BV bnd       Y2781
 BV bnd       Y2782
 BV bnd       Y2783
 BV bnd       Y2784
 BV bnd       Y2785
 BV bnd       Y2786
 BV bnd       Y2787
 BV bnd       Y2788
 BV bnd       Y2789
 BV bnd       Y2790
 BV bnd       Y2791
 BV bnd       Y2792
 BV bnd       Y2793
 BV bnd       Y2794
 BV bnd       Y2795
 BV bnd       Y2796
 BV bnd       Y2797
 BV bnd       Y2798
 BV bnd       Y2799
 BV bnd       Y2800
 BV bnd       Y2801
 BV bnd       Y2802
 BV bnd       Y2803
 BV bnd       Y2804
 BV bnd       Y2805
 BV bnd       Y2806
 BV bnd       Y2807
 BV bnd       Y2808
 BV bnd       Y2809
 BV bnd       Y2810
 BV bnd       Y2811
 BV bnd       Y2812
 BV bnd       Y2813
 BV bnd       Y2814
 BV bnd       Y2815
 BV bnd       Y2816
 BV bnd       Y2817
 BV bnd       Y2818
 BV bnd       Y2819
 BV bnd       Y2820
 BV bnd       Y2821
 BV bnd       Y2822
 BV bnd       Y2823
 BV bnd       Y2824
 BV bnd       Y2825
 BV bnd       Y2826
 BV bnd       Y2827
 BV bnd       Y2828
 BV bnd       Y2829
 BV bnd       Y2830
 BV bnd       Y2831
 BV bnd       Y2832
 BV bnd       Y2833
 BV bnd       Y2834
 BV bnd       Y2835
 BV bnd       Y2836
 BV bnd       Y2837
 BV bnd       Y2838
 BV bnd       Y2839
 BV bnd       Y2840
 BV bnd       Y2841
 BV bnd       Y2842
 BV bnd       Y2843
 BV bnd       Y2844
 BV bnd       Y2845
 BV bnd       Y2846
 BV bnd       Y2847
 BV bnd       Y2848
 BV bnd       Y2849
 BV bnd       Y2850
 BV bnd       Y2851
 BV bnd       Y2852
 BV bnd       Y2853
 BV bnd       Y2854
 BV bnd       Y2855
 BV bnd       Y2856
 BV bnd       Y2857
 BV bnd       Y2858
 BV bnd       Y2859
 BV bnd       Y2860
 BV bnd       Y2861
 BV bnd       Y2862
 BV bnd       Y2863
 BV bnd       Y2864
 BV bnd       Y2865
 BV bnd       Y2866
 BV bnd       Y2867
 BV bnd       Y2868
 BV bnd       Y2869
 BV bnd       Y2870
 BV bnd       Y2871
 BV bnd       Y2872
 BV bnd       Y2873
 BV bnd       Y2874
 BV bnd       Y2875
 BV bnd       Y2876
 BV bnd       Y2877
 BV bnd       Y2878
 BV bnd       Y2879
 BV bnd       Y2880
 BV bnd       Y2881
 BV bnd       Y2882
 BV bnd       Y2883
 BV bnd       Y2884
 BV bnd       Y2885
 BV bnd       Y2886
 BV bnd       Y2887
 BV bnd       Y2888
 BV bnd       Y2889
 BV bnd       Y2890
 BV bnd       Y2891
 BV bnd       Y2892
 BV bnd       Y2893
 BV bnd       Y2894
 BV bnd       Y2895
 BV bnd       Y2896
 BV bnd       Y2897
 BV bnd       Y2898
 BV bnd       Y2899
 BV bnd       Y2900
 BV bnd       Y2901
 BV bnd       Y2902
 BV bnd       Y2903
 BV bnd       Y2904
 BV bnd       Y2905
 BV bnd       Y2906
 BV bnd       Y2907
 BV bnd       Y2908
 BV bnd       Y2909
 BV bnd       Y2910
 BV bnd       Y2911
 BV bnd       Y2912
 BV bnd       Y2913
 BV bnd       Y2914
 BV bnd       Y2915
 BV bnd       Y2916
 BV bnd       Y2917
 BV bnd       Y2918
 BV bnd       Y2919
 BV bnd       Y2920
 BV bnd       Y2921
 BV bnd       Y2922
 BV bnd       Y2923
 BV bnd       Y2924
 BV bnd       Y2925
 BV bnd       Y2926
 BV bnd       Y2927
 BV bnd       Y2928
 BV bnd       Y2929
 BV bnd       Y2930
 BV bnd       Y2931
 BV bnd       Y2932
 BV bnd       Y2933
 BV bnd       Y2934
 BV bnd       Y2935
 BV bnd       Y2936
 BV bnd       Y2937
 BV bnd       Y2938
 BV bnd       Y2939
 BV bnd       Y2940
 BV bnd       Y2941
 BV bnd       Y2942
 BV bnd       Y2943
 BV bnd       Y2944
 BV bnd       Y2945
 BV bnd       Y2946
 BV bnd       Y2947
 BV bnd       Y2948
 BV bnd       Y2949
 BV bnd       Y2950
 BV bnd       Y2951
 BV bnd       Y2952
 BV bnd       Y2953
 BV bnd       Y2954
 BV bnd       Y2955
 BV bnd       Y2956
 BV bnd       Y2957
 BV bnd       Y2958
 BV bnd       Y2959
 BV bnd       Y2960
 BV bnd       Y2961
 BV bnd       Y2962
 BV bnd       Y2963
 BV bnd       Y2964
 BV bnd       Y2965
 BV bnd       Y2966
 BV bnd       Y2967
 BV bnd       Y2968
 BV bnd       Y2969
 BV bnd       Y2970
 BV bnd       Y2971
 BV bnd       Y2972
 BV bnd       Y2973
 BV bnd       Y2974
 BV bnd       Y2975
 BV bnd       Y2976
 BV bnd       Y2977
 BV bnd       Y2978
 BV bnd       Y2979
 BV bnd       Y2980
 BV bnd       Y2981
 BV bnd       Y2982
 BV bnd       Y2983
 BV bnd       Y2984
 BV bnd       Y2985
 BV bnd       Y2986
 BV bnd       Y2987
 BV bnd       Y2988
 BV bnd       Y2989
 BV bnd       Y2990
 BV bnd       Y2991
 BV bnd       Y2992
 BV bnd       Y2993
 BV bnd       Y2994
 BV bnd       Y2995
 BV bnd       Y2996
 BV bnd       Y2997
 BV bnd       Y2998
 BV bnd       Y2999
 BV bnd       Y3000
 BV bnd       Y3001
 BV bnd       Y3002
 BV bnd       Y3003
 BV bnd       Y3004
 BV bnd       Y3005
 BV bnd       Y3006
 BV bnd       Y3007
 BV bnd       Y3008
 BV bnd       Y3009
 BV bnd       Y3010
 BV bnd       Y3011
 BV bnd       Y3012
 BV bnd       Y3013
 BV bnd       Y3014
 BV bnd       Y3015
 BV bnd       Y3016
 BV bnd       Y3017
 BV bnd       Y3018
 BV bnd       Y3019
 BV bnd       Y3020
 BV bnd       Y3021
 BV bnd       Y3022
 BV bnd       Y3023
 BV bnd       Y3024
 BV bnd       Y3025
 BV bnd       Y3026
 BV bnd       Y3027
 BV bnd       Y3028
 BV bnd       Y3029
 BV bnd       Y3030
 BV bnd       Y3031
 BV bnd       Y3032
 BV bnd       Y3033
 BV bnd       Y3034
 BV bnd       Y3035
 BV bnd       Y3036
 BV bnd       Y3037
 BV bnd       Y3038
 BV bnd       Y3039
 BV bnd       Y3040
 BV bnd       Y3041
 BV bnd       Y3042
 BV bnd       Y3043
 BV bnd       Y3044
 BV bnd       Y3045
 BV bnd       Y3046
 BV bnd       Y3047
 BV bnd       Y3048
 BV bnd       Y3049
 BV bnd       Y3050
 BV bnd       Y3051
 BV bnd       Y3052
 BV bnd       Y3053
 BV bnd       Y3054
 BV bnd       Y3055
 BV bnd       Y3056
 BV bnd       Y3057
 BV bnd       Y3058
 BV bnd       Y3059
 BV bnd       Y3060
 BV bnd       Y3061
 BV bnd       Y3062
 BV bnd       Y3063
 BV bnd       Y3064
 BV bnd       Y3065
 BV bnd       Y3066
 BV bnd       Y3067
 BV bnd       Y3068
 BV bnd       Y3069
 BV bnd       Y3070
 BV bnd       Y3071
 BV bnd       Y3072
 BV bnd       Y3073
 BV bnd       Y3074
 BV bnd       Y3075
 BV bnd       Y3076
 BV bnd       Y3077
 BV bnd       Y3078
 BV bnd       Y3079
 BV bnd       Y3080
 BV bnd       Y3081
 BV bnd       Y3082
 BV bnd       Y3083
 BV bnd       Y3084
 BV bnd       Y3085
 BV bnd       Y3086
 BV bnd       Y3087
 BV bnd       Y3088
 BV bnd       Y3089
 BV bnd       Y3090
 BV bnd       Y3091
 BV bnd       Y3092
 BV bnd       Y3093
 BV bnd       Y3094
 BV bnd       Y3095
 BV bnd       Y3096
 BV bnd       Y3097
 BV bnd       Y3098
 BV bnd       Y3099
 BV bnd       Y3100
 BV bnd       Y3101
 BV bnd       Y3102
 BV bnd       Y3103
 BV bnd       Y3104
 BV bnd       Y3105
 BV bnd       Y3106
 BV bnd       Y3107
 BV bnd       Y3108
 BV bnd       Y3109
 BV bnd       Y3110
 BV bnd       Y3111
 BV bnd       Y3112
 BV bnd       Y3113
 BV bnd       Y3114
 BV bnd       Y3115
 BV bnd       Y3116
 BV bnd       Y3117
 BV bnd       Y3118
 BV bnd       Y3119
 BV bnd       Y3120
 BV bnd       Y3121
 BV bnd       Y3122
 BV bnd       Y3123
 BV bnd       Y3124
 BV bnd       Y3125
 BV bnd       Y3126
 BV bnd       Y3127
 BV bnd       Y3128
 BV bnd       Y3129
 BV bnd       Y3130
 BV bnd       Y3131
 BV bnd       Y3132
 BV bnd       Y3133
 BV bnd       Y3134
 BV bnd       Y3135
 BV bnd       Y3136
 BV bnd       Y3137
 BV bnd       Y3138
 BV bnd       Y3139
 BV bnd       Y3140
 BV bnd       Y3141
 BV bnd       Y3142
 BV bnd       Y3143
 BV bnd       Y3144
 BV bnd       Y3145
 BV bnd       Y3146
 BV bnd       Y3147
 BV bnd       Y3148
 BV bnd       Y3149
 BV bnd       Y3150
 BV bnd       Y3151
 BV bnd       Y3152
 BV bnd       Y3153
 BV bnd       Y3154
 BV bnd       Y3155
 BV bnd       Y3156
 BV bnd       Y3157
 BV bnd       Y3158
 BV bnd       Y3159
 BV bnd       Y3160
 BV bnd       Y3161
 BV bnd       Y3162
 BV bnd       Y3163
 BV bnd       Y3164
 BV bnd       Y3165
 BV bnd       Y3166
 BV bnd       Y3167
 BV bnd       Y3168
 BV bnd       Y3169
 BV bnd       Y3170
 BV bnd       Y3171
 BV bnd       Y3172
 BV bnd       Y3173
 BV bnd       Y3174
 BV bnd       Y3175
 BV bnd       Y3176
 BV bnd       Y3177
 BV bnd       Y3178
 BV bnd       Y3179
 BV bnd       Y3180
 BV bnd       Y3181
 BV bnd       Y3182
 BV bnd       Y3183
 BV bnd       Y3184
 BV bnd       Y3185
 BV bnd       Y3186
 BV bnd       Y3187
 BV bnd       Y3188
 BV bnd       Y3189
 BV bnd       Y3190
 BV bnd       Y3191
 BV bnd       Y3192
 BV bnd       Y3193
 BV bnd       Y3194
 BV bnd       Y3195
 BV bnd       Y3196
 BV bnd       Y3197
 BV bnd       Y3198
 BV bnd       Y3199
 BV bnd       Y3200
 BV bnd       Y3201
 BV bnd       Y3202
 BV bnd       Y3203
 BV bnd       Y3204
 BV bnd       Y3205
 BV bnd       Y3206
 BV bnd       Y3207
 BV bnd       Y3208
 BV bnd       Y3209
 BV bnd       Y3210
 BV bnd       Y3211
 BV bnd       Y3212
 BV bnd       Y3213
 BV bnd       Y3214
 BV bnd       Y3215
 BV bnd       Y3216
 BV bnd       Y3217
 BV bnd       Y3218
 BV bnd       Y3219
 BV bnd       Y3220
 BV bnd       Y3221
 BV bnd       Y3222
 BV bnd       Y3223
 BV bnd       Y3224
 BV bnd       Y3225
 BV bnd       Y3226
 BV bnd       Y3227
 BV bnd       Y3228
 BV bnd       Y3229
 BV bnd       Y3230
 BV bnd       Y3231
 BV bnd       Y3232
 BV bnd       Y3233
 BV bnd       Y3234
 BV bnd       Y3235
 BV bnd       Y3236
 BV bnd       Y3237
 BV bnd       Y3238
 BV bnd       Y3239
 BV bnd       Y3240
 BV bnd       Y3241
 BV bnd       Y3242
 BV bnd       Y3243
 BV bnd       Y3244
 BV bnd       Y3245
 BV bnd       Y3246
 BV bnd       Y3247
 BV bnd       Y3248
 BV bnd       Y3249
 BV bnd       Y3250
 BV bnd       Y3251
 BV bnd       Y3252
 BV bnd       Y3253
 BV bnd       Y3254
 BV bnd       Y3255
 BV bnd       Y3256
 BV bnd       Y3257
 BV bnd       Y3258
 BV bnd       Y3259
 BV bnd       Y3260
 BV bnd       Y3261
 BV bnd       Y3262
 BV bnd       Y3263
 BV bnd       Y3264
 BV bnd       Y3265
 BV bnd       Y3266
 BV bnd       Y3267
 BV bnd       Y3268
 BV bnd       Y3269
 BV bnd       Y3270
 BV bnd       Y3271
 BV bnd       Y3272
 BV bnd       Y3273
 BV bnd       Y3274
 BV bnd       Y3275
 BV bnd       Y3276
 BV bnd       Y3277
 BV bnd       Y3278
 BV bnd       Y3279
 BV bnd       Y3280
 BV bnd       Y3281
 BV bnd       Y3282
 BV bnd       Y3283
 BV bnd       Y3284
 BV bnd       Y3285
 BV bnd       Y3286
 BV bnd       Y3287
 BV bnd       Y3288
 BV bnd       Y3289
 BV bnd       Y3290
 BV bnd       Y3291
 BV bnd       Y3292
 BV bnd       Y3293
 BV bnd       Y3294
 BV bnd       Y3295
 BV bnd       Y3296
 BV bnd       Y3297
 BV bnd       Y3298
 BV bnd       Y3299
 BV bnd       Y3300
 BV bnd       Y3301
 BV bnd       Y3302
 BV bnd       Y3303
 BV bnd       Y3304
 BV bnd       Y3305
 BV bnd       Y3306
 BV bnd       Y3307
 BV bnd       Y3308
 BV bnd       Y3309
 BV bnd       Y3310
 BV bnd       Y3311
 BV bnd       Y3312
 BV bnd       Y3313
 BV bnd       Y3314
 BV bnd       Y3315
 BV bnd       Y3316
 BV bnd       Y3317
 BV bnd       Y3318
 BV bnd       Y3319
 BV bnd       Y3320
 BV bnd       Y3321
 BV bnd       Y3322
 BV bnd       Y3323
 BV bnd       Y3324
 BV bnd       Y3325
 BV bnd       Y3326
 BV bnd       Y3327
 BV bnd       Y3328
 BV bnd       Y3329
 BV bnd       Y3330
 BV bnd       Y3331
 BV bnd       Y3332
 BV bnd       Y3333
 BV bnd       Y3334
 BV bnd       Y3335
 BV bnd       Y3336
 BV bnd       Y3337
 BV bnd       Y3338
 BV bnd       Y3339
 BV bnd       Y3340
 BV bnd       Y3341
 BV bnd       Y3342
 BV bnd       Y3343
 BV bnd       Y3344
 BV bnd       Y3345
 BV bnd       Y3346
 BV bnd       Y3347
 BV bnd       Y3348
 BV bnd       Y3349
 BV bnd       Y3350
 BV bnd       Y3351
 BV bnd       Y3352
 BV bnd       Y3353
 BV bnd       Y3354
 BV bnd       Y3355
 BV bnd       Y3356
 BV bnd       Y3357
 BV bnd       Y3358
 BV bnd       Y3359
 BV bnd       Y3360
 BV bnd       Y3361
 BV bnd       Y3362
 BV bnd       Y3363
 BV bnd       Y3364
 BV bnd       Y3365
 BV bnd       Y3366
 BV bnd       Y3367
 BV bnd       Y3368
 BV bnd       Y3369
 BV bnd       Y3370
 BV bnd       Y3371
 BV bnd       Y3372
 BV bnd       Y3373
 BV bnd       Y3374
 BV bnd       Y3375
 BV bnd       Y3376
 BV bnd       Y3377
 BV bnd       Y3378
 BV bnd       Y3379
 BV bnd       Y3380
 BV bnd       Y3381
 BV bnd       Y3382
 BV bnd       Y3383
 BV bnd       Y3384
 BV bnd       Y3385
 BV bnd       Y3386
 BV bnd       Y3387
 BV bnd       Y3388
 BV bnd       Y3389
 BV bnd       Y3390
 BV bnd       Y3391
 BV bnd       Y3392
 BV bnd       Y3393
 BV bnd       Y3394
 BV bnd       Y3395
 BV bnd       Y3396
 BV bnd       Y3397
 BV bnd       Y3398
 BV bnd       Y3399
 BV bnd       Y3400
 BV bnd       Y3401
 BV bnd       Y3402
 BV bnd       Y3403
 BV bnd       Y3404
 BV bnd       Y3405
 BV bnd       Y3406
 BV bnd       Y3407
 BV bnd       Y3408
 BV bnd       Y3409
 BV bnd       Y3410
 BV bnd       Y3411
 BV bnd       Y3412
 BV bnd       Y3413
 BV bnd       Y3414
 BV bnd       Y3415
 BV bnd       Y3416
 BV bnd       Y3417
 BV bnd       Y3418
 BV bnd       Y3419
 BV bnd       Y3420
 BV bnd       Y3421
 BV bnd       Y3422
 BV bnd       Y3423
 BV bnd       Y3424
 BV bnd       Y3425
 BV bnd       Y3426
 BV bnd       Y3427
 BV bnd       Y3428
 BV bnd       Y3429
 BV bnd       Y3430
 BV bnd       Y3431
 BV bnd       Y3432
 BV bnd       Y3433
 BV bnd       Y3434
 BV bnd       Y3435
 BV bnd       Y3436
 BV bnd       Y3437
 BV bnd       Y3438
 BV bnd       Y3439
 BV bnd       Y3440
 BV bnd       Y3441
 BV bnd       Y3442
 BV bnd       Y3443
 BV bnd       Y3444
 BV bnd       Y3445
 BV bnd       Y3446
 BV bnd       Y3447
 BV bnd       Y3448
 BV bnd       Y3449
 BV bnd       Y3450
 BV bnd       Y3451
 BV bnd       Y3452
 BV bnd       Y3453
 BV bnd       Y3454
 BV bnd       Y3455
 BV bnd       Y3456
 BV bnd       Y3457
 BV bnd       Y3458
 BV bnd       Y3459
 BV bnd       Y3460
 BV bnd       Y3461
 BV bnd       Y3462
 BV bnd       Y3463
 BV bnd       Y3464
 BV bnd       Y3465
 BV bnd       Y3466
 BV bnd       Y3467
 BV bnd       Y3468
 BV bnd       Y3469
 BV bnd       Y3470
 BV bnd       Y3471
 BV bnd       Y3472
 BV bnd       Y3473
 BV bnd       Y3474
 BV bnd       Y3475
 BV bnd       Y3476
 BV bnd       Y3477
 BV bnd       Y3478
 BV bnd       Y3479
 BV bnd       Y3480
 BV bnd       Y3481
 BV bnd       Y3482
 BV bnd       Y3483
 BV bnd       Y3484
 BV bnd       Y3485
 BV bnd       Y3486
 BV bnd       Y3487
 BV bnd       Y3488
 BV bnd       Y3489
 BV bnd       Y3490
 BV bnd       Y3491
 BV bnd       Y3492
 BV bnd       Y3493
 BV bnd       Y3494
 BV bnd       Y3495
 BV bnd       Y3496
 BV bnd       Y3497
 BV bnd       Y3498
 BV bnd       Y3499
 BV bnd       Y3500
 BV bnd       Y3501
 BV bnd       Y3502
 BV bnd       Y3503
 BV bnd       Y3504
 BV bnd       Y3505
 BV bnd       Y3506
 BV bnd       Y3507
 BV bnd       Y3508
 BV bnd       Y3509
 BV bnd       Y3510
 BV bnd       Y3511
 BV bnd       Y3512
 BV bnd       Y3513
 BV bnd       Y3514
 BV bnd       Y3515
 BV bnd       Y3516
 BV bnd       Y3517
 BV bnd       Y3518
 BV bnd       Y3519
 BV bnd       Y3520
 BV bnd       Y3521
 BV bnd       Y3522
 BV bnd       Y3523
 BV bnd       Y3524
 BV bnd       Y3525
 BV bnd       Y3526
 BV bnd       Y3527
 BV bnd       Y3528
 BV bnd       Y3529
 BV bnd       Y3530
 BV bnd       Y3531
 BV bnd       Y3532
 BV bnd       Y3533
 BV bnd       Y3534
 BV bnd       Y3535
 BV bnd       Y3536
 BV bnd       Y3537
 BV bnd       Y3538
 BV bnd       Y3539
 BV bnd       Y3540
 BV bnd       Y3541
 BV bnd       Y3542
 BV bnd       Y3543
 BV bnd       Y3544
 BV bnd       Y3545
 BV bnd       Y3546
 BV bnd       Y3547
 BV bnd       Y3548
 BV bnd       Y3549
 BV bnd       Y3550
 BV bnd       Y3551
 BV bnd       Y3552
 BV bnd       Y3553
 BV bnd       Y3554
 BV bnd       Y3555
 BV bnd       Y3556
 BV bnd       Y3557
 BV bnd       Y3558
 BV bnd       Y3559
 BV bnd       Y3560
 BV bnd       Y3561
 BV bnd       Y3562
 BV bnd       Y3563
 BV bnd       Y3564
 BV bnd       Y3565
 BV bnd       Y3566
 BV bnd       Y3567
 BV bnd       Y3568
 BV bnd       Y3569
 BV bnd       Y3570
 BV bnd       Y3571
 BV bnd       Y3572
 BV bnd       Y3573
 BV bnd       Y3574
 BV bnd       Y3575
 BV bnd       Y3576
 BV bnd       Y3577
 BV bnd       Y3578
 BV bnd       Y3579
 BV bnd       Y3580
 BV bnd       Y3581
 BV bnd       Y3582
 BV bnd       Y3583
 BV bnd       Y3584
 BV bnd       Y3585
 BV bnd       Y3586
 BV bnd       Y3587
 BV bnd       Y3588
 BV bnd       Y3589
 BV bnd       Y3590
 BV bnd       Y3591
 BV bnd       Y3592
 BV bnd       Y3593
 BV bnd       Y3594
 BV bnd       Y3595
 BV bnd       Y3596
 BV bnd       Y3597
 BV bnd       Y3598
 BV bnd       Y3599
 BV bnd       Y3600
 BV bnd       Y3601
 BV bnd       Y3602
 BV bnd       Y3603
 BV bnd       Y3604
 BV bnd       Y3605
 BV bnd       Y3606
 BV bnd       Y3607
 BV bnd       Y3608
 BV bnd       Y3609
 BV bnd       Y3610
 BV bnd       Y3611
 BV bnd       Y3612
 BV bnd       Y3613
 BV bnd       Y3614
 BV bnd       Y3615
 BV bnd       Y3616
 BV bnd       Y3617
 BV bnd       Y3618
 BV bnd       Y3619
 BV bnd       Y3620
 BV bnd       Y3621
 BV bnd       Y3622
 BV bnd       Y3623
 BV bnd       Y3624
 BV bnd       Y3625
 BV bnd       Y3626
 BV bnd       Y3627
 BV bnd       Y3628
 BV bnd       Y3629
 BV bnd       Y3630
 BV bnd       Y3631
 BV bnd       Y3632
 BV bnd       Y3633
 BV bnd       Y3634
 BV bnd       Y3635
 BV bnd       Y3636
 BV bnd       Y3637
 BV bnd       Y3638
 BV bnd       Y3639
 BV bnd       Y3640
 BV bnd       Y3641
 BV bnd       Y3642
 BV bnd       Y3643
 BV bnd       Y3644
 BV bnd       Y3645
 BV bnd       Y3646
 BV bnd       Y3647
 BV bnd       Y3648
 BV bnd       Y3649
 BV bnd       Y3650
 BV bnd       Y3651
 BV bnd       Y3652
 BV bnd       Y3653
 BV bnd       Y3654
 BV bnd       Y3655
 BV bnd       Y3656
 BV bnd       Y3657
 BV bnd       Y3658
 BV bnd       Y3659
 BV bnd       Y3660
 BV bnd       Y3661
 BV bnd       Y3662
 BV bnd       Y3663
 BV bnd       Y3664
 BV bnd       Y3665
 BV bnd       Y3666
 BV bnd       Y3667
 BV bnd       Y3668
 BV bnd       Y3669
 BV bnd       Y3670
 BV bnd       Y3671
 BV bnd       Y3672
 BV bnd       Y3673
 BV bnd       Y3674
 BV bnd       Y3675
 BV bnd       Y3676
 BV bnd       Y3677
 BV bnd       Y3678
 BV bnd       Y3679
 BV bnd       Y3680
 BV bnd       Y3681
 BV bnd       Y3682
 BV bnd       Y3683
 BV bnd       Y3684
 BV bnd       Y3685
 BV bnd       Y3686
 BV bnd       Y3687
 BV bnd       Y3688
 BV bnd       Y3689
 BV bnd       Y3690
 BV bnd       Y3691
 BV bnd       Y3692
 BV bnd       Y3693
 BV bnd       Y3694
 BV bnd       Y3695
 BV bnd       Y3696
 BV bnd       Y3697
 BV bnd       Y3698
 BV bnd       Y3699
 BV bnd       Y3700
 BV bnd       Y3701
 BV bnd       Y3702
 BV bnd       Y3703
 BV bnd       Y3704
 BV bnd       Y3705
 BV bnd       Y3706
 BV bnd       Y3707
 BV bnd       Y3708
 BV bnd       Y3709
 BV bnd       Y3710
 BV bnd       Y3711
 BV bnd       Y3712
 BV bnd       Y3713
 BV bnd       Y3714
 BV bnd       Y3715
 BV bnd       Y3716
 BV bnd       Y3717
 BV bnd       Y3718
 BV bnd       Y3719
 BV bnd       Y3720
 BV bnd       Y3721
 BV bnd       Y3722
 BV bnd       Y3723
 BV bnd       Y3724
 BV bnd       Y3725
 BV bnd       Y3726
 BV bnd       Y3727
 BV bnd       Y3728
 BV bnd       Y3729
 BV bnd       Y3730
 BV bnd       Y3731
 BV bnd       Y3732
 BV bnd       Y3733
 BV bnd       Y3734
 BV bnd       Y3735
 BV bnd       Y3736
 BV bnd       Y3737
 BV bnd       Y3738
 BV bnd       Y3739
 BV bnd       Y3740
 BV bnd       Y3741
 BV bnd       Y3742
 BV bnd       Y3743
 BV bnd       Y3744
 BV bnd       Y3745
 BV bnd       Y3746
 BV bnd       Y3747
 BV bnd       Y3748
 BV bnd       Y3749
 BV bnd       Y3750
 BV bnd       Y3751
 BV bnd       Y3752
 BV bnd       Y3753
 BV bnd       Y3754
 BV bnd       Y3755
 BV bnd       Y3756
 BV bnd       Y3757
 BV bnd       Y3758
 BV bnd       Y3759
 BV bnd       Y3760
 BV bnd       Y3761
 BV bnd       Y3762
 BV bnd       Y3763
 BV bnd       Y3764
 BV bnd       Y3765
 BV bnd       Y3766
 BV bnd       Y3767
 BV bnd       Y3768
 BV bnd       Y3769
 BV bnd       Y3770
 BV bnd       Y3771
 BV bnd       Y3772
 BV bnd       Y3773
 BV bnd       Y3774
 BV bnd       Y3775
 BV bnd       Y3776
 BV bnd       Y3777
 BV bnd       Y3778
 BV bnd       Y3779
 BV bnd       Y3780
 BV bnd       Y3781
 BV bnd       Y3782
 BV bnd       Y3783
 BV bnd       Y3784
 BV bnd       Y3785
 BV bnd       Y3786
 BV bnd       Y3787
 BV bnd       Y3788
 BV bnd       Y3789
 BV bnd       Y3790
 BV bnd       Y3791
 BV bnd       Y3792
 BV bnd       Y3793
 BV bnd       Y3794
 BV bnd       Y3795
 BV bnd       Y3796
 BV bnd       Y3797
 BV bnd       Y3798
 BV bnd       Y3799
 BV bnd       Y3800
 BV bnd       Y3801
 BV bnd       Y3802
 BV bnd       Y3803
 BV bnd       Y3804
 BV bnd       Y3805
 BV bnd       Y3806
 BV bnd       Y3807
 BV bnd       Y3808
 BV bnd       Y3809
 BV bnd       Y3810
 BV bnd       Y3811
 BV bnd       Y3812
 BV bnd       Y3813
 BV bnd       Y3814
 BV bnd       Y3815
 BV bnd       Y3816
 BV bnd       Y3817
 BV bnd       Y3818
 BV bnd       Y3819
 BV bnd       Y3820
 BV bnd       Y3821
 BV bnd       Y3822
 BV bnd       Y3823
 BV bnd       Y3824
 BV bnd       Y3825
 BV bnd       Y3826
 BV bnd       Y3827
 BV bnd       Y3828
 BV bnd       Y3829
 BV bnd       Y3830
 BV bnd       Y3831
 BV bnd       Y3832
 BV bnd       Y3833
 BV bnd       Y3834
 BV bnd       Y3835
 BV bnd       Y3836
 BV bnd       Y3837
 BV bnd       Y3838
 BV bnd       Y3839
 BV bnd       Y3840
 BV bnd       Y3841
 BV bnd       Y3842
 BV bnd       Y3843
 BV bnd       Y3844
 BV bnd       Y3845
 BV bnd       Y3846
 BV bnd       Y3847
 BV bnd       Y3848
 BV bnd       Y3849
 BV bnd       Y3850
 BV bnd       Y3851
 BV bnd       Y3852
 BV bnd       Y3853
 BV bnd       Y3854
 BV bnd       Y3855
 BV bnd       Y3856
 BV bnd       Y3857
 BV bnd       Y3858
 BV bnd       Y3859
 BV bnd       Y3860
 BV bnd       Y3861
 BV bnd       Y3862
 BV bnd       Y3863
 BV bnd       Y3864
 BV bnd       Y3865
 BV bnd       Y3866
 BV bnd       Y3867
 BV bnd       Y3868
 BV bnd       Y3869
 BV bnd       Y3870
 BV bnd       Y3871
 BV bnd       Y3872
 BV bnd       Y3873
 BV bnd       Y3874
 BV bnd       Y3875
 BV bnd       Y3876
 BV bnd       Y3877
 BV bnd       Y3878
 BV bnd       Y3879
 BV bnd       Y3880
 BV bnd       Y3881
 BV bnd       Y3882
 BV bnd       Y3883
 BV bnd       Y3884
 BV bnd       Y3885
 BV bnd       Y3886
 BV bnd       Y3887
 BV bnd       Y3888
 BV bnd       Y3889
 BV bnd       Y3890
 BV bnd       Y3891
 BV bnd       Y3892
 BV bnd       Y3893
 BV bnd       Y3894
 BV bnd       Y3895
 BV bnd       Y3896
 BV bnd       Y3897
 BV bnd       Y3898
 BV bnd       Y3899
 BV bnd       Y3900
 BV bnd       Y3901
 BV bnd       Y3902
 BV bnd       Y3903
 BV bnd       Y3904
 BV bnd       Y3905
 BV bnd       Y3906
 BV bnd       Y3907
 BV bnd       Y3908
 BV bnd       Y3909
 BV bnd       Y3910
 BV bnd       Y3911
 BV bnd       Y3912
 BV bnd       Y3913
 BV bnd       Y3914
 BV bnd       Y3915
 BV bnd       Y3916
 BV bnd       Y3917
 BV bnd       Y3918
 BV bnd       Y3919
 BV bnd       Y3920
 BV bnd       Y3921
 BV bnd       Y3922
 BV bnd       Y3923
 BV bnd       Y3924
 BV bnd       Y3925
 BV bnd       Y3926
 BV bnd       Y3927
 BV bnd       Y3928
 BV bnd       Y3929
 BV bnd       Y3930
 BV bnd       Y3931
 BV bnd       Y3932
 BV bnd       Y3933
 BV bnd       Y3934
 BV bnd       Y3935
 BV bnd       Y3936
 BV bnd       Y3937
 BV bnd       Y3938
 BV bnd       Y3939
 BV bnd       Y3940
 BV bnd       Y3941
 BV bnd       Y3942
 BV bnd       Y3943
 BV bnd       Y3944
 BV bnd       Y3945
 BV bnd       Y3946
 BV bnd       Y3947
 BV bnd       Y3948
 BV bnd       Y3949
 BV bnd       Y3950
 BV bnd       Y3951
 BV bnd       Y3952
 BV bnd       Y3953
 BV bnd       Y3954
 BV bnd       Y3955
 BV bnd       Y3956
 BV bnd       Y3957
 BV bnd       Y3958
 BV bnd       Y3959
 BV bnd       Y3960
 BV bnd       Y3961
 BV bnd       Y3962
 BV bnd       Y3963
 BV bnd       Y3964
 BV bnd       Y3965
 BV bnd       Y3966
 BV bnd       Y3967
 BV bnd       Y3968
 BV bnd       Y3969
 BV bnd       Y3970
 BV bnd       Y3971
 BV bnd       Y3972
 BV bnd       Y3973
 BV bnd       Y3974
 BV bnd       Y3975
 BV bnd       Y3976
 BV bnd       Y3977
 BV bnd       Y3978
 BV bnd       Y3979
 BV bnd       Y3980
 BV bnd       Y3981
 BV bnd       Y3982
 BV bnd       Y3983
 BV bnd       Y3984
 BV bnd       Y3985
 BV bnd       Y3986
 BV bnd       Y3987
 BV bnd       Y3988
 BV bnd       Y3989
 BV bnd       Y3990
 BV bnd       Y3991
 BV bnd       Y3992
 BV bnd       Y3993
 BV bnd       Y3994
 BV bnd       Y3995
 BV bnd       Y3996
 BV bnd       Y3997
 BV bnd       Y3998
 BV bnd       Y3999
 BV bnd       Y4000
 BV bnd       Y4001
 BV bnd       Y4002
 BV bnd       Y4003
 BV bnd       Y4004
 BV bnd       Y4005
 BV bnd       Y4006
 BV bnd       Y4007
 BV bnd       Y4008
 BV bnd       Y4009
 BV bnd       Y4010
 BV bnd       Y4011
 BV bnd       Y4012
 BV bnd       Y4013
 BV bnd       Y4014
 BV bnd       Y4015
 BV bnd       Y4016
 BV bnd       Y4017
 BV bnd       Y4018
 BV bnd       Y4019
 BV bnd       Y4020
 BV bnd       Y4021
 BV bnd       Y4022
 BV bnd       Y4023
 BV bnd       Y4024
 BV bnd       Y4025
 BV bnd       Y4026
 BV bnd       Y4027
 BV bnd       Y4028
 BV bnd       Y4029
 BV bnd       Y4030
 BV bnd       Y4031
 BV bnd       Y4032
 BV bnd       Y4033
 BV bnd       Y4034
 BV bnd       Y4035
 BV bnd       Y4036
 BV bnd       Y4037
 BV bnd       Y4038
 BV bnd       Y4039
 BV bnd       Y4040
 BV bnd       Y4041
 BV bnd       Y4042
 BV bnd       Y4043
 BV bnd       Y4044
 BV bnd       Y4045
 BV bnd       Y4046
 BV bnd       Y4047
 BV bnd       Y4048
 BV bnd       Y4049
 BV bnd       Y4050
 BV bnd       Y4051
 BV bnd       Y4052
 BV bnd       Y4053
 BV bnd       Y4054
 BV bnd       Y4055
 BV bnd       Y4056
 BV bnd       Y4057
 BV bnd       Y4058
 BV bnd       Y4059
 BV bnd       Y4060
 BV bnd       Y4061
 BV bnd       Y4062
 BV bnd       Y4063
 BV bnd       Y4064
 BV bnd       Y4065
 BV bnd       Y4066
 BV bnd       Y4067
 BV bnd       Y4068
 BV bnd       Y4069
 BV bnd       Y4070
 BV bnd       Y4071
 BV bnd       Y4072
 BV bnd       Y4073
 BV bnd       Y4074
 BV bnd       Y4075
 BV bnd       Y4076
 BV bnd       Y4077
 BV bnd       Y4078
 BV bnd       Y4079
 BV bnd       Y4080
 BV bnd       Y4081
 BV bnd       Y4082
 BV bnd       Y4083
 BV bnd       Y4084
 BV bnd       Y4085
 BV bnd       Y4086
 BV bnd       Y4087
 BV bnd       Y4088
 BV bnd       Y4089
 BV bnd       Y4090
 BV bnd       Y4091
 BV bnd       Y4092
 BV bnd       Y4093
 BV bnd       Y4094
 BV bnd       Y4095
 BV bnd       Y4096
 BV bnd       Y4097
 BV bnd       Y4098
 BV bnd       Y4099
 BV bnd       Y4100
 BV bnd       Y4101
 BV bnd       Y4102
 BV bnd       Y4103
 BV bnd       Y4104
 BV bnd       Y4105
 BV bnd       Y4106
 BV bnd       Y4107
 BV bnd       Y4108
 BV bnd       Y4109
 BV bnd       Y4110
 BV bnd       Y4111
 BV bnd       Y4112
 BV bnd       Y4113
 BV bnd       Y4114
 BV bnd       Y4115
 BV bnd       Y4116
 BV bnd       Y4117
 BV bnd       Y4118
 BV bnd       Y4119
 BV bnd       Y4120
 BV bnd       Y4121
 BV bnd       Y4122
 BV bnd       Y4123
 BV bnd       Y4124
 BV bnd       Y4125
 BV bnd       Y4126
 BV bnd       Y4127
 BV bnd       Y4128
 BV bnd       Y4129
 BV bnd       Y4130
 BV bnd       Y4131
 BV bnd       Y4132
 BV bnd       Y4133
 BV bnd       Y4134
 BV bnd       Y4135
 BV bnd       Y4136
 BV bnd       Y4137
 BV bnd       Y4138
 BV bnd       Y4139
 BV bnd       Y4140
 BV bnd       Y4141
 BV bnd       Y4142
 BV bnd       Y4143
 BV bnd       Y4144
 BV bnd       Y4145
 BV bnd       Y4146
 BV bnd       Y4147
 BV bnd       Y4148
 BV bnd       Y4149
 BV bnd       Y4150
 BV bnd       Y4151
 BV bnd       Y4152
 BV bnd       Y4153
 BV bnd       Y4154
 BV bnd       Y4155
 BV bnd       Y4156
 BV bnd       Y4157
 BV bnd       Y4158
 BV bnd       Y4159
 BV bnd       Y4160
 BV bnd       Y4161
 BV bnd       Y4162
 BV bnd       Y4163
 BV bnd       Y4164
 BV bnd       Y4165
 BV bnd       Y4166
 BV bnd       Y4167
 BV bnd       Y4168
 BV bnd       Y4169
 BV bnd       Y4170
 BV bnd       Y4171
 BV bnd       Y4172
 BV bnd       Y4173
 BV bnd       Y4174
 BV bnd       Y4175
 BV bnd       Y4176
 BV bnd       Y4177
 BV bnd       Y4178
 BV bnd       Y4179
 BV bnd       Y4180
 BV bnd       Y4181
 BV bnd       Y4182
 BV bnd       Y4183
 BV bnd       Y4184
 BV bnd       Y4185
 BV bnd       Y4186
 BV bnd       Y4187
 BV bnd       Y4188
 BV bnd       Y4189
 BV bnd       Y4190
 BV bnd       Y4191
 BV bnd       Y4192
 BV bnd       Y4193
 BV bnd       Y4194
 BV bnd       Y4195
 BV bnd       Y4196
 BV bnd       Y4197
 BV bnd       Y4198
 BV bnd       Y4199
 BV bnd       Y4200
 BV bnd       Y4201
 BV bnd       Y4202
 BV bnd       Y4203
 BV bnd       Y4204
 BV bnd       Y4205
 BV bnd       Y4206
 BV bnd       Y4207
 BV bnd       Y4208
 BV bnd       Y4209
 BV bnd       Y4210
 BV bnd       Y4211
 BV bnd       Y4212
 BV bnd       Y4213
 BV bnd       Y4214
 BV bnd       Y4215
 BV bnd       Y4216
 BV bnd       Y4217
 BV bnd       Y4218
 BV bnd       Y4219
 BV bnd       Y4220
 BV bnd       Y4221
 BV bnd       Y4222
 BV bnd       Y4223
 BV bnd       Y4224
 BV bnd       Y4225
 BV bnd       Y4226
 BV bnd       Y4227
 BV bnd       Y4228
 BV bnd       Y4229
 BV bnd       Y4230
 BV bnd       Y4231
 BV bnd       Y4232
 BV bnd       Y4233
 BV bnd       Y4234
 BV bnd       Y4235
 BV bnd       Y4236
 BV bnd       Y4237
 BV bnd       Y4238
 BV bnd       Y4239
 BV bnd       Y4240
 BV bnd       Y4241
 BV bnd       Y4242
 BV bnd       Y4243
 BV bnd       Y4244
 BV bnd       Y4245
 BV bnd       Y4246
 BV bnd       Y4247
 BV bnd       Y4248
 BV bnd       Y4249
 BV bnd       Y4250
 BV bnd       Y4251
 BV bnd       Y4252
 BV bnd       Y4253
 BV bnd       Y4254
 BV bnd       Y4255
 BV bnd       Y4256
 BV bnd       Y4257
 BV bnd       Y4258
 BV bnd       Y4259
 BV bnd       Y4260
 BV bnd       Y4261
 BV bnd       Y4262
 BV bnd       Y4263
 BV bnd       Y4264
 BV bnd       Y4265
 BV bnd       Y4266
 BV bnd       Y4267
 BV bnd       Y4268
 BV bnd       Y4269
 BV bnd       Y4270
 BV bnd       Y4271
 BV bnd       Y4272
 BV bnd       Y4273
 BV bnd       Y4274
 BV bnd       Y4275
 BV bnd       Y4276
 BV bnd       Y4277
 BV bnd       Y4278
 BV bnd       Y4279
 BV bnd       Y4280
 BV bnd       Y4281
 BV bnd       Y4282
 BV bnd       Y4283
 BV bnd       Y4284
 BV bnd       Y4285
 BV bnd       Y4286
 BV bnd       Y4287
 BV bnd       Y4288
 BV bnd       Y4289
 BV bnd       Y4290
 BV bnd       Y4291
 BV bnd       Y4292
 BV bnd       Y4293
 BV bnd       Y4294
 BV bnd       Y4295
 BV bnd       Y4296
 BV bnd       Y4297
 BV bnd       Y4298
 BV bnd       Y4299
 BV bnd       Y4300
 BV bnd       Y4301
 BV bnd       Y4302
 BV bnd       Y4303
 BV bnd       Y4304
 BV bnd       Y4305
 BV bnd       Y4306
 BV bnd       Y4307
 BV bnd       Y4308
 BV bnd       Y4309
 BV bnd       Y4310
 BV bnd       Y4311
 BV bnd       Y4312
 BV bnd       Y4313
 BV bnd       Y4314
 BV bnd       Y4315
 BV bnd       Y4316
 BV bnd       Y4317
 BV bnd       Y4318
 BV bnd       Y4319
 BV bnd       Y4320
 BV bnd       Y4321
 BV bnd       Y4322
 BV bnd       Y4323
 BV bnd       Y4324
 BV bnd       Y4325
 BV bnd       Y4326
 BV bnd       Y4327
 BV bnd       Y4328
 BV bnd       Y4329
 BV bnd       Y4330
 BV bnd       Y4331
 BV bnd       Y4332
 BV bnd       Y4333
 BV bnd       Y4334
 BV bnd       Y4335
 BV bnd       Y4336
 BV bnd       Y4337
 BV bnd       Y4338
 BV bnd       Y4339
 BV bnd       Y4340
 BV bnd       Y4341
 BV bnd       Y4342
 BV bnd       Y4343
 BV bnd       Y4344
 BV bnd       Y4345
 BV bnd       Y4346
 BV bnd       Y4347
 BV bnd       Y4348
 BV bnd       Y4349
 BV bnd       Y4350
 BV bnd       Y4351
 BV bnd       Y4352
 BV bnd       Y4353
 BV bnd       Y4354
 BV bnd       Y4355
 BV bnd       Y4356
 BV bnd       Y4357
 BV bnd       Y4358
 BV bnd       Y4359
 BV bnd       Y4360
 BV bnd       Y4361
 BV bnd       Y4362
 BV bnd       Y4363
 BV bnd       Y4364
 BV bnd       Y4365
 BV bnd       Y4366
 BV bnd       Y4367
 BV bnd       Y4368
 BV bnd       Y4369
 BV bnd       Y4370
 BV bnd       Y4371
 BV bnd       Y4372
 BV bnd       Y4373
 BV bnd       Y4374
 BV bnd       Y4375
 BV bnd       Y4376
 BV bnd       Y4377
 BV bnd       Y4378
 BV bnd       Y4379
 BV bnd       Y4380
 BV bnd       Y4381
 BV bnd       Y4382
 BV bnd       Y4383
 BV bnd       Y4384
 BV bnd       Y4385
 BV bnd       Y4386
 BV bnd       Y4387
 BV bnd       Y4388
 BV bnd       Y4389
 BV bnd       Y4390
 BV bnd       Y4391
 BV bnd       Y4392
 BV bnd       Y4393
 BV bnd       Y4394
 BV bnd       Y4395
 BV bnd       Y4396
 BV bnd       Y4397
 BV bnd       Y4398
 BV bnd       Y4399
 BV bnd       Y4400
 BV bnd       Y4401
 BV bnd       Y4402
 BV bnd       Y4403
 BV bnd       Y4404
 BV bnd       Y4405
 BV bnd       Y4406
 BV bnd       Y4407
 BV bnd       Y4408
 BV bnd       Y4409
 BV bnd       Y4410
 BV bnd       Y4411
 BV bnd       Y4412
 BV bnd       Y4413
 BV bnd       Y4414
 BV bnd       Y4415
 BV bnd       Y4416
 BV bnd       Y4417
 BV bnd       Y4418
 BV bnd       Y4419
 BV bnd       Y4420
 BV bnd       Y4421
 BV bnd       Y4422
 BV bnd       Y4423
 BV bnd       Y4424
 BV bnd       Y4425
 BV bnd       Y4426
 BV bnd       Y4427
 BV bnd       Y4428
 BV bnd       Y4429
 BV bnd       Y4430
 BV bnd       Y4431
 BV bnd       Y4432
 BV bnd       Y4433
 BV bnd       Y4434
 BV bnd       Y4435
 BV bnd       Y4436
 BV bnd       Y4437
 BV bnd       Y4438
 BV bnd       Y4439
 BV bnd       Y4440
 BV bnd       Y4441
 BV bnd       Y4442
 BV bnd       Y4443
 BV bnd       Y4444
 BV bnd       Y4445
 BV bnd       Y4446
 BV bnd       Y4447
 BV bnd       Y4448
 BV bnd       Y4449
 BV bnd       Y4450
 BV bnd       Y4451
 BV bnd       Y4452
 BV bnd       Y4453
 BV bnd       Y4454
 BV bnd       Y4455
 BV bnd       Y4456
 BV bnd       Y4457
 BV bnd       Y4458
 BV bnd       Y4459
 BV bnd       Y4460
 BV bnd       Y4461
 BV bnd       Y4462
 BV bnd       Y4463
 BV bnd       Y4464
 BV bnd       Y4465
 BV bnd       Y4466
 BV bnd       Y4467
 BV bnd       Y4468
 BV bnd       Y4469
 BV bnd       Y4470
 BV bnd       Y4471
 BV bnd       Y4472
 BV bnd       Y4473
 BV bnd       Y4474
 BV bnd       Y4475
 BV bnd       Y4476
 BV bnd       Y4477
 BV bnd       Y4478
 BV bnd       Y4479
 BV bnd       Y4480
 BV bnd       Y4481
 BV bnd       Y4482
 BV bnd       Y4483
 BV bnd       Y4484
 BV bnd       Y4485
 BV bnd       Y4486
 BV bnd       Y4487
 BV bnd       Y4488
 BV bnd       Y4489
 BV bnd       Y4490
 BV bnd       Y4491
 BV bnd       Y4492
 BV bnd       Y4493
 BV bnd       Y4494
 BV bnd       Y4495
 BV bnd       Y4496
 BV bnd       Y4497
 BV bnd       Y4498
 BV bnd       Y4499
 BV bnd       Y4500
 BV bnd       Y4501
 BV bnd       Y4502
 BV bnd       Y4503
 BV bnd       Y4504
 BV bnd       Y4505
 BV bnd       Y4506
 BV bnd       Y4507
 BV bnd       Y4508
 BV bnd       Y4509
 BV bnd       Y4510
 BV bnd       Y4511
 BV bnd       Y4512
 BV bnd       Y4513
 BV bnd       Y4514
 BV bnd       Y4515
 BV bnd       Y4516
 BV bnd       Y4517
 BV bnd       Y4518
 BV bnd       Y4519
 BV bnd       Y4520
 BV bnd       Y4521
 BV bnd       Y4522
 BV bnd       Y4523
 BV bnd       Y4524
 BV bnd       Y4525
 BV bnd       Y4526
 BV bnd       Y4527
 BV bnd       Y4528
 BV bnd       Y4529
 BV bnd       Y4530
 BV bnd       Y4531
 BV bnd       Y4532
 BV bnd       Y4533
 BV bnd       Y4534
 BV bnd       Y4535
 BV bnd       Y4536
 BV bnd       Y4537
 BV bnd       Y4538
 BV bnd       Y4539
 BV bnd       Y4540
 BV bnd       Y4541
 BV bnd       Y4542
 BV bnd       Y4543
 BV bnd       Y4544
 BV bnd       Y4545
 BV bnd       Y4546
 BV bnd       Y4547
 BV bnd       Y4548
 BV bnd       Y4549
 BV bnd       Y4550
 BV bnd       Y4551
 BV bnd       Y4552
 BV bnd       Y4553
 BV bnd       Y4554
 BV bnd       Y4555
 BV bnd       Y4556
 BV bnd       Y4557
 BV bnd       Y4558
 BV bnd       Y4559
 BV bnd       Y4560
 BV bnd       Y4561
 BV bnd       Y4562
 BV bnd       Y4563
 BV bnd       Y4564
 BV bnd       Y4565
 BV bnd       Y4566
 BV bnd       Y4567
 BV bnd       Y4568
 BV bnd       Y4569
 BV bnd       Y4570
 BV bnd       Y4571
 BV bnd       Y4572
 BV bnd       Y4573
 BV bnd       Y4574
 BV bnd       Y4575
 BV bnd       Y4576
 BV bnd       Y4577
 BV bnd       Y4578
 BV bnd       Y4579
 BV bnd       Y4580
 BV bnd       Y4581
 BV bnd       Y4582
 BV bnd       Y4583
 BV bnd       Y4584
 BV bnd       Y4585
 BV bnd       Y4586
 BV bnd       Y4587
 BV bnd       Y4588
 BV bnd       Y4589
 BV bnd       Y4590
 BV bnd       Y4591
 BV bnd       Y4592
 BV bnd       Y4593
 BV bnd       Y4594
 BV bnd       Y4595
 BV bnd       Y4596
 BV bnd       Y4597
 BV bnd       Y4598
 BV bnd       Y4599
 BV bnd       Y4600
 BV bnd       Y4601
 BV bnd       Y4602
 BV bnd       Y4603
 BV bnd       Y4604
 BV bnd       Y4605
 BV bnd       Y4606
 BV bnd       Y4607
 BV bnd       Y4608
 BV bnd       Y4609
 BV bnd       Y4610
 BV bnd       Y4611
 BV bnd       Y4612
 BV bnd       Y4613
 BV bnd       Y4614
 BV bnd       Y4615
 BV bnd       Y4616
 BV bnd       Y4617
 BV bnd       Y4618
 BV bnd       Y4619
 BV bnd       Y4620
 BV bnd       Y4621
 BV bnd       Y4622
 BV bnd       Y4623
 BV bnd       Y4624
 BV bnd       Y4625
 BV bnd       Y4626
 BV bnd       Y4627
 BV bnd       Y4628
 BV bnd       Y4629
 BV bnd       Y4630
 BV bnd       Y4631
 BV bnd       Y4632
 BV bnd       Y4633
 BV bnd       Y4634
 BV bnd       Y4635
 BV bnd       Y4636
 BV bnd       Y4637
 BV bnd       Y4638
 BV bnd       Y4639
 BV bnd       Y4640
 BV bnd       Y4641
 BV bnd       Y4642
 BV bnd       Y4643
 BV bnd       Y4644
 BV bnd       Y4645
 BV bnd       Y4646
 BV bnd       Y4647
 BV bnd       Y4648
 BV bnd       Y4649
 BV bnd       Y4650
 BV bnd       Y4651
 BV bnd       Y4652
 BV bnd       Y4653
 BV bnd       Y4654
 BV bnd       Y4655
 BV bnd       Y4656
 BV bnd       Y4657
 BV bnd       Y4658
 BV bnd       Y4659
 BV bnd       Y4660
 BV bnd       Y4661
 BV bnd       Y4662
 BV bnd       Y4663
 BV bnd       Y4664
 BV bnd       Y4665
 BV bnd       Y4666
 BV bnd       Y4667
 BV bnd       Y4668
 BV bnd       Y4669
 BV bnd       Y4670
 BV bnd       Y4671
 BV bnd       Y4672
 BV bnd       Y4673
 BV bnd       Y4674
 BV bnd       Y4675
 BV bnd       Y4676
 BV bnd       Y4677
 BV bnd       Y4678
 BV bnd       Y4679
 BV bnd       Y4680
 BV bnd       Y4681
 BV bnd       Y4682
 BV bnd       Y4683
 BV bnd       Y4684
 BV bnd       Y4685
 BV bnd       Y4686
 BV bnd       Y4687
 BV bnd       Y4688
 BV bnd       Y4689
 BV bnd       Y4690
 BV bnd       Y4691
 BV bnd       Y4692
 BV bnd       Y4693
 BV bnd       Y4694
 BV bnd       Y4695
 BV bnd       Y4696
 BV bnd       Y4697
 BV bnd       Y4698
 BV bnd       Y4699
 BV bnd       Y4700
 BV bnd       Y4701
 BV bnd       Y4702
 BV bnd       Y4703
 BV bnd       Y4704
 BV bnd       Y4705
 BV bnd       Y4706
 BV bnd       Y4707
 BV bnd       Y4708
 BV bnd       Y4709
 BV bnd       Y4710
 BV bnd       Y4711
 BV bnd       Y4712
 BV bnd       Y4713
 BV bnd       Y4714
 BV bnd       Y4715
 BV bnd       Y4716
 BV bnd       Y4717
 BV bnd       Y4718
 BV bnd       Y4719
 BV bnd       Y4720
 BV bnd       Y4721
 BV bnd       Y4722
 BV bnd       Y4723
 BV bnd       Y4724
 BV bnd       Y4725
 BV bnd       Y4726
 BV bnd       Y4727
 BV bnd       Y4728
 BV bnd       Y4729
 BV bnd       Y4730
 BV bnd       Y4731
 BV bnd       Y4732
 BV bnd       Y4733
 BV bnd       Y4734
 BV bnd       Y4735
 BV bnd       Y4736
 BV bnd       Y4737
 BV bnd       Y4738
 BV bnd       Y4739
 BV bnd       Y4740
 BV bnd       Y4741
 BV bnd       Y4742
 BV bnd       Y4743
 BV bnd       Y4744
 BV bnd       Y4745
 BV bnd       Y4746
 BV bnd       Y4747
 BV bnd       Y4748
 BV bnd       Y4749
 BV bnd       Y4750
 BV bnd       Y4751
 BV bnd       Y4752
 BV bnd       Y4753
 BV bnd       Y4754
 BV bnd       Y4755
 BV bnd       Y4756
 BV bnd       Y4757
 BV bnd       Y4758
 BV bnd       Y4759
 BV bnd       Y4760
 BV bnd       Y4761
 BV bnd       Y4762
 BV bnd       Y4763
 BV bnd       Y4764
 BV bnd       Y4765
 BV bnd       Y4766
 BV bnd       Y4767
 BV bnd       Y4768
 BV bnd       Y4769
 BV bnd       Y4770
 BV bnd       Y4771
 BV bnd       Y4772
 BV bnd       Y4773
 BV bnd       Y4774
 BV bnd       Y4775
 BV bnd       Y4776
 BV bnd       Y4777
 BV bnd       Y4778
 BV bnd       Y4779
 BV bnd       Y4780
 BV bnd       Y4781
 BV bnd       Y4782
 BV bnd       Y4783
 BV bnd       Y4784
 BV bnd       Y4785
 BV bnd       Y4786
 BV bnd       Y4787
 BV bnd       Y4788
 BV bnd       Y4789
 BV bnd       Y4790
 BV bnd       Y4791
 BV bnd       Y4792
 BV bnd       Y4793
 BV bnd       Y4794
 BV bnd       Y4795
 BV bnd       Y4796
 BV bnd       Y4797
 BV bnd       Y4798
 BV bnd       Y4799
 BV bnd       Y4800
 BV bnd       Y4801
 BV bnd       Y4802
 BV bnd       Y4803
 BV bnd       Y4804
 BV bnd       Y4805
 BV bnd       Y4806
 BV bnd       Y4807
 BV bnd       Y4808
 BV bnd       Y4809
 BV bnd       Y4810
 BV bnd       Y4811
 BV bnd       Y4812
 BV bnd       Y4813
 BV bnd       Y4814
 BV bnd       Y4815
 BV bnd       Y4816
 BV bnd       Y4817
 BV bnd       Y4818
 BV bnd       Y4819
 BV bnd       Y4820
 BV bnd       Y4821
 BV bnd       Y4822
 BV bnd       Y4823
 BV bnd       Y4824
 BV bnd       Y4825
 BV bnd       Y4826
 BV bnd       Y4827
 BV bnd       Y4828
 BV bnd       Y4829
 BV bnd       Y4830
 BV bnd       Y4831
 BV bnd       Y4832
 BV bnd       Y4833
 BV bnd       Y4834
 BV bnd       Y4835
 BV bnd       Y4836
 BV bnd       Y4837
 BV bnd       Y4838
 BV bnd       Y4839
 BV bnd       Y4840
 BV bnd       Y4841
 BV bnd       Y4842
 BV bnd       Y4843
 BV bnd       Y4844
 BV bnd       Y4845
 BV bnd       Y4846
 BV bnd       Y4847
 BV bnd       Y4848
 BV bnd       Y4849
 BV bnd       Y4850
 BV bnd       Y4851
 BV bnd       Y4852
 BV bnd       Y4853
 BV bnd       Y4854
 BV bnd       Y4855
 BV bnd       Y4856
 BV bnd       Y4857
 BV bnd       Y4858
 BV bnd       Y4859
 BV bnd       Y4860
 BV bnd       Y4861
 BV bnd       Y4862
 BV bnd       Y4863
 BV bnd       Y4864
 BV bnd       Y4865
 BV bnd       Y4866
 BV bnd       Y4867
 BV bnd       Y4868
 BV bnd       Y4869
 BV bnd       Y4870
 BV bnd       Y4871
 BV bnd       Y4872
 BV bnd       Y4873
 BV bnd       Y4874
 BV bnd       Y4875
 BV bnd       Y4876
 BV bnd       Y4877
 BV bnd       Y4878
 BV bnd       Y4879
 BV bnd       Y4880
 BV bnd       Y4881
 BV bnd       Y4882
 BV bnd       Y4883
 BV bnd       Y4884
 BV bnd       Y4885
 BV bnd       Y4886
 BV bnd       Y4887
 BV bnd       Y4888
 BV bnd       Y4889
 BV bnd       Y4890
 BV bnd       Y4891
 BV bnd       Y4892
 BV bnd       Y4893
 BV bnd       Y4894
 BV bnd       Y4895
 BV bnd       Y4896
 BV bnd       Y4897
 BV bnd       Y4898
 BV bnd       Y4899
 BV bnd       Y4900
 BV bnd       Y4901
 BV bnd       Y4902
 BV bnd       Y4903
 BV bnd       Y4904
 BV bnd       Y4905
 BV bnd       Y4906
 BV bnd       Y4907
 BV bnd       Y4908
 BV bnd       Y4909
 BV bnd       Y4910
 BV bnd       Y4911
 BV bnd       Y4912
 BV bnd       Y4913
 BV bnd       Y4914
 BV bnd       Y4915
 BV bnd       Y4916
 BV bnd       Y4917
 BV bnd       Y4918
 BV bnd       Y4919
 BV bnd       Y4920
 BV bnd       Y4921
 BV bnd       Y4922
 BV bnd       Y4923
 BV bnd       Y4924
 BV bnd       Y4925
 BV bnd       Y4926
 BV bnd       Y4927
 BV bnd       Y4928
 BV bnd       Y4929
 BV bnd       Y4930
 BV bnd       Y4931
 BV bnd       Y4932
 BV bnd       Y4933
 BV bnd       Y4934
 BV bnd       Y4935
 BV bnd       Y4936
 BV bnd       Y4937
 BV bnd       Y4938
 BV bnd       Y4939
 BV bnd       Y4940
 BV bnd       Y4941
 BV bnd       Y4942
 BV bnd       Y4943
 BV bnd       Y4944
 BV bnd       Y4945
 BV bnd       Y4946
 BV bnd       Y4947
 BV bnd       Y4948
 BV bnd       Y4949
 BV bnd       Y4950
 BV bnd       Y4951
 BV bnd       Y4952
 BV bnd       Y4953
 BV bnd       Y4954
 BV bnd       Y4955
 BV bnd       Y4956
 BV bnd       Y4957
 BV bnd       Y4958
 BV bnd       Y4959
 BV bnd       Y4960
 BV bnd       Y4961
 BV bnd       Y4962
 BV bnd       Y4963
 BV bnd       Y4964
 BV bnd       Y4965
 BV bnd       Y4966
 BV bnd       Y4967
 BV bnd       Y4968
 BV bnd       Y4969
 BV bnd       Y4970
 BV bnd       Y4971
 BV bnd       Y4972
 BV bnd       Y4973
 BV bnd       Y4974
 BV bnd       Y4975
 BV bnd       Y4976
 BV bnd       Y4977
 BV bnd       Y4978
 BV bnd       Y4979
 BV bnd       Y4980
 BV bnd       Y4981
 BV bnd       Y4982
 BV bnd       Y4983
 BV bnd       Y4984
 BV bnd       Y4985
 BV bnd       Y4986
 BV bnd       Y4987
 BV bnd       Y4988
 BV bnd       Y4989
 BV bnd       Y4990
 BV bnd       Y4991
 BV bnd       Y4992
 BV bnd       Y4993
 BV bnd       Y4994
 BV bnd       Y4995
 BV bnd       Y4996
 BV bnd       Y4997
 BV bnd       Y4998
 BV bnd       Y4999
ENDATA
