NAME 50v-10_pre
ROWS
 N  OBJ
 E  c1      
 E  c2      
 E  c3      
 E  c4      
 E  c5      
 E  c6      
 E  c7      
 E  c8      
 E  c9      
 E  c10     
 E  c11     
 E  c12     
 E  c13     
 E  c14     
 E  c15     
 E  c16     
 E  c17     
 E  c18     
 E  c19     
 E  c20     
 E  c21     
 E  c22     
 E  c23     
 E  c24     
 E  c25     
 E  c26     
 E  c27     
 E  c28     
 E  c29     
 E  c30     
 E  c31     
 E  c32     
 E  c33     
 E  c34     
 E  c35     
 E  c36     
 E  c37     
 E  c38     
 E  c39     
 E  c40     
 E  c41     
 E  c42     
 E  c43     
 E  c44     
 E  c45     
 E  c46     
 E  c47     
 E  c48     
 E  c49     
 E  c50     
 L  c51     
 L  c52     
 L  c53     
 L  c54     
 L  c55     
 L  c56     
 L  c57     
 L  c58     
 L  c59     
 L  c60     
 L  c61     
 L  c62     
 L  c63     
 L  c64     
 L  c65     
 L  c66     
 L  c67     
 L  c68     
 L  c69     
 L  c70     
 L  c71     
 L  c72     
 L  c73     
 L  c74     
 L  c75     
 L  c76     
 L  c77     
 L  c78     
 L  c79     
 L  c80     
 L  c81     
 L  c82     
 L  c83     
 L  c84     
 L  c85     
 L  c86     
 L  c87     
 L  c88     
 L  c89     
 L  c90     
 L  c91     
 L  c92     
 L  c93     
 L  c94     
 L  c95     
 L  c96     
 L  c97     
 L  c98     
 L  c99     
 L  c100    
 L  c101    
 L  c102    
 L  c103    
 L  c104    
 L  c105    
 L  c106    
 L  c107    
 L  c108    
 L  c109    
 L  c110    
 L  c111    
 L  c112    
 L  c113    
 L  c114    
 L  c115    
 L  c116    
 L  c117    
 L  c118    
 L  c119    
 L  c120    
 L  c121    
 L  c122    
 L  c123    
 L  c124    
 L  c125    
 L  c126    
 L  c127    
 L  c128    
 L  c129    
 L  c130    
 L  c131    
 L  c132    
 L  c133    
 L  c134    
 L  c135    
 L  c136    
 L  c137    
 L  c138    
 L  c139    
 L  c140    
 L  c141    
 L  c142    
 L  c143    
 L  c144    
 L  c145    
 L  c146    
 L  c147    
 L  c148    
 L  c149    
 L  c150    
 L  c151    
 L  c152    
 L  c153    
 L  c154    
 L  c155    
 L  c156    
 L  c157    
 L  c158    
 L  c159    
 L  c160    
 L  c161    
 L  c162    
 L  c163    
 L  c164    
 L  c165    
 L  c166    
 L  c167    
 L  c168    
 L  c169    
 L  c170    
 L  c171    
 L  c172    
 L  c173    
 L  c174    
 L  c175    
 L  c176    
 L  c177    
 L  c178    
 L  c179    
 L  c180    
 L  c181    
 L  c182    
 L  c183    
 L  c184    
 L  c185    
 L  c186    
 L  c187    
 L  c188    
 L  c189    
 L  c190    
 L  c191    
 L  c192    
 L  c193    
 L  c194    
 L  c195    
 L  c196    
 L  c197    
 L  c198    
 L  c199    
 L  c200    
 L  c201    
 L  c202    
 L  c203    
 L  c204    
 L  c205    
 L  c206    
 L  c207    
 L  c208    
 L  c209    
 L  c210    
 L  c211    
 L  c212    
 L  c213    
 L  c214    
 L  c215    
 L  c216    
 L  c217    
 L  c218    
 L  c219    
 L  c220    
 L  c221    
 L  c222    
 L  c223    
 L  c224    
 L  c225    
 L  c226    
 L  c227    
 L  c228    
 L  c229    
 L  c230    
 L  c231    
 L  c232    
 L  c233    
COLUMNS
    MARKER    'MARKER'                 'INTORG'
    x367      OBJ       61.0499996691942
    x367      c51       -6
    x368      OBJ       81.0299988090992
    x368      c51       -12
    x369      OBJ       114.330000132322
    x369      c51       -24
    x370      OBJ       154.289995104074
    x370      c51       -36
    x371      OBJ       185.37000516057
    x371      c51       -48
    x372      OBJ       256.410000264645
    x372      c51       -72
    x373      OBJ       336.329996824265
    x373      c51       -96
    x374      OBJ       485.070000529289
    x374      c51       -144
    x375      OBJ       702.629998147488
    x375      c51       -216
    x376      OBJ       13.7499999254942
    x376      c52       -6
    x377      OBJ       18.2499997317791
    x377      c52       -12
    x378      OBJ       25.7500000298023
    x378      c52       -24
    x379      OBJ       34.7499988973141
    x379      c52       -36
    x380      OBJ       41.7500011622906
    x380      c52       -48
    x381      OBJ       57.7500000596046
    x381      c52       -72
    x382      OBJ       75.7499992847443
    x382      c52       -96
    x383      OBJ       109.250000119209
    x383      c52       -144
    x384      OBJ       158.249999582767
    x384      c52       -216
    x385      OBJ       7.14999996125698
    x385      c53       -6
    x386      OBJ       9.48999986052513
    x386      c53       -12
    x387      OBJ       13.3900000154972
    x387      c53       -24
    x388      OBJ       18.0699994266033
    x388      c53       -36
    x389      OBJ       21.7100006043911
    x389      c53       -48
    x390      OBJ       30.0300000309944
    x390      c53       -72
    x391      OBJ       39.389999628067
    x391      c53       -96
    x392      OBJ       56.8100000619888
    x392      c53       -144
    x393      OBJ       82.2899997830391
    x393      c53       -216
    x394      OBJ       5.49999997019768
    x394      c54       -6
    x395      OBJ       7.29999989271164
    x395      c54       -12
    x396      OBJ       10.3000000119209
    x396      c54       -24
    x397      OBJ       13.8999995589256
    x397      c54       -36
    x398      OBJ       16.7000004649162
    x398      c54       -48
    x399      OBJ       23.1000000238419
    x399      c54       -72
    x400      OBJ       30.2999997138977
    x400      c54       -96
    x401      OBJ       43.7000000476837
    x401      c54       -144
    x402      OBJ       63.299999833107
    x402      c54       -216
    x403      OBJ       47.8499997407198
    x403      c55       -6
    x404      OBJ       63.5099990665913
    x404      c55       -12
    x405      OBJ       89.6100001037121
    x405      c55       -24
    x406      OBJ       120.929996162653
    x406      c55       -36
    x407      OBJ       145.290004044771
    x407      c55       -48
    x408      OBJ       200.970000207424
    x408      c55       -72
    x409      OBJ       263.60999751091
    x409      c55       -96
    x410      OBJ       380.190000414848
    x410      c55       -144
    x411      OBJ       550.709998548031
    x411      c55       -216
    x412      OBJ       54.9999997019768
    x412      c56       -6
    x413      OBJ       72.9999989271164
    x413      c56       -12
    x414      OBJ       103.000000119209
    x414      c56       -24
    x415      OBJ       138.999995589256
    x415      c56       -36
    x416      OBJ       167.000004649162
    x416      c56       -48
    x417      OBJ       231.000000238419
    x417      c56       -72
    x418      OBJ       302.999997138977
    x418      c56       -96
    x419      OBJ       437.000000476837
    x419      c56       -144
    x420      OBJ       632.99999833107
    x420      c56       -216
    x421      OBJ       45.099999755621
    x421      c57       -6
    x422      OBJ       59.8599991202354
    x422      c57       -12
    x423      OBJ       84.4600000977516
    x423      c57       -24
    x424      OBJ       113.97999638319
    x424      c57       -36
    x425      OBJ       136.940003812313
    x425      c57       -48
    x426      OBJ       189.420000195503
    x426      c57       -72
    x427      OBJ       248.459997653961
    x427      c57       -96
    x428      OBJ       358.340000391006
    x428      c57       -144
    x429      OBJ       519.059998631477
    x429      c57       -216
    x430      OBJ       26.3999998569489
    x430      c58       -6
    x431      OBJ       35.0399994850159
    x431      c58       -12
    x432      OBJ       49.4400000572205
    x432      c58       -24
    x433      OBJ       66.719997882843
    x433      c58       -36
    x434      OBJ       80.1600022315979
    x434      c58       -48
    x435      OBJ       110.880000114441
    x435      c58       -72
    x436      OBJ       145.439998626709
    x436      c58       -96
    x437      OBJ       209.760000228882
    x437      c58       -144
    x438      OBJ       303.839999198914
    x438      c58       -216
    x439      OBJ       32.9999998211861
    x439      c59       -6
    x440      OBJ       43.7999993562698
    x440      c59       -12
    x441      OBJ       61.8000000715256
    x441      c59       -24
    x442      OBJ       83.3999973535538
    x442      c59       -36
    x443      OBJ       100.200002789497
    x443      c59       -48
    x444      OBJ       138.600000143051
    x444      c59       -72
    x445      OBJ       181.799998283386
    x445      c59       -96
    x446      OBJ       262.200000286102
    x446      c59       -144
    x447      OBJ       379.799998998642
    x447      c59       -216
    x448      OBJ       15.3999999165535
    x448      c60       -6
    x449      OBJ       20.4399996995926
    x449      c60       -12
    x450      OBJ       28.8400000333786
    x450      c60       -24
    x451      OBJ       38.9199987649918
    x451      c60       -36
    x452      OBJ       46.7600013017654
    x452      c60       -48
    x453      OBJ       64.6800000667572
    x453      c60       -72
    x454      OBJ       84.8399991989136
    x454      c60       -96
    x455      OBJ       122.360000133514
    x455      c60       -144
    x456      OBJ       177.2399995327
    x456      c60       -216
    x457      OBJ       20.8999998867512
    x457      c61       -6
    x458      OBJ       27.7399995923042
    x458      c61       -12
    x459      OBJ       39.1400000452995
    x459      c61       -24
    x460      OBJ       52.8199983239174
    x460      c61       -36
    x461      OBJ       63.4600017666817
    x461      c61       -48
    x462      OBJ       87.7800000905991
    x462      c61       -72
    x463      OBJ       115.139998912811
    x463      c61       -96
    x464      OBJ       166.060000181198
    x464      c61       -144
    x465      OBJ       240.539999365807
    x465      c61       -216
    x466      OBJ       8.79999995231628
    x466      c62       -6
    x467      OBJ       11.6799998283386
    x467      c62       -12
    x468      OBJ       16.4800000190735
    x468      c62       -24
    x469      OBJ       22.239999294281
    x469      c62       -36
    x470      OBJ       26.720000743866
    x470      c62       -48
    x471      OBJ       36.960000038147
    x471      c62       -72
    x472      OBJ       48.4799995422363
    x472      c62       -96
    x473      OBJ       69.9200000762939
    x473      c62       -144
    x474      OBJ       101.279999732971
    x474      c62       -216
    x475      OBJ       17.5999999046326
    x475      c63       -6
    x476      OBJ       23.3599996566772
    x476      c63       -12
    x477      OBJ       32.960000038147
    x477      c63       -24
    x478      OBJ       44.479998588562
    x478      c63       -36
    x479      OBJ       53.4400014877319
    x479      c63       -48
    x480      OBJ       73.9200000762939
    x480      c63       -72
    x481      OBJ       96.9599990844727
    x481      c63       -96
    x482      OBJ       139.840000152588
    x482      c63       -144
    x483      OBJ       202.559999465942
    x483      c63       -216
    x484      OBJ       40.149999782443
    x484      c64       -6
    x485      OBJ       53.289999216795
    x485      c64       -12
    x486      OBJ       75.1900000870228
    x486      c64       -24
    x487      OBJ       101.469996780157
    x487      c64       -36
    x488      OBJ       121.910003393888
    x488      c64       -48
    x489      OBJ       168.630000174046
    x489      c64       -72
    x490      OBJ       221.189997911453
    x490      c64       -96
    x491      OBJ       319.010000348091
    x491      c64       -144
    x492      OBJ       462.089998781681
    x492      c64       -216
    x493      OBJ       25.8499998599291
    x493      c65       -6
    x494      OBJ       34.3099994957447
    x494      c65       -12
    x495      OBJ       48.4100000560284
    x495      c65       -24
    x496      OBJ       65.3299979269505
    x496      c65       -36
    x497      OBJ       78.4900021851063
    x497      c65       -48
    x498      OBJ       108.570000112057
    x498      c65       -72
    x499      OBJ       142.409998655319
    x499      c65       -96
    x500      OBJ       205.390000224113
    x500      c65       -144
    x501      OBJ       297.509999215603
    x501      c65       -216
    x502      OBJ       21.4499998837709
    x502      c66       -6
    x503      OBJ       28.4699995815754
    x503      c66       -12
    x504      OBJ       40.1700000464916
    x504      c66       -24
    x505      OBJ       54.20999827981
    x505      c66       -36
    x506      OBJ       65.1300018131733
    x506      c66       -48
    x507      OBJ       90.0900000929832
    x507      c66       -72
    x508      OBJ       118.169998884201
    x508      c66       -96
    x509      OBJ       170.430000185966
    x509      c66       -144
    x510      OBJ       246.869999349117
    x510      c66       -216
    x511      OBJ       31.3499998301268
    x511      c67       -6
    x512      OBJ       41.6099993884563
    x512      c67       -12
    x513      OBJ       58.7100000679493
    x513      c67       -24
    x514      OBJ       79.2299974858761
    x514      c67       -36
    x515      OBJ       95.1900026500225
    x515      c67       -48
    x516      OBJ       131.670000135899
    x516      c67       -72
    x517      OBJ       172.709998369217
    x517      c67       -96
    x518      OBJ       249.090000271797
    x518      c67       -144
    x519      OBJ       360.80999904871
    x519      c67       -216
    x520      OBJ       39.5999997854233
    x520      c68       -6
    x521      OBJ       52.5599992275238
    x521      c68       -12
    x522      OBJ       74.1600000858307
    x522      c68       -24
    x523      OBJ       100.079996824265
    x523      c68       -36
    x524      OBJ       120.240003347397
    x524      c68       -48
    x525      OBJ       166.320000171661
    x525      c68       -72
    x526      OBJ       218.159997940063
    x526      c68       -96
    x527      OBJ       314.640000343323
    x527      c68       -144
    x528      OBJ       455.75999879837
    x528      c68       -216
    x529      OBJ       22.5499998778105
    x529      c69       -6
    x530      OBJ       29.9299995601177
    x530      c69       -12
    x531      OBJ       42.2300000488758
    x531      c69       -24
    x532      OBJ       56.9899981915951
    x532      c69       -36
    x533      OBJ       68.4700019061565
    x533      c69       -48
    x534      OBJ       94.7100000977516
    x534      c69       -72
    x535      OBJ       124.229998826981
    x535      c69       -96
    x536      OBJ       179.170000195503
    x536      c69       -144
    x537      OBJ       259.529999315739
    x537      c69       -216
    x538      OBJ       49.4999997317791
    x538      c70       -6
    x539      OBJ       65.6999990344048
    x539      c70       -12
    x540      OBJ       92.7000001072884
    x540      c70       -24
    x541      OBJ       125.099996030331
    x541      c70       -36
    x542      OBJ       150.300004184246
    x542      c70       -48
    x543      OBJ       207.900000214577
    x543      c70       -72
    x544      OBJ       272.699997425079
    x544      c70       -96
    x545      OBJ       393.300000429153
    x545      c70       -144
    x546      OBJ       569.699998497963
    x546      c70       -216
    x547      OBJ       32.9999998211861
    x547      c71       -6
    x548      OBJ       43.7999993562698
    x548      c71       -12
    x549      OBJ       61.8000000715256
    x549      c71       -24
    x550      OBJ       83.3999973535538
    x550      c71       -36
    x551      OBJ       100.200002789497
    x551      c71       -48
    x552      OBJ       138.600000143051
    x552      c71       -72
    x553      OBJ       181.799998283386
    x553      c71       -96
    x554      OBJ       262.200000286102
    x554      c71       -144
    x555      OBJ       379.799998998642
    x555      c71       -216
    x556      OBJ       43.4499997645617
    x556      c72       -6
    x557      OBJ       57.669999152422
    x557      c72       -12
    x558      OBJ       81.3700000941753
    x558      c72       -24
    x559      OBJ       109.809996515512
    x559      c72       -36
    x560      OBJ       131.930003672838
    x560      c72       -48
    x561      OBJ       182.490000188351
    x561      c72       -72
    x562      OBJ       239.369997739792
    x562      c72       -96
    x563      OBJ       345.230000376701
    x563      c72       -144
    x564      OBJ       500.069998681545
    x564      c72       -216
    x565      OBJ       31.8999998271465
    x565      c73       -6
    x566      OBJ       42.3399993777275
    x566      c73       -12
    x567      OBJ       59.7400000691414
    x567      c73       -24
    x568      OBJ       80.6199974417686
    x568      c73       -36
    x569      OBJ       96.8600026965141
    x569      c73       -48
    x570      OBJ       133.980000138283
    x570      c73       -72
    x571      OBJ       175.739998340607
    x571      c73       -96
    x572      OBJ       253.460000276566
    x572      c73       -144
    x573      OBJ       367.139999032021
    x573      c73       -216
    x574      OBJ       39.0499997884035
    x574      c74       -6
    x575      OBJ       51.8299992382526
    x575      c74       -12
    x576      OBJ       73.1300000846386
    x576      c74       -24
    x577      OBJ       98.689996868372
    x577      c74       -36
    x578      OBJ       118.570003300905
    x578      c74       -48
    x579      OBJ       164.010000169277
    x579      c74       -72
    x580      OBJ       215.129997968674
    x580      c74       -96
    x581      OBJ       310.270000338554
    x581      c74       -144
    x582      OBJ       449.42999881506
    x582      c74       -216
    x583      OBJ       33.5499998182058
    x583      c75       -6
    x584      OBJ       44.529999345541
    x584      c75       -12
    x585      OBJ       62.8300000727177
    x585      c75       -24
    x586      OBJ       84.7899973094463
    x586      c75       -36
    x587      OBJ       101.870002835989
    x587      c75       -48
    x588      OBJ       140.910000145435
    x588      c75       -72
    x589      OBJ       184.829998254776
    x589      c75       -96
    x590      OBJ       266.570000290871
    x590      c75       -144
    x591      OBJ       386.129998981953
    x591      c75       -216
    x592      OBJ       42.3499997705221
    x592      c76       -6
    x593      OBJ       56.2099991738796
    x593      c76       -12
    x594      OBJ       79.3100000917912
    x594      c76       -24
    x595      OBJ       107.029996603727
    x595      c76       -36
    x596      OBJ       128.590003579855
    x596      c76       -48
    x597      OBJ       177.870000183582
    x597      c76       -72
    x598      OBJ       233.309997797012
    x598      c76       -96
    x599      OBJ       336.490000367165
    x599      c76       -144
    x600      OBJ       487.409998714924
    x600      c76       -216
    x601      OBJ       16.499999910593
    x601      c77       -6
    x602      OBJ       21.8999996781349
    x602      c77       -12
    x603      OBJ       30.9000000357628
    x603      c77       -24
    x604      OBJ       41.6999986767769
    x604      c77       -36
    x605      OBJ       50.1000013947487
    x605      c77       -48
    x606      OBJ       69.3000000715256
    x606      c77       -72
    x607      OBJ       90.8999991416931
    x607      c77       -96
    x608      OBJ       131.100000143051
    x608      c77       -144
    x609      OBJ       189.899999499321
    x609      c77       -216
    x610      OBJ       27.4999998509884
    x610      c78       -6
    x611      OBJ       36.4999994635582
    x611      c78       -12
    x612      OBJ       51.5000000596046
    x612      c78       -24
    x613      OBJ       69.4999977946281
    x613      c78       -36
    x614      OBJ       83.5000023245811
    x614      c78       -48
    x615      OBJ       115.500000119209
    x615      c78       -72
    x616      OBJ       151.499998569489
    x616      c78       -96
    x617      OBJ       218.500000238419
    x617      c78       -144
    x618      OBJ       316.499999165535
    x618      c78       -216
    x619      OBJ       52.2499997168779
    x619      c79       -6
    x620      OBJ       69.3499989807606
    x620      c79       -12
    x621      OBJ       97.8500001132488
    x621      c79       -24
    x622      OBJ       132.049995809793
    x622      c79       -36
    x623      OBJ       158.650004416704
    x623      c79       -48
    x624      OBJ       219.450000226498
    x624      c79       -72
    x625      OBJ       287.849997282028
    x625      c79       -96
    x626      OBJ       415.150000452995
    x626      c79       -144
    x627      OBJ       601.349998414516
    x627      c79       -216
    x628      OBJ       6.59999996423721
    x628      c80       -6
    x629      OBJ       8.75999987125397
    x629      c80       -12
    x630      OBJ       12.3600000143051
    x630      c80       -24
    x631      OBJ       16.6799994707108
    x631      c80       -36
    x632      OBJ       20.0400005578995
    x632      c80       -48
    x633      OBJ       27.7200000286102
    x633      c80       -72
    x634      OBJ       36.3599996566772
    x634      c80       -96
    x635      OBJ       52.4400000572205
    x635      c80       -144
    x636      OBJ       75.9599997997284
    x636      c80       -216
    x637      OBJ       52.7999997138977
    x637      c81       -6
    x638      OBJ       70.0799989700317
    x638      c81       -12
    x639      OBJ       98.8800001144409
    x639      c81       -24
    x640      OBJ       133.439995765686
    x640      c81       -36
    x641      OBJ       160.320004463196
    x641      c81       -48
    x642      OBJ       221.760000228882
    x642      c81       -72
    x643      OBJ       290.879997253418
    x643      c81       -96
    x644      OBJ       419.520000457764
    x644      c81       -144
    x645      OBJ       607.679998397827
    x645      c81       -216
    x646      OBJ       5.49999997019768
    x646      c82       -6
    x647      OBJ       7.29999989271164
    x647      c82       -12
    x648      OBJ       10.3000000119209
    x648      c82       -24
    x649      OBJ       13.8999995589256
    x649      c82       -36
    x650      OBJ       16.7000004649162
    x650      c82       -48
    x651      OBJ       23.1000000238419
    x651      c82       -72
    x652      OBJ       30.2999997138977
    x652      c82       -96
    x653      OBJ       43.7000000476837
    x653      c82       -144
    x654      OBJ       63.299999833107
    x654      c82       -216
    x655      OBJ       47.2999997437
    x655      c83       -6
    x656      OBJ       62.7799990773201
    x656      c83       -12
    x657      OBJ       88.58000010252
    x657      c83       -24
    x658      OBJ       119.53999620676
    x658      c83       -36
    x659      OBJ       143.62000399828
    x659      c83       -48
    x660      OBJ       198.66000020504
    x660      c83       -72
    x661      OBJ       260.57999753952
    x661      c83       -96
    x662      OBJ       375.82000041008
    x662      c83       -144
    x663      OBJ       544.37999856472
    x663      c83       -216
    x664      OBJ       13.1999999284744
    x664      c84       -6
    x665      OBJ       17.5199997425079
    x665      c84       -12
    x666      OBJ       24.7200000286102
    x666      c84       -24
    x667      OBJ       33.3599989414215
    x667      c84       -36
    x668      OBJ       40.080001115799
    x668      c84       -48
    x669      OBJ       55.4400000572205
    x669      c84       -72
    x670      OBJ       72.7199993133545
    x670      c84       -96
    x671      OBJ       104.880000114441
    x671      c84       -144
    x672      OBJ       151.919999599457
    x672      c84       -216
    x673      OBJ       51.1499997228384
    x673      c85       -6
    x674      OBJ       67.8899990022182
    x674      c85       -12
    x675      OBJ       95.7900001108646
    x675      c85       -24
    x676      OBJ       129.269995898008
    x676      c85       -36
    x677      OBJ       155.310004323721
    x677      c85       -48
    x678      OBJ       214.830000221729
    x678      c85       -72
    x679      OBJ       281.789997339249
    x679      c85       -96
    x680      OBJ       406.410000443459
    x680      c85       -144
    x681      OBJ       588.689998447895
    x681      c85       -216
    x682      OBJ       46.7499997466803
    x682      c86       -6
    x683      OBJ       62.0499990880489
    x683      c86       -12
    x684      OBJ       87.5500001013279
    x684      c86       -24
    x685      OBJ       118.149996250868
    x685      c86       -36
    x686      OBJ       141.950003951788
    x686      c86       -48
    x687      OBJ       196.350000202656
    x687      c86       -72
    x688      OBJ       257.54999756813
    x688      c86       -96
    x689      OBJ       371.450000405312
    x689      c86       -144
    x690      OBJ       538.049998581409
    x690      c86       -216
    x691      OBJ       9.34999994933605
    x691      c87       -6
    x692      OBJ       12.4099998176098
    x692      c87       -12
    x693      OBJ       17.5100000202656
    x693      c87       -24
    x694      OBJ       23.6299992501736
    x694      c87       -36
    x695      OBJ       28.3900007903576
    x695      c87       -48
    x696      OBJ       39.2700000405312
    x696      c87       -72
    x697      OBJ       51.5099995136261
    x697      c87       -96
    x698      OBJ       74.2900000810623
    x698      c87       -144
    x699      OBJ       107.609999716282
    x699      c87       -216
    x700      OBJ       52.7999997138977
    x700      c88       -6
    x701      OBJ       70.0799989700317
    x701      c88       -12
    x702      OBJ       98.8800001144409
    x702      c88       -24
    x703      OBJ       133.439995765686
    x703      c88       -36
    x704      OBJ       160.320004463196
    x704      c88       -48
    x705      OBJ       221.760000228882
    x705      c88       -72
    x706      OBJ       290.879997253418
    x706      c88       -96
    x707      OBJ       419.520000457764
    x707      c88       -144
    x708      OBJ       607.679998397827
    x708      c88       -216
    x709      OBJ       18.6999998986721
    x709      c89       -6
    x710      OBJ       24.8199996352196
    x710      c89       -12
    x711      OBJ       35.0200000405312
    x711      c89       -24
    x712      OBJ       47.2599985003471
    x712      c89       -36
    x713      OBJ       56.7800015807152
    x713      c89       -48
    x714      OBJ       78.5400000810623
    x714      c89       -72
    x715      OBJ       103.019999027252
    x715      c89       -96
    x716      OBJ       148.580000162125
    x716      c89       -144
    x717      OBJ       215.219999432564
    x717      c89       -216
    x718      OBJ       13.1999999284744
    x718      c90       -6
    x719      OBJ       17.5199997425079
    x719      c90       -12
    x720      OBJ       24.7200000286102
    x720      c90       -24
    x721      OBJ       33.3599989414215
    x721      c90       -36
    x722      OBJ       40.080001115799
    x722      c90       -48
    x723      OBJ       55.4400000572205
    x723      c90       -72
    x724      OBJ       72.7199993133545
    x724      c90       -96
    x725      OBJ       104.880000114441
    x725      c90       -144
    x726      OBJ       151.919999599457
    x726      c90       -216
    x727      OBJ       37.949999794364
    x727      c91       -6
    x728      OBJ       50.3699992597103
    x728      c91       -12
    x729      OBJ       71.0700000822544
    x729      c91       -24
    x730      OBJ       95.9099969565868
    x730      c91       -36
    x731      OBJ       115.230003207922
    x731      c91       -48
    x732      OBJ       159.390000164509
    x732      c91       -72
    x733      OBJ       209.069998025894
    x733      c91       -96
    x734      OBJ       301.530000329018
    x734      c91       -144
    x735      OBJ       436.769998848438
    x735      c91       -216
    x736      OBJ       50.5999997258186
    x736      c92       -6
    x737      OBJ       67.1599990129471
    x737      c92       -12
    x738      OBJ       94.7600001096725
    x738      c92       -24
    x739      OBJ       127.879995942116
    x739      c92       -36
    x740      OBJ       153.640004277229
    x740      c92       -48
    x741      OBJ       212.520000219345
    x741      c92       -72
    x742      OBJ       278.759997367859
    x742      c92       -96
    x743      OBJ       402.04000043869
    x743      c92       -144
    x744      OBJ       582.359998464584
    x744      c92       -216
    x745      OBJ       13.7499999254942
    x745      c93       -6
    x746      OBJ       18.2499997317791
    x746      c93       -12
    x747      OBJ       25.7500000298023
    x747      c93       -24
    x748      OBJ       34.7499988973141
    x748      c93       -36
    x749      OBJ       41.7500011622906
    x749      c93       -48
    x750      OBJ       57.7500000596046
    x750      c93       -72
    x751      OBJ       75.7499992847443
    x751      c93       -96
    x752      OBJ       109.250000119209
    x752      c93       -144
    x753      OBJ       158.249999582767
    x753      c93       -216
    x754      OBJ       41.7999997735023
    x754      c94       -6
    x755      OBJ       55.4799991846085
    x755      c94       -12
    x756      OBJ       78.2800000905991
    x756      c94       -24
    x757      OBJ       105.639996647835
    x757      c94       -36
    x758      OBJ       126.920003533363
    x758      c94       -48
    x759      OBJ       175.560000181198
    x759      c94       -72
    x760      OBJ       230.279997825623
    x760      c94       -96
    x761      OBJ       332.120000362396
    x761      c94       -144
    x762      OBJ       481.079998731613
    x762      c94       -216
    x763      OBJ       27.4999998509884
    x763      c95       -6
    x764      OBJ       36.4999994635582
    x764      c95       -12
    x765      OBJ       51.5000000596046
    x765      c95       -24
    x766      OBJ       69.4999977946281
    x766      c95       -36
    x767      OBJ       83.5000023245811
    x767      c95       -48
    x768      OBJ       115.500000119209
    x768      c95       -72
    x769      OBJ       151.499998569489
    x769      c95       -96
    x770      OBJ       218.500000238419
    x770      c95       -144
    x771      OBJ       316.499999165535
    x771      c95       -216
    x772      OBJ       49.4999997317791
    x772      c96       -6
    x773      OBJ       65.6999990344048
    x773      c96       -12
    x774      OBJ       92.7000001072884
    x774      c96       -24
    x775      OBJ       125.099996030331
    x775      c96       -36
    x776      OBJ       150.300004184246
    x776      c96       -48
    x777      OBJ       207.900000214577
    x777      c96       -72
    x778      OBJ       272.699997425079
    x778      c96       -96
    x779      OBJ       393.300000429153
    x779      c96       -144
    x780      OBJ       569.699998497963
    x780      c96       -216
    x781      OBJ       52.2499997168779
    x781      c97       -6
    x782      OBJ       69.3499989807606
    x782      c97       -12
    x783      OBJ       97.8500001132488
    x783      c97       -24
    x784      OBJ       132.049995809793
    x784      c97       -36
    x785      OBJ       158.650004416704
    x785      c97       -48
    x786      OBJ       219.450000226498
    x786      c97       -72
    x787      OBJ       287.849997282028
    x787      c97       -96
    x788      OBJ       415.150000452995
    x788      c97       -144
    x789      OBJ       601.349998414516
    x789      c97       -216
    x790      OBJ       40.149999782443
    x790      c98       -6
    x791      OBJ       53.289999216795
    x791      c98       -12
    x792      OBJ       75.1900000870228
    x792      c98       -24
    x793      OBJ       101.469996780157
    x793      c98       -36
    x794      OBJ       121.910003393888
    x794      c98       -48
    x795      OBJ       168.630000174046
    x795      c98       -72
    x796      OBJ       221.189997911453
    x796      c98       -96
    x797      OBJ       319.010000348091
    x797      c98       -144
    x798      OBJ       462.089998781681
    x798      c98       -216
    x799      OBJ       36.8499998003244
    x799      c99       -6
    x800      OBJ       48.909999281168
    x800      c99       -12
    x801      OBJ       69.0100000798702
    x801      c99       -24
    x802      OBJ       93.1299970448017
    x802      c99       -36
    x803      OBJ       111.890003114939
    x803      c99       -48
    x804      OBJ       154.77000015974
    x804      c99       -72
    x805      OBJ       203.009998083115
    x805      c99       -96
    x806      OBJ       292.790000319481
    x806      c99       -144
    x807      OBJ       424.109998881817
    x807      c99       -216
    x808      OBJ       13.1999999284744
    x808      c100      -6
    x809      OBJ       17.5199997425079
    x809      c100      -12
    x810      OBJ       24.7200000286102
    x810      c100      -24
    x811      OBJ       33.3599989414215
    x811      c100      -36
    x812      OBJ       40.080001115799
    x812      c100      -48
    x813      OBJ       55.4400000572205
    x813      c100      -72
    x814      OBJ       72.7199993133545
    x814      c100      -96
    x815      OBJ       104.880000114441
    x815      c100      -144
    x816      OBJ       151.919999599457
    x816      c100      -216
    x817      OBJ       39.0499997884035
    x817      c101      -6
    x818      OBJ       51.8299992382526
    x818      c101      -12
    x819      OBJ       73.1300000846386
    x819      c101      -24
    x820      OBJ       98.689996868372
    x820      c101      -36
    x821      OBJ       118.570003300905
    x821      c101      -48
    x822      OBJ       164.010000169277
    x822      c101      -72
    x823      OBJ       215.129997968674
    x823      c101      -96
    x824      OBJ       310.270000338554
    x824      c101      -144
    x825      OBJ       449.42999881506
    x825      c101      -216
    x826      OBJ       49.4999997317791
    x826      c102      -6
    x827      OBJ       65.6999990344048
    x827      c102      -12
    x828      OBJ       92.7000001072884
    x828      c102      -24
    x829      OBJ       125.099996030331
    x829      c102      -36
    x830      OBJ       150.300004184246
    x830      c102      -48
    x831      OBJ       207.900000214577
    x831      c102      -72
    x832      OBJ       272.699997425079
    x832      c102      -96
    x833      OBJ       393.300000429153
    x833      c102      -144
    x834      OBJ       569.699998497963
    x834      c102      -216
    x835      OBJ       25.2999998629093
    x835      c103      -6
    x836      OBJ       33.5799995064735
    x836      c103      -12
    x837      OBJ       47.3800000548363
    x837      c103      -24
    x838      OBJ       63.9399979710579
    x838      c103      -36
    x839      OBJ       76.8200021386147
    x839      c103      -48
    x840      OBJ       106.260000109673
    x840      c103      -72
    x841      OBJ       139.379998683929
    x841      c103      -96
    x842      OBJ       201.020000219345
    x842      c103      -144
    x843      OBJ       291.179999232292
    x843      c103      -216
    x844      OBJ       32.9999998211861
    x844      c104      -6
    x845      OBJ       43.7999993562698
    x845      c104      -12
    x846      OBJ       61.8000000715256
    x846      c104      -24
    x847      OBJ       83.3999973535538
    x847      c104      -36
    x848      OBJ       100.200002789497
    x848      c104      -48
    x849      OBJ       138.600000143051
    x849      c104      -72
    x850      OBJ       181.799998283386
    x850      c104      -96
    x851      OBJ       262.200000286102
    x851      c104      -144
    x852      OBJ       379.799998998642
    x852      c104      -216
    x853      OBJ       35.1999998092651
    x853      c105      -6
    x854      OBJ       46.7199993133545
    x854      c105      -12
    x855      OBJ       65.9200000762939
    x855      c105      -24
    x856      OBJ       88.959997177124
    x856      c105      -36
    x857      OBJ       106.880002975464
    x857      c105      -48
    x858      OBJ       147.840000152588
    x858      c105      -72
    x859      OBJ       193.919998168945
    x859      c105      -96
    x860      OBJ       279.680000305176
    x860      c105      -144
    x861      OBJ       405.119998931885
    x861      c105      -216
    x862      OBJ       62.6999996602535
    x862      c106      -6
    x863      OBJ       83.2199987769127
    x863      c106      -12
    x864      OBJ       117.420000135899
    x864      c106      -24
    x865      OBJ       158.459994971752
    x865      c106      -36
    x866      OBJ       190.380005300045
    x866      c106      -48
    x867      OBJ       263.340000271797
    x867      c106      -72
    x868      OBJ       345.419996738434
    x868      c106      -96
    x869      OBJ       498.180000543594
    x869      c106      -144
    x870      OBJ       721.61999809742
    x870      c106      -216
    x871      OBJ       14.8499999195337
    x871      c107      -6
    x872      OBJ       19.7099997103214
    x872      c107      -12
    x873      OBJ       27.8100000321865
    x873      c107      -24
    x874      OBJ       37.5299988090992
    x874      c107      -36
    x875      OBJ       45.0900012552738
    x875      c107      -48
    x876      OBJ       62.370000064373
    x876      c107      -72
    x877      OBJ       81.8099992275238
    x877      c107      -96
    x878      OBJ       117.990000128746
    x878      c107      -144
    x879      OBJ       170.909999549389
    x879      c107      -216
    x880      OBJ       26.9499998539686
    x880      c108      -6
    x881      OBJ       35.769999474287
    x881      c108      -12
    x882      OBJ       50.4700000584126
    x882      c108      -24
    x883      OBJ       68.1099978387356
    x883      c108      -36
    x884      OBJ       81.8300022780895
    x884      c108      -48
    x885      OBJ       113.190000116825
    x885      c108      -72
    x886      OBJ       148.469998598099
    x886      c108      -96
    x887      OBJ       214.13000023365
    x887      c108      -144
    x888      OBJ       310.169999182224
    x888      c108      -216
    x889      OBJ       14.8499999195337
    x889      c109      -6
    x890      OBJ       19.7099997103214
    x890      c109      -12
    x891      OBJ       27.8100000321865
    x891      c109      -24
    x892      OBJ       37.5299988090992
    x892      c109      -36
    x893      OBJ       45.0900012552738
    x893      c109      -48
    x894      OBJ       62.370000064373
    x894      c109      -72
    x895      OBJ       81.8099992275238
    x895      c109      -96
    x896      OBJ       117.990000128746
    x896      c109      -144
    x897      OBJ       170.909999549389
    x897      c109      -216
    x898      OBJ       29.1499998420477
    x898      c110      -6
    x899      OBJ       38.6899994313717
    x899      c110      -12
    x900      OBJ       54.5900000631809
    x900      c110      -24
    x901      OBJ       73.6699976623058
    x901      c110      -36
    x902      OBJ       88.510002464056
    x902      c110      -48
    x903      OBJ       122.430000126362
    x903      c110      -72
    x904      OBJ       160.589998483658
    x904      c110      -96
    x905      OBJ       231.610000252724
    x905      c110      -144
    x906      OBJ       335.489999115467
    x906      c110      -216
    x907      OBJ       13.7499999254942
    x907      c111      -6
    x908      OBJ       18.2499997317791
    x908      c111      -12
    x909      OBJ       25.7500000298023
    x909      c111      -24
    x910      OBJ       34.7499988973141
    x910      c111      -36
    x911      OBJ       41.7500011622906
    x911      c111      -48
    x912      OBJ       57.7500000596046
    x912      c111      -72
    x913      OBJ       75.7499992847443
    x913      c111      -96
    x914      OBJ       109.250000119209
    x914      c111      -144
    x915      OBJ       158.249999582767
    x915      c111      -216
    x916      OBJ       8.24999995529652
    x916      c112      -6
    x917      OBJ       10.9499998390675
    x917      c112      -12
    x918      OBJ       15.4500000178814
    x918      c112      -24
    x919      OBJ       20.8499993383884
    x919      c112      -36
    x920      OBJ       25.0500006973743
    x920      c112      -48
    x921      OBJ       34.6500000357628
    x921      c112      -72
    x922      OBJ       45.4499995708466
    x922      c112      -96
    x923      OBJ       65.5500000715256
    x923      c112      -144
    x924      OBJ       94.9499997496605
    x924      c112      -216
    x925      OBJ       40.149999782443
    x925      c113      -6
    x926      OBJ       53.289999216795
    x926      c113      -12
    x927      OBJ       75.1900000870228
    x927      c113      -24
    x928      OBJ       101.469996780157
    x928      c113      -36
    x929      OBJ       121.910003393888
    x929      c113      -48
    x930      OBJ       168.630000174046
    x930      c113      -72
    x931      OBJ       221.189997911453
    x931      c113      -96
    x932      OBJ       319.010000348091
    x932      c113      -144
    x933      OBJ       462.089998781681
    x933      c113      -216
    x934      OBJ       7.69999995827675
    x934      c114      -6
    x935      OBJ       10.2199998497963
    x935      c114      -12
    x936      OBJ       14.4200000166893
    x936      c114      -24
    x937      OBJ       19.4599993824959
    x937      c114      -36
    x938      OBJ       23.3800006508827
    x938      c114      -48
    x939      OBJ       32.3400000333786
    x939      c114      -72
    x940      OBJ       42.4199995994568
    x940      c114      -96
    x941      OBJ       61.1800000667572
    x941      c114      -144
    x942      OBJ       88.6199997663498
    x942      c114      -216
    x943      OBJ       32.4499998241663
    x943      c115      -6
    x944      OBJ       43.0699993669987
    x944      c115      -12
    x945      OBJ       60.7700000703335
    x945      c115      -24
    x946      OBJ       82.0099973976612
    x946      c115      -36
    x947      OBJ       98.5300027430058
    x947      c115      -48
    x948      OBJ       136.290000140667
    x948      c115      -72
    x949      OBJ       178.769998311996
    x949      c115      -96
    x950      OBJ       257.830000281334
    x950      c115      -144
    x951      OBJ       373.469999015331
    x951      c115      -216
    x952      OBJ       25.8499998599291
    x952      c116      -6
    x953      OBJ       34.3099994957447
    x953      c116      -12
    x954      OBJ       48.4100000560284
    x954      c116      -24
    x955      OBJ       65.3299979269505
    x955      c116      -36
    x956      OBJ       78.4900021851063
    x956      c116      -48
    x957      OBJ       108.570000112057
    x957      c116      -72
    x958      OBJ       142.409998655319
    x958      c116      -96
    x959      OBJ       205.390000224113
    x959      c116      -144
    x960      OBJ       297.509999215603
    x960      c116      -216
    x961      OBJ       17.5999999046326
    x961      c117      -6
    x962      OBJ       23.3599996566772
    x962      c117      -12
    x963      OBJ       32.960000038147
    x963      c117      -24
    x964      OBJ       44.479998588562
    x964      c117      -36
    x965      OBJ       53.4400014877319
    x965      c117      -48
    x966      OBJ       73.9200000762939
    x966      c117      -72
    x967      OBJ       96.9599990844727
    x967      c117      -96
    x968      OBJ       139.840000152588
    x968      c117      -144
    x969      OBJ       202.559999465942
    x969      c117      -216
    x970      OBJ       45.099999755621
    x970      c118      -6
    x971      OBJ       59.8599991202354
    x971      c118      -12
    x972      OBJ       84.4600000977516
    x972      c118      -24
    x973      OBJ       113.97999638319
    x973      c118      -36
    x974      OBJ       136.940003812313
    x974      c118      -48
    x975      OBJ       189.420000195503
    x975      c118      -72
    x976      OBJ       248.459997653961
    x976      c118      -96
    x977      OBJ       358.340000391006
    x977      c118      -144
    x978      OBJ       519.059998631477
    x978      c118      -216
    x979      OBJ       10.4499999433756
    x979      c119      -6
    x980      OBJ       13.8699997961521
    x980      c119      -12
    x981      OBJ       19.5700000226498
    x981      c119      -24
    x982      OBJ       26.4099991619587
    x982      c119      -36
    x983      OBJ       31.7300008833408
    x983      c119      -48
    x984      OBJ       43.8900000452995
    x984      c119      -72
    x985      OBJ       57.5699994564056
    x985      c119      -96
    x986      OBJ       83.0300000905991
    x986      c119      -144
    x987      OBJ       120.269999682903
    x987      c119      -216
    x988      OBJ       22.5499998778105
    x988      c120      -6
    x989      OBJ       29.9299995601177
    x989      c120      -12
    x990      OBJ       42.2300000488758
    x990      c120      -24
    x991      OBJ       56.9899981915951
    x991      c120      -36
    x992      OBJ       68.4700019061565
    x992      c120      -48
    x993      OBJ       94.7100000977516
    x993      c120      -72
    x994      OBJ       124.229998826981
    x994      c120      -96
    x995      OBJ       179.170000195503
    x995      c120      -144
    x996      OBJ       259.529999315739
    x996      c120      -216
    x997      OBJ       41.2499997764826
    x997      c121      -6
    x998      OBJ       54.7499991953373
    x998      c121      -12
    x999      OBJ       77.250000089407
    x999      c121      -24
    x1000     OBJ       104.249996691942
    x1000     c121      -36
    x1001     OBJ       125.250003486872
    x1001     c121      -48
    x1002     OBJ       173.250000178814
    x1002     c121      -72
    x1003     OBJ       227.249997854233
    x1003     c121      -96
    x1004     OBJ       327.750000357628
    x1004     c121      -144
    x1005     OBJ       474.749998748302
    x1005     c121      -216
    x1006     OBJ       22.5499998778105
    x1006     c122      -6
    x1007     OBJ       29.9299995601177
    x1007     c122      -12
    x1008     OBJ       42.2300000488758
    x1008     c122      -24
    x1009     OBJ       56.9899981915951
    x1009     c122      -36
    x1010     OBJ       68.4700019061565
    x1010     c122      -48
    x1011     OBJ       94.7100000977516
    x1011     c122      -72
    x1012     OBJ       124.229998826981
    x1012     c122      -96
    x1013     OBJ       179.170000195503
    x1013     c122      -144
    x1014     OBJ       259.529999315739
    x1014     c122      -216
    x1015     OBJ       51.1499997228384
    x1015     c123      -6
    x1016     OBJ       67.8899990022182
    x1016     c123      -12
    x1017     OBJ       95.7900001108646
    x1017     c123      -24
    x1018     OBJ       129.269995898008
    x1018     c123      -36
    x1019     OBJ       155.310004323721
    x1019     c123      -48
    x1020     OBJ       214.830000221729
    x1020     c123      -72
    x1021     OBJ       281.789997339249
    x1021     c123      -96
    x1022     OBJ       406.410000443459
    x1022     c123      -144
    x1023     OBJ       588.689998447895
    x1023     c123      -216
    x1024     OBJ       55.5499996989965
    x1024     c124      -6
    x1025     OBJ       73.7299989163876
    x1025     c124      -12
    x1026     OBJ       104.030000120401
    x1026     c124      -24
    x1027     OBJ       140.389995545149
    x1027     c124      -36
    x1028     OBJ       168.670004695654
    x1028     c124      -48
    x1029     OBJ       233.310000240803
    x1029     c124      -72
    x1030     OBJ       306.029997110367
    x1030     c124      -96
    x1031     OBJ       441.370000481606
    x1031     c124      -144
    x1032     OBJ       639.329998314381
    x1032     c124      -216
    x1033     OBJ       37.949999794364
    x1033     c125      -6
    x1034     OBJ       50.3699992597103
    x1034     c125      -12
    x1035     OBJ       71.0700000822544
    x1035     c125      -24
    x1036     OBJ       95.9099969565868
    x1036     c125      -36
    x1037     OBJ       115.230003207922
    x1037     c125      -48
    x1038     OBJ       159.390000164509
    x1038     c125      -72
    x1039     OBJ       209.069998025894
    x1039     c125      -96
    x1040     OBJ       301.530000329018
    x1040     c125      -144
    x1041     OBJ       436.769998848438
    x1041     c125      -216
    x1042     OBJ       50.5999997258186
    x1042     c126      -6
    x1043     OBJ       67.1599990129471
    x1043     c126      -12
    x1044     OBJ       94.7600001096725
    x1044     c126      -24
    x1045     OBJ       127.879995942116
    x1045     c126      -36
    x1046     OBJ       153.640004277229
    x1046     c126      -48
    x1047     OBJ       212.520000219345
    x1047     c126      -72
    x1048     OBJ       278.759997367859
    x1048     c126      -96
    x1049     OBJ       402.04000043869
    x1049     c126      -144
    x1050     OBJ       582.359998464584
    x1050     c126      -216
    x1051     OBJ       12.0999999344349
    x1051     c127      -6
    x1052     OBJ       16.0599997639656
    x1052     c127      -12
    x1053     OBJ       22.660000026226
    x1053     c127      -24
    x1054     OBJ       30.5799990296364
    x1054     c127      -36
    x1055     OBJ       36.7400010228157
    x1055     c127      -48
    x1056     OBJ       50.8200000524521
    x1056     c127      -72
    x1057     OBJ       66.659999370575
    x1057     c127      -96
    x1058     OBJ       96.1400001049042
    x1058     c127      -144
    x1059     OBJ       139.259999632835
    x1059     c127      -216
    x1060     OBJ       46.7499997466803
    x1060     c128      -6
    x1061     OBJ       62.0499990880489
    x1061     c128      -12
    x1062     OBJ       87.5500001013279
    x1062     c128      -24
    x1063     OBJ       118.149996250868
    x1063     c128      -36
    x1064     OBJ       141.950003951788
    x1064     c128      -48
    x1065     OBJ       196.350000202656
    x1065     c128      -72
    x1066     OBJ       257.54999756813
    x1066     c128      -96
    x1067     OBJ       371.450000405312
    x1067     c128      -144
    x1068     OBJ       538.049998581409
    x1068     c128      -216
    x1069     OBJ       54.9999997019768
    x1069     c129      -6
    x1070     OBJ       72.9999989271164
    x1070     c129      -12
    x1071     OBJ       103.000000119209
    x1071     c129      -24
    x1072     OBJ       138.999995589256
    x1072     c129      -36
    x1073     OBJ       167.000004649162
    x1073     c129      -48
    x1074     OBJ       231.000000238419
    x1074     c129      -72
    x1075     OBJ       302.999997138977
    x1075     c129      -96
    x1076     OBJ       437.000000476837
    x1076     c129      -144
    x1077     OBJ       632.99999833107
    x1077     c129      -216
    x1078     OBJ       30.799999833107
    x1078     c130      -6
    x1079     OBJ       40.8799993991852
    x1079     c130      -12
    x1080     OBJ       57.6800000667572
    x1080     c130      -24
    x1081     OBJ       77.8399975299835
    x1081     c130      -36
    x1082     OBJ       93.5200026035309
    x1082     c130      -48
    x1083     OBJ       129.360000133514
    x1083     c130      -72
    x1084     OBJ       169.679998397827
    x1084     c130      -96
    x1085     OBJ       244.720000267029
    x1085     c130      -144
    x1086     OBJ       354.479999065399
    x1086     c130      -216
    x1087     OBJ       32.4499998241663
    x1087     c131      -6
    x1088     OBJ       43.0699993669987
    x1088     c131      -12
    x1089     OBJ       60.7700000703335
    x1089     c131      -24
    x1090     OBJ       82.0099973976612
    x1090     c131      -36
    x1091     OBJ       98.5300027430058
    x1091     c131      -48
    x1092     OBJ       136.290000140667
    x1092     c131      -72
    x1093     OBJ       178.769998311996
    x1093     c131      -96
    x1094     OBJ       257.830000281334
    x1094     c131      -144
    x1095     OBJ       373.469999015331
    x1095     c131      -216
    x1096     OBJ       26.9499998539686
    x1096     c132      -6
    x1097     OBJ       35.769999474287
    x1097     c132      -12
    x1098     OBJ       50.4700000584126
    x1098     c132      -24
    x1099     OBJ       68.1099978387356
    x1099     c132      -36
    x1100     OBJ       81.8300022780895
    x1100     c132      -48
    x1101     OBJ       113.190000116825
    x1101     c132      -72
    x1102     OBJ       148.469998598099
    x1102     c132      -96
    x1103     OBJ       214.13000023365
    x1103     c132      -144
    x1104     OBJ       310.169999182224
    x1104     c132      -216
    x1105     OBJ       26.3999998569489
    x1105     c133      -6
    x1106     OBJ       35.0399994850159
    x1106     c133      -12
    x1107     OBJ       49.4400000572205
    x1107     c133      -24
    x1108     OBJ       66.719997882843
    x1108     c133      -36
    x1109     OBJ       80.1600022315979
    x1109     c133      -48
    x1110     OBJ       110.880000114441
    x1110     c133      -72
    x1111     OBJ       145.439998626709
    x1111     c133      -96
    x1112     OBJ       209.760000228882
    x1112     c133      -144
    x1113     OBJ       303.839999198914
    x1113     c133      -216
    x1114     OBJ       23.0999998748302
    x1114     c134      -6
    x1115     OBJ       30.6599995493889
    x1115     c134      -12
    x1116     OBJ       43.2600000500679
    x1116     c134      -24
    x1117     OBJ       58.3799981474876
    x1117     c134      -36
    x1118     OBJ       70.1400019526482
    x1118     c134      -48
    x1119     OBJ       97.0200001001358
    x1119     c134      -72
    x1120     OBJ       127.25999879837
    x1120     c134      -96
    x1121     OBJ       183.540000200272
    x1121     c134      -144
    x1122     OBJ       265.859999299049
    x1122     c134      -216
    x1123     OBJ       17.0499999076128
    x1123     c135      -6
    x1124     OBJ       22.6299996674061
    x1124     c135      -12
    x1125     OBJ       31.9300000369549
    x1125     c135      -24
    x1126     OBJ       43.0899986326694
    x1126     c135      -36
    x1127     OBJ       51.7700014412403
    x1127     c135      -48
    x1128     OBJ       71.6100000739098
    x1128     c135      -72
    x1129     OBJ       93.9299991130829
    x1129     c135      -96
    x1130     OBJ       135.47000014782
    x1130     c135      -144
    x1131     OBJ       196.229999482632
    x1131     c135      -216
    x1132     OBJ       41.2499997764826
    x1132     c136      -6
    x1133     OBJ       54.7499991953373
    x1133     c136      -12
    x1134     OBJ       77.250000089407
    x1134     c136      -24
    x1135     OBJ       104.249996691942
    x1135     c136      -36
    x1136     OBJ       125.250003486872
    x1136     c136      -48
    x1137     OBJ       173.250000178814
    x1137     c136      -72
    x1138     OBJ       227.249997854233
    x1138     c136      -96
    x1139     OBJ       327.750000357628
    x1139     c136      -144
    x1140     OBJ       474.749998748302
    x1140     c136      -216
    x1141     OBJ       54.9999997019768
    x1141     c137      -6
    x1142     OBJ       72.9999989271164
    x1142     c137      -12
    x1143     OBJ       103.000000119209
    x1143     c137      -24
    x1144     OBJ       138.999995589256
    x1144     c137      -36
    x1145     OBJ       167.000004649162
    x1145     c137      -48
    x1146     OBJ       231.000000238419
    x1146     c137      -72
    x1147     OBJ       302.999997138977
    x1147     c137      -96
    x1148     OBJ       437.000000476837
    x1148     c137      -144
    x1149     OBJ       632.99999833107
    x1149     c137      -216
    x1150     OBJ       40.149999782443
    x1150     c138      -6
    x1151     OBJ       53.289999216795
    x1151     c138      -12
    x1152     OBJ       75.1900000870228
    x1152     c138      -24
    x1153     OBJ       101.469996780157
    x1153     c138      -36
    x1154     OBJ       121.910003393888
    x1154     c138      -48
    x1155     OBJ       168.630000174046
    x1155     c138      -72
    x1156     OBJ       221.189997911453
    x1156     c138      -96
    x1157     OBJ       319.010000348091
    x1157     c138      -144
    x1158     OBJ       462.089998781681
    x1158     c138      -216
    x1159     OBJ       37.949999794364
    x1159     c139      -6
    x1160     OBJ       50.3699992597103
    x1160     c139      -12
    x1161     OBJ       71.0700000822544
    x1161     c139      -24
    x1162     OBJ       95.9099969565868
    x1162     c139      -36
    x1163     OBJ       115.230003207922
    x1163     c139      -48
    x1164     OBJ       159.390000164509
    x1164     c139      -72
    x1165     OBJ       209.069998025894
    x1165     c139      -96
    x1166     OBJ       301.530000329018
    x1166     c139      -144
    x1167     OBJ       436.769998848438
    x1167     c139      -216
    x1168     OBJ       43.4499997645617
    x1168     c140      -6
    x1169     OBJ       57.669999152422
    x1169     c140      -12
    x1170     OBJ       81.3700000941753
    x1170     c140      -24
    x1171     OBJ       109.809996515512
    x1171     c140      -36
    x1172     OBJ       131.930003672838
    x1172     c140      -48
    x1173     OBJ       182.490000188351
    x1173     c140      -72
    x1174     OBJ       239.369997739792
    x1174     c140      -96
    x1175     OBJ       345.230000376701
    x1175     c140      -144
    x1176     OBJ       500.069998681545
    x1176     c140      -216
    x1177     OBJ       25.2999998629093
    x1177     c141      -6
    x1178     OBJ       33.5799995064735
    x1178     c141      -12
    x1179     OBJ       47.3800000548363
    x1179     c141      -24
    x1180     OBJ       63.9399979710579
    x1180     c141      -36
    x1181     OBJ       76.8200021386147
    x1181     c141      -48
    x1182     OBJ       106.260000109673
    x1182     c141      -72
    x1183     OBJ       139.379998683929
    x1183     c141      -96
    x1184     OBJ       201.020000219345
    x1184     c141      -144
    x1185     OBJ       291.179999232292
    x1185     c141      -216
    x1186     OBJ       15.3999999165535
    x1186     c142      -6
    x1187     OBJ       20.4399996995926
    x1187     c142      -12
    x1188     OBJ       28.8400000333786
    x1188     c142      -24
    x1189     OBJ       38.9199987649918
    x1189     c142      -36
    x1190     OBJ       46.7600013017654
    x1190     c142      -48
    x1191     OBJ       64.6800000667572
    x1191     c142      -72
    x1192     OBJ       84.8399991989136
    x1192     c142      -96
    x1193     OBJ       122.360000133514
    x1193     c142      -144
    x1194     OBJ       177.2399995327
    x1194     c142      -216
    x1195     OBJ       13.7499999254942
    x1195     c143      -6
    x1196     OBJ       18.2499997317791
    x1196     c143      -12
    x1197     OBJ       25.7500000298023
    x1197     c143      -24
    x1198     OBJ       34.7499988973141
    x1198     c143      -36
    x1199     OBJ       41.7500011622906
    x1199     c143      -48
    x1200     OBJ       57.7500000596046
    x1200     c143      -72
    x1201     OBJ       75.7499992847443
    x1201     c143      -96
    x1202     OBJ       109.250000119209
    x1202     c143      -144
    x1203     OBJ       158.249999582767
    x1203     c143      -216
    x1204     OBJ       39.0499997884035
    x1204     c144      -6
    x1205     OBJ       51.8299992382526
    x1205     c144      -12
    x1206     OBJ       73.1300000846386
    x1206     c144      -24
    x1207     OBJ       98.689996868372
    x1207     c144      -36
    x1208     OBJ       118.570003300905
    x1208     c144      -48
    x1209     OBJ       164.010000169277
    x1209     c144      -72
    x1210     OBJ       215.129997968674
    x1210     c144      -96
    x1211     OBJ       310.270000338554
    x1211     c144      -144
    x1212     OBJ       449.42999881506
    x1212     c144      -216
    x1213     OBJ       18.6999998986721
    x1213     c145      -6
    x1214     OBJ       24.8199996352196
    x1214     c145      -12
    x1215     OBJ       35.0200000405312
    x1215     c145      -24
    x1216     OBJ       47.2599985003471
    x1216     c145      -36
    x1217     OBJ       56.7800015807152
    x1217     c145      -48
    x1218     OBJ       78.5400000810623
    x1218     c145      -72
    x1219     OBJ       103.019999027252
    x1219     c145      -96
    x1220     OBJ       148.580000162125
    x1220     c145      -144
    x1221     OBJ       215.219999432564
    x1221     c145      -216
    x1222     OBJ       9.89999994635582
    x1222     c146      -6
    x1223     OBJ       13.139999806881
    x1223     c146      -12
    x1224     OBJ       18.5400000214577
    x1224     c146      -24
    x1225     OBJ       25.0199992060661
    x1225     c146      -36
    x1226     OBJ       30.0600008368492
    x1226     c146      -48
    x1227     OBJ       41.5800000429153
    x1227     c146      -72
    x1228     OBJ       54.5399994850159
    x1228     c146      -96
    x1229     OBJ       78.6600000858307
    x1229     c146      -144
    x1230     OBJ       113.939999699593
    x1230     c146      -216
    x1231     OBJ       37.3999997973442
    x1231     c147      -6
    x1232     OBJ       49.6399992704391
    x1232     c147      -12
    x1233     OBJ       70.0400000810623
    x1233     c147      -24
    x1234     OBJ       94.5199970006943
    x1234     c147      -36
    x1235     OBJ       113.56000316143
    x1235     c147      -48
    x1236     OBJ       157.080000162125
    x1236     c147      -72
    x1237     OBJ       206.039998054504
    x1237     c147      -96
    x1238     OBJ       297.160000324249
    x1238     c147      -144
    x1239     OBJ       430.439998865128
    x1239     c147      -216
    x1240     OBJ       41.7999997735023
    x1240     c148      -6
    x1241     OBJ       55.4799991846085
    x1241     c148      -12
    x1242     OBJ       78.2800000905991
    x1242     c148      -24
    x1243     OBJ       105.639996647835
    x1243     c148      -36
    x1244     OBJ       126.920003533363
    x1244     c148      -48
    x1245     OBJ       175.560000181198
    x1245     c148      -72
    x1246     OBJ       230.279997825623
    x1246     c148      -96
    x1247     OBJ       332.120000362396
    x1247     c148      -144
    x1248     OBJ       481.079998731613
    x1248     c148      -216
    x1249     OBJ       37.3999997973442
    x1249     c149      -6
    x1250     OBJ       49.6399992704391
    x1250     c149      -12
    x1251     OBJ       70.0400000810623
    x1251     c149      -24
    x1252     OBJ       94.5199970006943
    x1252     c149      -36
    x1253     OBJ       113.56000316143
    x1253     c149      -48
    x1254     OBJ       157.080000162125
    x1254     c149      -72
    x1255     OBJ       206.039998054504
    x1255     c149      -96
    x1256     OBJ       297.160000324249
    x1256     c149      -144
    x1257     OBJ       430.439998865128
    x1257     c149      -216
    x1258     OBJ       47.8499997407198
    x1258     c150      -6
    x1259     OBJ       63.5099990665913
    x1259     c150      -12
    x1260     OBJ       89.6100001037121
    x1260     c150      -24
    x1261     OBJ       120.929996162653
    x1261     c150      -36
    x1262     OBJ       145.290004044771
    x1262     c150      -48
    x1263     OBJ       200.970000207424
    x1263     c150      -72
    x1264     OBJ       263.60999751091
    x1264     c150      -96
    x1265     OBJ       380.190000414848
    x1265     c150      -144
    x1266     OBJ       550.709998548031
    x1266     c150      -216
    x1267     OBJ       8.24999995529652
    x1267     c151      -6
    x1268     OBJ       10.9499998390675
    x1268     c151      -12
    x1269     OBJ       15.4500000178814
    x1269     c151      -24
    x1270     OBJ       20.8499993383884
    x1270     c151      -36
    x1271     OBJ       25.0500006973743
    x1271     c151      -48
    x1272     OBJ       34.6500000357628
    x1272     c151      -72
    x1273     OBJ       45.4499995708466
    x1273     c151      -96
    x1274     OBJ       65.5500000715256
    x1274     c151      -144
    x1275     OBJ       94.9499997496605
    x1275     c151      -216
    x1276     OBJ       46.1999997496605
    x1276     c152      -6
    x1277     OBJ       61.3199990987778
    x1277     c152      -12
    x1278     OBJ       86.5200001001358
    x1278     c152      -24
    x1279     OBJ       116.759996294975
    x1279     c152      -36
    x1280     OBJ       140.280003905296
    x1280     c152      -48
    x1281     OBJ       194.040000200272
    x1281     c152      -72
    x1282     OBJ       254.519997596741
    x1282     c152      -96
    x1283     OBJ       367.080000400543
    x1283     c152      -144
    x1284     OBJ       531.719998598099
    x1284     c152      -216
    x1285     OBJ       12.0999999344349
    x1285     c153      -6
    x1286     OBJ       16.0599997639656
    x1286     c153      -12
    x1287     OBJ       22.660000026226
    x1287     c153      -24
    x1288     OBJ       30.5799990296364
    x1288     c153      -36
    x1289     OBJ       36.7400010228157
    x1289     c153      -48
    x1290     OBJ       50.8200000524521
    x1290     c153      -72
    x1291     OBJ       66.659999370575
    x1291     c153      -96
    x1292     OBJ       96.1400001049042
    x1292     c153      -144
    x1293     OBJ       139.259999632835
    x1293     c153      -216
    x1294     OBJ       21.4499998837709
    x1294     c154      -6
    x1295     OBJ       28.4699995815754
    x1295     c154      -12
    x1296     OBJ       40.1700000464916
    x1296     c154      -24
    x1297     OBJ       54.20999827981
    x1297     c154      -36
    x1298     OBJ       65.1300018131733
    x1298     c154      -48
    x1299     OBJ       90.0900000929832
    x1299     c154      -72
    x1300     OBJ       118.169998884201
    x1300     c154      -96
    x1301     OBJ       170.430000185966
    x1301     c154      -144
    x1302     OBJ       246.869999349117
    x1302     c154      -216
    x1303     OBJ       36.2999998033047
    x1303     c155      -6
    x1304     OBJ       48.1799992918968
    x1304     c155      -12
    x1305     OBJ       67.9800000786781
    x1305     c155      -24
    x1306     OBJ       91.7399970889091
    x1306     c155      -36
    x1307     OBJ       110.220003068447
    x1307     c155      -48
    x1308     OBJ       152.460000157356
    x1308     c155      -72
    x1309     OBJ       199.979998111725
    x1309     c155      -96
    x1310     OBJ       288.420000314713
    x1310     c155      -144
    x1311     OBJ       417.779998898506
    x1311     c155      -216
    x1312     OBJ       46.1999997496605
    x1312     c156      -6
    x1313     OBJ       61.3199990987778
    x1313     c156      -12
    x1314     OBJ       86.5200001001358
    x1314     c156      -24
    x1315     OBJ       116.759996294975
    x1315     c156      -36
    x1316     OBJ       140.280003905296
    x1316     c156      -48
    x1317     OBJ       194.040000200272
    x1317     c156      -72
    x1318     OBJ       254.519997596741
    x1318     c156      -96
    x1319     OBJ       367.080000400543
    x1319     c156      -144
    x1320     OBJ       531.719998598099
    x1320     c156      -216
    x1321     OBJ       59.3999996781349
    x1321     c157      -6
    x1322     OBJ       78.8399988412857
    x1322     c157      -12
    x1323     OBJ       111.240000128746
    x1323     c157      -24
    x1324     OBJ       150.119995236397
    x1324     c157      -36
    x1325     OBJ       180.360005021095
    x1325     c157      -48
    x1326     OBJ       249.480000257492
    x1326     c157      -72
    x1327     OBJ       327.239996910095
    x1327     c157      -96
    x1328     OBJ       471.960000514984
    x1328     c157      -144
    x1329     OBJ       683.639998197556
    x1329     c157      -216
    x1330     OBJ       40.6999997794628
    x1330     c158      -6
    x1331     OBJ       54.0199992060661
    x1331     c158      -12
    x1332     OBJ       76.2200000882149
    x1332     c158      -24
    x1333     OBJ       102.85999673605
    x1333     c158      -36
    x1334     OBJ       123.58000344038
    x1334     c158      -48
    x1335     OBJ       170.94000017643
    x1335     c158      -72
    x1336     OBJ       224.219997882843
    x1336     c158      -96
    x1337     OBJ       323.380000352859
    x1337     c158      -144
    x1338     OBJ       468.419998764992
    x1338     c158      -216
    x1339     OBJ       7.69999995827675
    x1339     c159      -6
    x1340     OBJ       10.2199998497963
    x1340     c159      -12
    x1341     OBJ       14.4200000166893
    x1341     c159      -24
    x1342     OBJ       19.4599993824959
    x1342     c159      -36
    x1343     OBJ       23.3800006508827
    x1343     c159      -48
    x1344     OBJ       32.3400000333786
    x1344     c159      -72
    x1345     OBJ       42.4199995994568
    x1345     c159      -96
    x1346     OBJ       61.1800000667572
    x1346     c159      -144
    x1347     OBJ       88.6199997663498
    x1347     c159      -216
    x1348     OBJ       32.4499998241663
    x1348     c160      -6
    x1349     OBJ       43.0699993669987
    x1349     c160      -12
    x1350     OBJ       60.7700000703335
    x1350     c160      -24
    x1351     OBJ       82.0099973976612
    x1351     c160      -36
    x1352     OBJ       98.5300027430058
    x1352     c160      -48
    x1353     OBJ       136.290000140667
    x1353     c160      -72
    x1354     OBJ       178.769998311996
    x1354     c160      -96
    x1355     OBJ       257.830000281334
    x1355     c160      -144
    x1356     OBJ       373.469999015331
    x1356     c160      -216
    x1357     OBJ       23.0999998748302
    x1357     c161      -6
    x1358     OBJ       30.6599995493889
    x1358     c161      -12
    x1359     OBJ       43.2600000500679
    x1359     c161      -24
    x1360     OBJ       58.3799981474876
    x1360     c161      -36
    x1361     OBJ       70.1400019526482
    x1361     c161      -48
    x1362     OBJ       97.0200001001358
    x1362     c161      -72
    x1363     OBJ       127.25999879837
    x1363     c161      -96
    x1364     OBJ       183.540000200272
    x1364     c161      -144
    x1365     OBJ       265.859999299049
    x1365     c161      -216
    x1366     OBJ       35.1999998092651
    x1366     c162      -6
    x1367     OBJ       46.7199993133545
    x1367     c162      -12
    x1368     OBJ       65.9200000762939
    x1368     c162      -24
    x1369     OBJ       88.959997177124
    x1369     c162      -36
    x1370     OBJ       106.880002975464
    x1370     c162      -48
    x1371     OBJ       147.840000152588
    x1371     c162      -72
    x1372     OBJ       193.919998168945
    x1372     c162      -96
    x1373     OBJ       279.680000305176
    x1373     c162      -144
    x1374     OBJ       405.119998931885
    x1374     c162      -216
    x1375     OBJ       41.7999997735023
    x1375     c163      -6
    x1376     OBJ       55.4799991846085
    x1376     c163      -12
    x1377     OBJ       78.2800000905991
    x1377     c163      -24
    x1378     OBJ       105.639996647835
    x1378     c163      -36
    x1379     OBJ       126.920003533363
    x1379     c163      -48
    x1380     OBJ       175.560000181198
    x1380     c163      -72
    x1381     OBJ       230.279997825623
    x1381     c163      -96
    x1382     OBJ       332.120000362396
    x1382     c163      -144
    x1383     OBJ       481.079998731613
    x1383     c163      -216
    x1384     OBJ       13.1999999284744
    x1384     c164      -6
    x1385     OBJ       17.5199997425079
    x1385     c164      -12
    x1386     OBJ       24.7200000286102
    x1386     c164      -24
    x1387     OBJ       33.3599989414215
    x1387     c164      -36
    x1388     OBJ       40.080001115799
    x1388     c164      -48
    x1389     OBJ       55.4400000572205
    x1389     c164      -72
    x1390     OBJ       72.7199993133545
    x1390     c164      -96
    x1391     OBJ       104.880000114441
    x1391     c164      -144
    x1392     OBJ       151.919999599457
    x1392     c164      -216
    x1393     OBJ       54.449999704957
    x1393     c165      -6
    x1394     OBJ       72.2699989378452
    x1394     c165      -12
    x1395     OBJ       101.970000118017
    x1395     c165      -24
    x1396     OBJ       137.609995633364
    x1396     c165      -36
    x1397     OBJ       165.330004602671
    x1397     c165      -48
    x1398     OBJ       228.690000236034
    x1398     c165      -72
    x1399     OBJ       299.969997167587
    x1399     c165      -96
    x1400     OBJ       432.630000472069
    x1400     c165      -144
    x1401     OBJ       626.669998347759
    x1401     c165      -216
    x1402     OBJ       20.8999998867512
    x1402     c166      -6
    x1403     OBJ       27.7399995923042
    x1403     c166      -12
    x1404     OBJ       39.1400000452995
    x1404     c166      -24
    x1405     OBJ       52.8199983239174
    x1405     c166      -36
    x1406     OBJ       63.4600017666817
    x1406     c166      -48
    x1407     OBJ       87.7800000905991
    x1407     c166      -72
    x1408     OBJ       115.139998912811
    x1408     c166      -96
    x1409     OBJ       166.060000181198
    x1409     c166      -144
    x1410     OBJ       240.539999365807
    x1410     c166      -216
    x1411     OBJ       47.8499997407198
    x1411     c167      -6
    x1412     OBJ       63.5099990665913
    x1412     c167      -12
    x1413     OBJ       89.6100001037121
    x1413     c167      -24
    x1414     OBJ       120.929996162653
    x1414     c167      -36
    x1415     OBJ       145.290004044771
    x1415     c167      -48
    x1416     OBJ       200.970000207424
    x1416     c167      -72
    x1417     OBJ       263.60999751091
    x1417     c167      -96
    x1418     OBJ       380.190000414848
    x1418     c167      -144
    x1419     OBJ       550.709998548031
    x1419     c167      -216
    x1420     OBJ       43.4499997645617
    x1420     c168      -6
    x1421     OBJ       57.669999152422
    x1421     c168      -12
    x1422     OBJ       81.3700000941753
    x1422     c168      -24
    x1423     OBJ       109.809996515512
    x1423     c168      -36
    x1424     OBJ       131.930003672838
    x1424     c168      -48
    x1425     OBJ       182.490000188351
    x1425     c168      -72
    x1426     OBJ       239.369997739792
    x1426     c168      -96
    x1427     OBJ       345.230000376701
    x1427     c168      -144
    x1428     OBJ       500.069998681545
    x1428     c168      -216
    x1429     OBJ       29.1499998420477
    x1429     c169      -6
    x1430     OBJ       38.6899994313717
    x1430     c169      -12
    x1431     OBJ       54.5900000631809
    x1431     c169      -24
    x1432     OBJ       73.6699976623058
    x1432     c169      -36
    x1433     OBJ       88.510002464056
    x1433     c169      -48
    x1434     OBJ       122.430000126362
    x1434     c169      -72
    x1435     OBJ       160.589998483658
    x1435     c169      -96
    x1436     OBJ       231.610000252724
    x1436     c169      -144
    x1437     OBJ       335.489999115467
    x1437     c169      -216
    x1438     OBJ       13.7499999254942
    x1438     c170      -6
    x1439     OBJ       18.2499997317791
    x1439     c170      -12
    x1440     OBJ       25.7500000298023
    x1440     c170      -24
    x1441     OBJ       34.7499988973141
    x1441     c170      -36
    x1442     OBJ       41.7500011622906
    x1442     c170      -48
    x1443     OBJ       57.7500000596046
    x1443     c170      -72
    x1444     OBJ       75.7499992847443
    x1444     c170      -96
    x1445     OBJ       109.250000119209
    x1445     c170      -144
    x1446     OBJ       158.249999582767
    x1446     c170      -216
    x1447     OBJ       51.6999997198582
    x1447     c171      -6
    x1448     OBJ       68.6199989914894
    x1448     c171      -12
    x1449     OBJ       96.8200001120567
    x1449     c171      -24
    x1450     OBJ       130.659995853901
    x1450     c171      -36
    x1451     OBJ       156.980004370213
    x1451     c171      -48
    x1452     OBJ       217.140000224113
    x1452     c171      -72
    x1453     OBJ       284.819997310638
    x1453     c171      -96
    x1454     OBJ       410.780000448227
    x1454     c171      -144
    x1455     OBJ       595.019998431206
    x1455     c171      -216
    x1456     OBJ       12.0999999344349
    x1456     c172      -6
    x1457     OBJ       16.0599997639656
    x1457     c172      -12
    x1458     OBJ       22.660000026226
    x1458     c172      -24
    x1459     OBJ       30.5799990296364
    x1459     c172      -36
    x1460     OBJ       36.7400010228157
    x1460     c172      -48
    x1461     OBJ       50.8200000524521
    x1461     c172      -72
    x1462     OBJ       66.659999370575
    x1462     c172      -96
    x1463     OBJ       96.1400001049042
    x1463     c172      -144
    x1464     OBJ       139.259999632835
    x1464     c172      -216
    x1465     OBJ       10.4499999433756
    x1465     c173      -6
    x1466     OBJ       13.8699997961521
    x1466     c173      -12
    x1467     OBJ       19.5700000226498
    x1467     c173      -24
    x1468     OBJ       26.4099991619587
    x1468     c173      -36
    x1469     OBJ       31.7300008833408
    x1469     c173      -48
    x1470     OBJ       43.8900000452995
    x1470     c173      -72
    x1471     OBJ       57.5699994564056
    x1471     c173      -96
    x1472     OBJ       83.0300000905991
    x1472     c173      -144
    x1473     OBJ       120.269999682903
    x1473     c173      -216
    x1474     OBJ       54.9999997019768
    x1474     c174      -6
    x1475     OBJ       72.9999989271164
    x1475     c174      -12
    x1476     OBJ       103.000000119209
    x1476     c174      -24
    x1477     OBJ       138.999995589256
    x1477     c174      -36
    x1478     OBJ       167.000004649162
    x1478     c174      -48
    x1479     OBJ       231.000000238419
    x1479     c174      -72
    x1480     OBJ       302.999997138977
    x1480     c174      -96
    x1481     OBJ       437.000000476837
    x1481     c174      -144
    x1482     OBJ       632.99999833107
    x1482     c174      -216
    x1483     OBJ       21.4499998837709
    x1483     c175      -6
    x1484     OBJ       28.4699995815754
    x1484     c175      -12
    x1485     OBJ       40.1700000464916
    x1485     c175      -24
    x1486     OBJ       54.20999827981
    x1486     c175      -36
    x1487     OBJ       65.1300018131733
    x1487     c175      -48
    x1488     OBJ       90.0900000929832
    x1488     c175      -72
    x1489     OBJ       118.169998884201
    x1489     c175      -96
    x1490     OBJ       170.430000185966
    x1490     c175      -144
    x1491     OBJ       246.869999349117
    x1491     c175      -216
    x1492     OBJ       31.8999998271465
    x1492     c176      -6
    x1493     OBJ       42.3399993777275
    x1493     c176      -12
    x1494     OBJ       59.7400000691414
    x1494     c176      -24
    x1495     OBJ       80.6199974417686
    x1495     c176      -36
    x1496     OBJ       96.8600026965141
    x1496     c176      -48
    x1497     OBJ       133.980000138283
    x1497     c176      -72
    x1498     OBJ       175.739998340607
    x1498     c176      -96
    x1499     OBJ       253.460000276566
    x1499     c176      -144
    x1500     OBJ       367.139999032021
    x1500     c176      -216
    x1501     OBJ       47.8499997407198
    x1501     c177      -6
    x1502     OBJ       63.5099990665913
    x1502     c177      -12
    x1503     OBJ       89.6100001037121
    x1503     c177      -24
    x1504     OBJ       120.929996162653
    x1504     c177      -36
    x1505     OBJ       145.290004044771
    x1505     c177      -48
    x1506     OBJ       200.970000207424
    x1506     c177      -72
    x1507     OBJ       263.60999751091
    x1507     c177      -96
    x1508     OBJ       380.190000414848
    x1508     c177      -144
    x1509     OBJ       550.709998548031
    x1509     c177      -216
    x1510     OBJ       7.14999996125698
    x1510     c178      -6
    x1511     OBJ       9.48999986052513
    x1511     c178      -12
    x1512     OBJ       13.3900000154972
    x1512     c178      -24
    x1513     OBJ       18.0699994266033
    x1513     c178      -36
    x1514     OBJ       21.7100006043911
    x1514     c178      -48
    x1515     OBJ       30.0300000309944
    x1515     c178      -72
    x1516     OBJ       39.389999628067
    x1516     c178      -96
    x1517     OBJ       56.8100000619888
    x1517     c178      -144
    x1518     OBJ       82.2899997830391
    x1518     c178      -216
    x1519     OBJ       19.7999998927116
    x1519     c179      -6
    x1520     OBJ       26.2799996137619
    x1520     c179      -12
    x1521     OBJ       37.0800000429153
    x1521     c179      -24
    x1522     OBJ       50.0399984121323
    x1522     c179      -36
    x1523     OBJ       60.1200016736984
    x1523     c179      -48
    x1524     OBJ       83.1600000858307
    x1524     c179      -72
    x1525     OBJ       109.079998970032
    x1525     c179      -96
    x1526     OBJ       157.320000171661
    x1526     c179      -144
    x1527     OBJ       227.879999399185
    x1527     c179      -216
    x1528     OBJ       32.4499998241663
    x1528     c180      -6
    x1529     OBJ       43.0699993669987
    x1529     c180      -12
    x1530     OBJ       60.7700000703335
    x1530     c180      -24
    x1531     OBJ       82.0099973976612
    x1531     c180      -36
    x1532     OBJ       98.5300027430058
    x1532     c180      -48
    x1533     OBJ       136.290000140667
    x1533     c180      -72
    x1534     OBJ       178.769998311996
    x1534     c180      -96
    x1535     OBJ       257.830000281334
    x1535     c180      -144
    x1536     OBJ       373.469999015331
    x1536     c180      -216
    x1537     OBJ       23.0999998748302
    x1537     c181      -6
    x1538     OBJ       30.6599995493889
    x1538     c181      -12
    x1539     OBJ       43.2600000500679
    x1539     c181      -24
    x1540     OBJ       58.3799981474876
    x1540     c181      -36
    x1541     OBJ       70.1400019526482
    x1541     c181      -48
    x1542     OBJ       97.0200001001358
    x1542     c181      -72
    x1543     OBJ       127.25999879837
    x1543     c181      -96
    x1544     OBJ       183.540000200272
    x1544     c181      -144
    x1545     OBJ       265.859999299049
    x1545     c181      -216
    x1546     OBJ       46.7499997466803
    x1546     c182      -6
    x1547     OBJ       62.0499990880489
    x1547     c182      -12
    x1548     OBJ       87.5500001013279
    x1548     c182      -24
    x1549     OBJ       118.149996250868
    x1549     c182      -36
    x1550     OBJ       141.950003951788
    x1550     c182      -48
    x1551     OBJ       196.350000202656
    x1551     c182      -72
    x1552     OBJ       257.54999756813
    x1552     c182      -96
    x1553     OBJ       371.450000405312
    x1553     c182      -144
    x1554     OBJ       538.049998581409
    x1554     c182      -216
    x1555     OBJ       17.5999999046326
    x1555     c183      -6
    x1556     OBJ       23.3599996566772
    x1556     c183      -12
    x1557     OBJ       32.960000038147
    x1557     c183      -24
    x1558     OBJ       44.479998588562
    x1558     c183      -36
    x1559     OBJ       53.4400014877319
    x1559     c183      -48
    x1560     OBJ       73.9200000762939
    x1560     c183      -72
    x1561     OBJ       96.9599990844727
    x1561     c183      -96
    x1562     OBJ       139.840000152588
    x1562     c183      -144
    x1563     OBJ       202.559999465942
    x1563     c183      -216
    x1564     OBJ       25.8499998599291
    x1564     c184      -6
    x1565     OBJ       34.3099994957447
    x1565     c184      -12
    x1566     OBJ       48.4100000560284
    x1566     c184      -24
    x1567     OBJ       65.3299979269505
    x1567     c184      -36
    x1568     OBJ       78.4900021851063
    x1568     c184      -48
    x1569     OBJ       108.570000112057
    x1569     c184      -72
    x1570     OBJ       142.409998655319
    x1570     c184      -96
    x1571     OBJ       205.390000224113
    x1571     c184      -144
    x1572     OBJ       297.509999215603
    x1572     c184      -216
    x1573     OBJ       22.5499998778105
    x1573     c185      -6
    x1574     OBJ       29.9299995601177
    x1574     c185      -12
    x1575     OBJ       42.2300000488758
    x1575     c185      -24
    x1576     OBJ       56.9899981915951
    x1576     c185      -36
    x1577     OBJ       68.4700019061565
    x1577     c185      -48
    x1578     OBJ       94.7100000977516
    x1578     c185      -72
    x1579     OBJ       124.229998826981
    x1579     c185      -96
    x1580     OBJ       179.170000195503
    x1580     c185      -144
    x1581     OBJ       259.529999315739
    x1581     c185      -216
    x1582     OBJ       44.5499997586012
    x1582     c186      -6
    x1583     OBJ       59.1299991309643
    x1583     c186      -12
    x1584     OBJ       83.4300000965595
    x1584     c186      -24
    x1585     OBJ       112.589996427298
    x1585     c186      -36
    x1586     OBJ       135.270003765821
    x1586     c186      -48
    x1587     OBJ       187.110000193119
    x1587     c186      -72
    x1588     OBJ       245.429997682571
    x1588     c186      -96
    x1589     OBJ       353.970000386238
    x1589     c186      -144
    x1590     OBJ       512.729998648167
    x1590     c186      -216
    x1591     OBJ       42.8999997675419
    x1591     c187      -6
    x1592     OBJ       56.9399991631508
    x1592     c187      -12
    x1593     OBJ       80.3400000929832
    x1593     c187      -24
    x1594     OBJ       108.41999655962
    x1594     c187      -36
    x1595     OBJ       130.260003626347
    x1595     c187      -48
    x1596     OBJ       180.180000185966
    x1596     c187      -72
    x1597     OBJ       236.339997768402
    x1597     c187      -96
    x1598     OBJ       340.860000371933
    x1598     c187      -144
    x1599     OBJ       493.739998698235
    x1599     c187      -216
    x1600     OBJ       35.7499998062849
    x1600     c188      -6
    x1601     OBJ       47.4499993026257
    x1601     c188      -12
    x1602     OBJ       66.950000077486
    x1602     c188      -24
    x1603     OBJ       90.3499971330166
    x1603     c188      -36
    x1604     OBJ       108.550003021955
    x1604     c188      -48
    x1605     OBJ       150.150000154972
    x1605     c188      -72
    x1606     OBJ       196.949998140335
    x1606     c188      -96
    x1607     OBJ       284.050000309944
    x1607     c188      -144
    x1608     OBJ       411.449998915195
    x1608     c188      -216
    x1609     OBJ       32.4499998241663
    x1609     c189      -6
    x1610     OBJ       43.0699993669987
    x1610     c189      -12
    x1611     OBJ       60.7700000703335
    x1611     c189      -24
    x1612     OBJ       82.0099973976612
    x1612     c189      -36
    x1613     OBJ       98.5300027430058
    x1613     c189      -48
    x1614     OBJ       136.290000140667
    x1614     c189      -72
    x1615     OBJ       178.769998311996
    x1615     c189      -96
    x1616     OBJ       257.830000281334
    x1616     c189      -144
    x1617     OBJ       373.469999015331
    x1617     c189      -216
    x1618     OBJ       24.1999998688698
    x1618     c190      -6
    x1619     OBJ       32.1199995279312
    x1619     c190      -12
    x1620     OBJ       45.3200000524521
    x1620     c190      -24
    x1621     OBJ       61.1599980592728
    x1621     c190      -36
    x1622     OBJ       73.4800020456314
    x1622     c190      -48
    x1623     OBJ       101.640000104904
    x1623     c190      -72
    x1624     OBJ       133.31999874115
    x1624     c190      -96
    x1625     OBJ       192.280000209808
    x1625     c190      -144
    x1626     OBJ       278.519999265671
    x1626     c190      -216
    x1627     OBJ       46.1999997496605
    x1627     c191      -6
    x1628     OBJ       61.3199990987778
    x1628     c191      -12
    x1629     OBJ       86.5200001001358
    x1629     c191      -24
    x1630     OBJ       116.759996294975
    x1630     c191      -36
    x1631     OBJ       140.280003905296
    x1631     c191      -48
    x1632     OBJ       194.040000200272
    x1632     c191      -72
    x1633     OBJ       254.519997596741
    x1633     c191      -96
    x1634     OBJ       367.080000400543
    x1634     c191      -144
    x1635     OBJ       531.719998598099
    x1635     c191      -216
    x1636     OBJ       23.64999987185
    x1636     c192      -6
    x1637     OBJ       31.38999953866
    x1637     c192      -12
    x1638     OBJ       44.29000005126
    x1638     c192      -24
    x1639     OBJ       59.7699981033802
    x1639     c192      -36
    x1640     OBJ       71.8100019991398
    x1640     c192      -48
    x1641     OBJ       99.33000010252
    x1641     c192      -72
    x1642     OBJ       130.28999876976
    x1642     c192      -96
    x1643     OBJ       187.91000020504
    x1643     c192      -144
    x1644     OBJ       272.18999928236
    x1644     c192      -216
    x1645     OBJ       26.3999998569489
    x1645     c193      -6
    x1646     OBJ       35.0399994850159
    x1646     c193      -12
    x1647     OBJ       49.4400000572205
    x1647     c193      -24
    x1648     OBJ       66.719997882843
    x1648     c193      -36
    x1649     OBJ       80.1600022315979
    x1649     c193      -48
    x1650     OBJ       110.880000114441
    x1650     c193      -72
    x1651     OBJ       145.439998626709
    x1651     c193      -96
    x1652     OBJ       209.760000228882
    x1652     c193      -144
    x1653     OBJ       303.839999198914
    x1653     c193      -216
    x1654     OBJ       44.5499997586012
    x1654     c194      -6
    x1655     OBJ       59.1299991309643
    x1655     c194      -12
    x1656     OBJ       83.4300000965595
    x1656     c194      -24
    x1657     OBJ       112.589996427298
    x1657     c194      -36
    x1658     OBJ       135.270003765821
    x1658     c194      -48
    x1659     OBJ       187.110000193119
    x1659     c194      -72
    x1660     OBJ       245.429997682571
    x1660     c194      -96
    x1661     OBJ       353.970000386238
    x1661     c194      -144
    x1662     OBJ       512.729998648167
    x1662     c194      -216
    x1663     OBJ       44.5499997586012
    x1663     c195      -6
    x1664     OBJ       59.1299991309643
    x1664     c195      -12
    x1665     OBJ       83.4300000965595
    x1665     c195      -24
    x1666     OBJ       112.589996427298
    x1666     c195      -36
    x1667     OBJ       135.270003765821
    x1667     c195      -48
    x1668     OBJ       187.110000193119
    x1668     c195      -72
    x1669     OBJ       245.429997682571
    x1669     c195      -96
    x1670     OBJ       353.970000386238
    x1670     c195      -144
    x1671     OBJ       512.729998648167
    x1671     c195      -216
    x1672     OBJ       28.0499998480082
    x1672     c196      -6
    x1673     OBJ       37.2299994528294
    x1673     c196      -12
    x1674     OBJ       52.5300000607967
    x1674     c196      -24
    x1675     OBJ       70.8899977505207
    x1675     c196      -36
    x1676     OBJ       85.1700023710728
    x1676     c196      -48
    x1677     OBJ       117.810000121593
    x1677     c196      -72
    x1678     OBJ       154.529998540878
    x1678     c196      -96
    x1679     OBJ       222.870000243187
    x1679     c196      -144
    x1680     OBJ       322.829999148846
    x1680     c196      -216
    x1681     OBJ       15.3999999165535
    x1681     c197      -6
    x1682     OBJ       20.4399996995926
    x1682     c197      -12
    x1683     OBJ       28.8400000333786
    x1683     c197      -24
    x1684     OBJ       38.9199987649918
    x1684     c197      -36
    x1685     OBJ       46.7600013017654
    x1685     c197      -48
    x1686     OBJ       64.6800000667572
    x1686     c197      -72
    x1687     OBJ       84.8399991989136
    x1687     c197      -96
    x1688     OBJ       122.360000133514
    x1688     c197      -144
    x1689     OBJ       177.2399995327
    x1689     c197      -216
    x1690     OBJ       28.5999998450279
    x1690     c198      -6
    x1691     OBJ       37.9599994421005
    x1691     c198      -12
    x1692     OBJ       53.5600000619888
    x1692     c198      -24
    x1693     OBJ       72.2799977064133
    x1693     c198      -36
    x1694     OBJ       86.8400024175644
    x1694     c198      -48
    x1695     OBJ       120.120000123978
    x1695     c198      -72
    x1696     OBJ       157.559998512268
    x1696     c198      -96
    x1697     OBJ       227.240000247955
    x1697     c198      -144
    x1698     OBJ       329.159999132156
    x1698     c198      -216
    x1699     OBJ       8.24999995529652
    x1699     c199      -6
    x1700     OBJ       10.9499998390675
    x1700     c199      -12
    x1701     OBJ       15.4500000178814
    x1701     c199      -24
    x1702     OBJ       20.8499993383884
    x1702     c199      -36
    x1703     OBJ       25.0500006973743
    x1703     c199      -48
    x1704     OBJ       34.6500000357628
    x1704     c199      -72
    x1705     OBJ       45.4499995708466
    x1705     c199      -96
    x1706     OBJ       65.5500000715256
    x1706     c199      -144
    x1707     OBJ       94.9499997496605
    x1707     c199      -216
    x1708     OBJ       51.6999997198582
    x1708     c200      -6
    x1709     OBJ       68.6199989914894
    x1709     c200      -12
    x1710     OBJ       96.8200001120567
    x1710     c200      -24
    x1711     OBJ       130.659995853901
    x1711     c200      -36
    x1712     OBJ       156.980004370213
    x1712     c200      -48
    x1713     OBJ       217.140000224113
    x1713     c200      -72
    x1714     OBJ       284.819997310638
    x1714     c200      -96
    x1715     OBJ       410.780000448227
    x1715     c200      -144
    x1716     OBJ       595.019998431206
    x1716     c200      -216
    x1717     OBJ       16.499999910593
    x1717     c201      -6
    x1718     OBJ       21.8999996781349
    x1718     c201      -12
    x1719     OBJ       30.9000000357628
    x1719     c201      -24
    x1720     OBJ       41.6999986767769
    x1720     c201      -36
    x1721     OBJ       50.1000013947487
    x1721     c201      -48
    x1722     OBJ       69.3000000715256
    x1722     c201      -72
    x1723     OBJ       90.8999991416931
    x1723     c201      -96
    x1724     OBJ       131.100000143051
    x1724     c201      -144
    x1725     OBJ       189.899999499321
    x1725     c201      -216
    x1726     OBJ       7.14999996125698
    x1726     c202      -6
    x1727     OBJ       9.48999986052513
    x1727     c202      -12
    x1728     OBJ       13.3900000154972
    x1728     c202      -24
    x1729     OBJ       18.0699994266033
    x1729     c202      -36
    x1730     OBJ       21.7100006043911
    x1730     c202      -48
    x1731     OBJ       30.0300000309944
    x1731     c202      -72
    x1732     OBJ       39.389999628067
    x1732     c202      -96
    x1733     OBJ       56.8100000619888
    x1733     c202      -144
    x1734     OBJ       82.2899997830391
    x1734     c202      -216
    x1735     OBJ       42.8999997675419
    x1735     c203      -6
    x1736     OBJ       56.9399991631508
    x1736     c203      -12
    x1737     OBJ       80.3400000929832
    x1737     c203      -24
    x1738     OBJ       108.41999655962
    x1738     c203      -36
    x1739     OBJ       130.260003626347
    x1739     c203      -48
    x1740     OBJ       180.180000185966
    x1740     c203      -72
    x1741     OBJ       236.339997768402
    x1741     c203      -96
    x1742     OBJ       340.860000371933
    x1742     c203      -144
    x1743     OBJ       493.739998698235
    x1743     c203      -216
    x1744     OBJ       24.7499998658895
    x1744     c204      -6
    x1745     OBJ       32.8499995172024
    x1745     c204      -12
    x1746     OBJ       46.3500000536442
    x1746     c204      -24
    x1747     OBJ       62.5499980151653
    x1747     c204      -36
    x1748     OBJ       75.150002092123
    x1748     c204      -48
    x1749     OBJ       103.950000107288
    x1749     c204      -72
    x1750     OBJ       136.34999871254
    x1750     c204      -96
    x1751     OBJ       196.650000214577
    x1751     c204      -144
    x1752     OBJ       284.849999248981
    x1752     c204      -216
    x1753     OBJ       45.099999755621
    x1753     c205      -6
    x1754     OBJ       59.8599991202354
    x1754     c205      -12
    x1755     OBJ       84.4600000977516
    x1755     c205      -24
    x1756     OBJ       113.97999638319
    x1756     c205      -36
    x1757     OBJ       136.940003812313
    x1757     c205      -48
    x1758     OBJ       189.420000195503
    x1758     c205      -72
    x1759     OBJ       248.459997653961
    x1759     c205      -96
    x1760     OBJ       358.340000391006
    x1760     c205      -144
    x1761     OBJ       519.059998631477
    x1761     c205      -216
    x1762     OBJ       1.6499999910593
    x1762     c206      -6
    x1763     OBJ       2.18999996781349
    x1763     c206      -12
    x1764     OBJ       3.09000000357628
    x1764     c206      -24
    x1765     OBJ       4.16999986767769
    x1765     c206      -36
    x1766     OBJ       5.01000013947487
    x1766     c206      -48
    x1767     OBJ       6.93000000715256
    x1767     c206      -72
    x1768     OBJ       9.08999991416931
    x1768     c206      -96
    x1769     OBJ       13.1100000143051
    x1769     c206      -144
    x1770     OBJ       18.9899999499321
    x1770     c206      -216
    x1771     OBJ       25.2999998629093
    x1771     c207      -6
    x1772     OBJ       33.5799995064735
    x1772     c207      -12
    x1773     OBJ       47.3800000548363
    x1773     c207      -24
    x1774     OBJ       63.9399979710579
    x1774     c207      -36
    x1775     OBJ       76.8200021386147
    x1775     c207      -48
    x1776     OBJ       106.260000109673
    x1776     c207      -72
    x1777     OBJ       139.379998683929
    x1777     c207      -96
    x1778     OBJ       201.020000219345
    x1778     c207      -144
    x1779     OBJ       291.179999232292
    x1779     c207      -216
    x1780     OBJ       15.3999999165535
    x1780     c208      -6
    x1781     OBJ       20.4399996995926
    x1781     c208      -12
    x1782     OBJ       28.8400000333786
    x1782     c208      -24
    x1783     OBJ       38.9199987649918
    x1783     c208      -36
    x1784     OBJ       46.7600013017654
    x1784     c208      -48
    x1785     OBJ       64.6800000667572
    x1785     c208      -72
    x1786     OBJ       84.8399991989136
    x1786     c208      -96
    x1787     OBJ       122.360000133514
    x1787     c208      -144
    x1788     OBJ       177.2399995327
    x1788     c208      -216
    x1789     OBJ       53.3499997109175
    x1789     c209      -6
    x1790     OBJ       70.8099989593029
    x1790     c209      -12
    x1791     OBJ       99.910000115633
    x1791     c209      -24
    x1792     OBJ       134.829995721579
    x1792     c209      -36
    x1793     OBJ       161.990004509687
    x1793     c209      -48
    x1794     OBJ       224.070000231266
    x1794     c209      -72
    x1795     OBJ       293.909997224808
    x1795     c209      -96
    x1796     OBJ       423.890000462532
    x1796     c209      -144
    x1797     OBJ       614.009998381138
    x1797     c209      -216
    x1798     OBJ       35.1999998092651
    x1798     c210      -6
    x1799     OBJ       46.7199993133545
    x1799     c210      -12
    x1800     OBJ       65.9200000762939
    x1800     c210      -24
    x1801     OBJ       88.959997177124
    x1801     c210      -36
    x1802     OBJ       106.880002975464
    x1802     c210      -48
    x1803     OBJ       147.840000152588
    x1803     c210      -72
    x1804     OBJ       193.919998168945
    x1804     c210      -96
    x1805     OBJ       279.680000305176
    x1805     c210      -144
    x1806     OBJ       405.119998931885
    x1806     c210      -216
    x1807     OBJ       58.8499996811152
    x1807     c211      -6
    x1808     OBJ       78.1099988520145
    x1808     c211      -12
    x1809     OBJ       110.210000127554
    x1809     c211      -24
    x1810     OBJ       148.729995280504
    x1810     c211      -36
    x1811     OBJ       178.690004974604
    x1811     c211      -48
    x1812     OBJ       247.170000255108
    x1812     c211      -72
    x1813     OBJ       324.209996938705
    x1813     c211      -96
    x1814     OBJ       467.590000510216
    x1814     c211      -144
    x1815     OBJ       677.309998214245
    x1815     c211      -216
    x1816     OBJ       21.4499998837709
    x1816     c212      -6
    x1817     OBJ       28.4699995815754
    x1817     c212      -12
    x1818     OBJ       40.1700000464916
    x1818     c212      -24
    x1819     OBJ       54.20999827981
    x1819     c212      -36
    x1820     OBJ       65.1300018131733
    x1820     c212      -48
    x1821     OBJ       90.0900000929832
    x1821     c212      -72
    x1822     OBJ       118.169998884201
    x1822     c212      -96
    x1823     OBJ       170.430000185966
    x1823     c212      -144
    x1824     OBJ       246.869999349117
    x1824     c212      -216
    x1825     OBJ       11.5499999374151
    x1825     c213      -6
    x1826     OBJ       15.3299997746944
    x1826     c213      -12
    x1827     OBJ       21.630000025034
    x1827     c213      -24
    x1828     OBJ       29.1899990737438
    x1828     c213      -36
    x1829     OBJ       35.0700009763241
    x1829     c213      -48
    x1830     OBJ       48.5100000500679
    x1830     c213      -72
    x1831     OBJ       63.6299993991852
    x1831     c213      -96
    x1832     OBJ       91.7700001001358
    x1832     c213      -144
    x1833     OBJ       132.929999649525
    x1833     c213      -216
    x1834     OBJ       43.4499997645617
    x1834     c214      -6
    x1835     OBJ       57.669999152422
    x1835     c214      -12
    x1836     OBJ       81.3700000941753
    x1836     c214      -24
    x1837     OBJ       109.809996515512
    x1837     c214      -36
    x1838     OBJ       131.930003672838
    x1838     c214      -48
    x1839     OBJ       182.490000188351
    x1839     c214      -72
    x1840     OBJ       239.369997739792
    x1840     c214      -96
    x1841     OBJ       345.230000376701
    x1841     c214      -144
    x1842     OBJ       500.069998681545
    x1842     c214      -216
    x1843     OBJ       32.9999998211861
    x1843     c215      -6
    x1844     OBJ       43.7999993562698
    x1844     c215      -12
    x1845     OBJ       61.8000000715256
    x1845     c215      -24
    x1846     OBJ       83.3999973535538
    x1846     c215      -36
    x1847     OBJ       100.200002789497
    x1847     c215      -48
    x1848     OBJ       138.600000143051
    x1848     c215      -72
    x1849     OBJ       181.799998283386
    x1849     c215      -96
    x1850     OBJ       262.200000286102
    x1850     c215      -144
    x1851     OBJ       379.799998998642
    x1851     c215      -216
    x1852     OBJ       23.0999998748302
    x1852     c216      -6
    x1853     OBJ       30.6599995493889
    x1853     c216      -12
    x1854     OBJ       43.2600000500679
    x1854     c216      -24
    x1855     OBJ       58.3799981474876
    x1855     c216      -36
    x1856     OBJ       70.1400019526482
    x1856     c216      -48
    x1857     OBJ       97.0200001001358
    x1857     c216      -72
    x1858     OBJ       127.25999879837
    x1858     c216      -96
    x1859     OBJ       183.540000200272
    x1859     c216      -144
    x1860     OBJ       265.859999299049
    x1860     c216      -216
    x1861     OBJ       45.099999755621
    x1861     c217      -6
    x1862     OBJ       59.8599991202354
    x1862     c217      -12
    x1863     OBJ       84.4600000977516
    x1863     c217      -24
    x1864     OBJ       113.97999638319
    x1864     c217      -36
    x1865     OBJ       136.940003812313
    x1865     c217      -48
    x1866     OBJ       189.420000195503
    x1866     c217      -72
    x1867     OBJ       248.459997653961
    x1867     c217      -96
    x1868     OBJ       358.340000391006
    x1868     c217      -144
    x1869     OBJ       519.059998631477
    x1869     c217      -216
    x1870     OBJ       30.799999833107
    x1870     c218      -6
    x1871     OBJ       40.8799993991852
    x1871     c218      -12
    x1872     OBJ       57.6800000667572
    x1872     c218      -24
    x1873     OBJ       77.8399975299835
    x1873     c218      -36
    x1874     OBJ       93.5200026035309
    x1874     c218      -48
    x1875     OBJ       129.360000133514
    x1875     c218      -72
    x1876     OBJ       169.679998397827
    x1876     c218      -96
    x1877     OBJ       244.720000267029
    x1877     c218      -144
    x1878     OBJ       354.479999065399
    x1878     c218      -216
    x1879     OBJ       52.7999997138977
    x1879     c219      -6
    x1880     OBJ       70.0799989700317
    x1880     c219      -12
    x1881     OBJ       98.8800001144409
    x1881     c219      -24
    x1882     OBJ       133.439995765686
    x1882     c219      -36
    x1883     OBJ       160.320004463196
    x1883     c219      -48
    x1884     OBJ       221.760000228882
    x1884     c219      -72
    x1885     OBJ       290.879997253418
    x1885     c219      -96
    x1886     OBJ       419.520000457764
    x1886     c219      -144
    x1887     OBJ       607.679998397827
    x1887     c219      -216
    x1888     OBJ       12.6499999314547
    x1888     c220      -6
    x1889     OBJ       16.7899997532368
    x1889     c220      -12
    x1890     OBJ       23.6900000274181
    x1890     c220      -24
    x1891     OBJ       31.9699989855289
    x1891     c220      -36
    x1892     OBJ       38.4100010693073
    x1892     c220      -48
    x1893     OBJ       53.1300000548363
    x1893     c220      -72
    x1894     OBJ       69.6899993419647
    x1894     c220      -96
    x1895     OBJ       100.510000109673
    x1895     c220      -144
    x1896     OBJ       145.589999616146
    x1896     c220      -216
    x1897     OBJ       13.7499999254942
    x1897     c221      -6
    x1898     OBJ       18.2499997317791
    x1898     c221      -12
    x1899     OBJ       25.7500000298023
    x1899     c221      -24
    x1900     OBJ       34.7499988973141
    x1900     c221      -36
    x1901     OBJ       41.7500011622906
    x1901     c221      -48
    x1902     OBJ       57.7500000596046
    x1902     c221      -72
    x1903     OBJ       75.7499992847443
    x1903     c221      -96
    x1904     OBJ       109.250000119209
    x1904     c221      -144
    x1905     OBJ       158.249999582767
    x1905     c221      -216
    x1906     OBJ       60.4999996721745
    x1906     c222      -6
    x1907     OBJ       80.299998819828
    x1907     c222      -12
    x1908     OBJ       113.30000013113
    x1908     c222      -24
    x1909     OBJ       152.899995148182
    x1909     c222      -36
    x1910     OBJ       183.700005114079
    x1910     c222      -48
    x1911     OBJ       254.10000026226
    x1911     c222      -72
    x1912     OBJ       333.299996852875
    x1912     c222      -96
    x1913     OBJ       480.700000524521
    x1913     c222      -144
    x1914     OBJ       696.299998164177
    x1914     c222      -216
    x1915     OBJ       8.79999995231628
    x1915     c223      -6
    x1916     OBJ       11.6799998283386
    x1916     c223      -12
    x1917     OBJ       16.4800000190735
    x1917     c223      -24
    x1918     OBJ       22.239999294281
    x1918     c223      -36
    x1919     OBJ       26.720000743866
    x1919     c223      -48
    x1920     OBJ       36.960000038147
    x1920     c223      -72
    x1921     OBJ       48.4799995422363
    x1921     c223      -96
    x1922     OBJ       69.9200000762939
    x1922     c223      -144
    x1923     OBJ       101.279999732971
    x1923     c223      -216
    x1924     OBJ       41.2499997764826
    x1924     c224      -6
    x1925     OBJ       54.7499991953373
    x1925     c224      -12
    x1926     OBJ       77.250000089407
    x1926     c224      -24
    x1927     OBJ       104.249996691942
    x1927     c224      -36
    x1928     OBJ       125.250003486872
    x1928     c224      -48
    x1929     OBJ       173.250000178814
    x1929     c224      -72
    x1930     OBJ       227.249997854233
    x1930     c224      -96
    x1931     OBJ       327.750000357628
    x1931     c224      -144
    x1932     OBJ       474.749998748302
    x1932     c224      -216
    x1933     OBJ       45.6499997526407
    x1933     c225      -6
    x1934     OBJ       60.5899991095066
    x1934     c225      -12
    x1935     OBJ       85.4900000989437
    x1935     c225      -24
    x1936     OBJ       115.369996339083
    x1936     c225      -36
    x1937     OBJ       138.610003858805
    x1937     c225      -48
    x1938     OBJ       191.730000197887
    x1938     c225      -72
    x1939     OBJ       251.489997625351
    x1939     c225      -96
    x1940     OBJ       362.710000395775
    x1940     c225      -144
    x1941     OBJ       525.389998614788
    x1941     c225      -216
    x1942     OBJ       14.299999922514
    x1942     c226      -6
    x1943     OBJ       18.9799997210503
    x1943     c226      -12
    x1944     OBJ       26.7800000309944
    x1944     c226      -24
    x1945     OBJ       36.1399988532066
    x1945     c226      -36
    x1946     OBJ       43.4200012087822
    x1946     c226      -48
    x1947     OBJ       60.0600000619888
    x1947     c226      -72
    x1948     OBJ       78.779999256134
    x1948     c226      -96
    x1949     OBJ       113.620000123978
    x1949     c226      -144
    x1950     OBJ       164.579999566078
    x1950     c226      -216
    x1951     OBJ       53.3499997109175
    x1951     c227      -6
    x1952     OBJ       70.8099989593029
    x1952     c227      -12
    x1953     OBJ       99.910000115633
    x1953     c227      -24
    x1954     OBJ       134.829995721579
    x1954     c227      -36
    x1955     OBJ       161.990004509687
    x1955     c227      -48
    x1956     OBJ       224.070000231266
    x1956     c227      -72
    x1957     OBJ       293.909997224808
    x1957     c227      -96
    x1958     OBJ       423.890000462532
    x1958     c227      -144
    x1959     OBJ       614.009998381138
    x1959     c227      -216
    x1960     OBJ       36.8499998003244
    x1960     c228      -6
    x1961     OBJ       48.909999281168
    x1961     c228      -12
    x1962     OBJ       69.0100000798702
    x1962     c228      -24
    x1963     OBJ       93.1299970448017
    x1963     c228      -36
    x1964     OBJ       111.890003114939
    x1964     c228      -48
    x1965     OBJ       154.77000015974
    x1965     c228      -72
    x1966     OBJ       203.009998083115
    x1966     c228      -96
    x1967     OBJ       292.790000319481
    x1967     c228      -144
    x1968     OBJ       424.109998881817
    x1968     c228      -216
    x1969     OBJ       34.6499998122454
    x1969     c229      -6
    x1970     OBJ       45.9899993240833
    x1970     c229      -12
    x1971     OBJ       64.8900000751019
    x1971     c229      -24
    x1972     OBJ       87.5699972212315
    x1972     c229      -36
    x1973     OBJ       105.210002928972
    x1973     c229      -48
    x1974     OBJ       145.530000150204
    x1974     c229      -72
    x1975     OBJ       190.889998197556
    x1975     c229      -96
    x1976     OBJ       275.310000300407
    x1976     c229      -144
    x1977     OBJ       398.789998948574
    x1977     c229      -216
    x1978     OBJ       48.3999997377396
    x1978     c230      -6
    x1979     OBJ       64.2399990558624
    x1979     c230      -12
    x1980     OBJ       90.6400001049042
    x1980     c230      -24
    x1981     OBJ       122.319996118546
    x1981     c230      -36
    x1982     OBJ       146.960004091263
    x1982     c230      -48
    x1983     OBJ       203.280000209808
    x1983     c230      -72
    x1984     OBJ       266.6399974823
    x1984     c230      -96
    x1985     OBJ       384.560000419617
    x1985     c230      -144
    x1986     OBJ       557.039998531342
    x1986     c230      -216
    x1987     OBJ       36.2999998033047
    x1987     c231      -6
    x1988     OBJ       48.1799992918968
    x1988     c231      -12
    x1989     OBJ       67.9800000786781
    x1989     c231      -24
    x1990     OBJ       91.7399970889091
    x1990     c231      -36
    x1991     OBJ       110.220003068447
    x1991     c231      -48
    x1992     OBJ       152.460000157356
    x1992     c231      -72
    x1993     OBJ       199.979998111725
    x1993     c231      -96
    x1994     OBJ       288.420000314713
    x1994     c231      -144
    x1995     OBJ       417.779998898506
    x1995     c231      -216
    x1996     OBJ       12.6499999314547
    x1996     c232      -6
    x1997     OBJ       16.7899997532368
    x1997     c232      -12
    x1998     OBJ       23.6900000274181
    x1998     c232      -24
    x1999     OBJ       31.9699989855289
    x1999     c232      -36
    x2000     OBJ       38.4100010693073
    x2000     c232      -48
    x2001     OBJ       53.1300000548363
    x2001     c232      -72
    x2002     OBJ       69.6899993419647
    x2002     c232      -96
    x2003     OBJ       100.510000109673
    x2003     c232      -144
    x2004     OBJ       145.589999616146
    x2004     c232      -216
    x2005     OBJ       17.5999999046326
    x2005     c233      -6
    x2006     OBJ       23.3599996566772
    x2006     c233      -12
    x2007     OBJ       32.960000038147
    x2007     c233      -24
    x2008     OBJ       44.479998588562
    x2008     c233      -36
    x2009     OBJ       53.4400014877319
    x2009     c233      -48
    x2010     OBJ       73.9200000762939
    x2010     c233      -72
    x2011     OBJ       96.9599990844727
    x2011     c233      -96
    x2012     OBJ       139.840000152588
    x2012     c233      -144
    x2013     OBJ       202.559999465942
    x2013     c233      -216
    MARKER    'MARKER'                 'INTEND'
    x1        c1        1
    x1        c4        -1
    x1        c51       1
    x2        c1        1
    x2        c5        -1
    x2        c52       1
    x3        c1        1
    x3        c6        -1
    x3        c53       1
    x39       c1        1
    x39       c19       -1
    x39       c89       1
    x102      c1        1
    x102      c33       -1
    x102      c152      1
    x106      c1        1
    x106      c34       -1
    x106      c156      1
    x142      c1        1
    x142      c32       -1
    x142      c192      1
    x154      c1        1
    x154      c17       -1
    x154      c204      1
    x184      c1        -1
    x184      c4        1
    x184      c51       1
    x185      c1        -1
    x185      c5        1
    x185      c52       1
    x186      c1        -1
    x186      c6        1
    x186      c53       1
    x222      c1        -1
    x222      c19       1
    x222      c89       1
    x285      c1        -1
    x285      c33       1
    x285      c152      1
    x289      c1        -1
    x289      c34       1
    x289      c156      1
    x325      c1        -1
    x325      c32       1
    x325      c192      1
    x337      c1        -1
    x337      c17       1
    x337      c204      1
    x4        c2        1
    x4        c4        -1
    x4        c54       1
    x5        c2        1
    x5        c5        -1
    x5        c55       1
    x6        c2        1
    x6        c6        -1
    x6        c56       1
    x71       c2        1
    x71       c37       -1
    x71       c121      1
    x87       c2        1
    x87       c45       -1
    x87       c137      1
    x108      c2        1
    x108      c42       -1
    x108      c158      1
    x136      c2        1
    x136      c44       -1
    x136      c186      1
    x150      c2        1
    x150      c12       -1
    x150      c200      1
    x167      c2        1
    x167      c40       -1
    x167      c217      1
    x187      c2        -1
    x187      c4        1
    x187      c54       1
    x188      c2        -1
    x188      c5        1
    x188      c55       1
    x189      c2        -1
    x189      c6        1
    x189      c56       1
    x254      c2        -1
    x254      c37       1
    x254      c121      1
    x270      c2        -1
    x270      c45       1
    x270      c137      1
    x291      c2        -1
    x291      c42       1
    x291      c158      1
    x319      c2        -1
    x319      c44       1
    x319      c186      1
    x333      c2        -1
    x333      c12       1
    x333      c200      1
    x350      c2        -1
    x350      c40       1
    x350      c217      1
    x7        c3        1
    x7        c4        -1
    x7        c57       1
    x8        c3        1
    x8        c5        -1
    x8        c58       1
    x9        c3        1
    x9        c6        -1
    x9        c59       1
    x113      c3        1
    x113      c25       -1
    x113      c163      1
    x130      c3        1
    x130      c10       -1
    x130      c180      1
    x190      c3        -1
    x190      c4        1
    x190      c57       1
    x191      c3        -1
    x191      c5        1
    x191      c58       1
    x192      c3        -1
    x192      c6        1
    x192      c59       1
    x296      c3        -1
    x296      c25       1
    x296      c163      1
    x313      c3        -1
    x313      c10       1
    x313      c180      1
    x57       c4        1
    x57       c30       -1
    x57       c107      1
    x111      c4        1
    x111      c43       -1
    x111      c161      1
    x124      c4        1
    x124      c6        -1
    x124      c174      1
    x144      c4        1
    x144      c21       -1
    x144      c194      1
    x240      c4        -1
    x240      c30       1
    x240      c107      1
    x294      c4        -1
    x294      c43       1
    x294      c161      1
    x307      c4        -1
    x307      c6        1
    x307      c174      1
    x327      c4        -1
    x327      c21       1
    x327      c194      1
    x61       c5        1
    x61       c32       -1
    x61       c111      1
    x67       c5        1
    x67       c35       -1
    x67       c117      1
    x112      c5        1
    x112      c34       -1
    x112      c162      1
    x158      c5        1
    x158      c24       -1
    x158      c208      1
    x244      c5        -1
    x244      c32       1
    x244      c111      1
    x250      c5        -1
    x250      c35       1
    x250      c117      1
    x295      c5        -1
    x295      c34       1
    x295      c162      1
    x341      c5        -1
    x341      c24       1
    x341      c208      1
    x40       c6        1
    x40       c7        -1
    x40       c90       1
    x120      c6        1
    x120      c39       -1
    x120      c170      1
    x137      c6        1
    x137      c47       -1
    x137      c187      1
    x151      c6        1
    x151      c35       -1
    x151      c201      1
    x164      c6        1
    x164      c34       -1
    x164      c214      1
    x174      c6        1
    x174      c14       -1
    x174      c224      1
    x177      c6        1
    x177      c30       -1
    x177      c227      1
    x223      c6        -1
    x223      c7        1
    x223      c90       1
    x303      c6        -1
    x303      c39       1
    x303      c170      1
    x320      c6        -1
    x320      c47       1
    x320      c187      1
    x334      c6        -1
    x334      c35       1
    x334      c201      1
    x347      c6        -1
    x347      c34       1
    x347      c214      1
    x357      c6        -1
    x357      c14       1
    x357      c224      1
    x360      c6        -1
    x360      c30       1
    x360      c227      1
    x10       c7        1
    x10       c10       -1
    x10       c60       1
    x11       c7        1
    x11       c11       -1
    x11       c61       1
    x12       c7        1
    x12       c12       -1
    x12       c62       1
    x45       c7        1
    x45       c24       -1
    x45       c95       1
    x49       c7        1
    x49       c26       -1
    x49       c99       1
    x59       c7        1
    x59       c31       -1
    x59       c109      1
    x73       c7        1
    x73       c38       -1
    x73       c123      1
    x138      c7        1
    x138      c9        -1
    x138      c188      1
    x148      c7        1
    x148      c8        -1
    x148      c198      1
    x193      c7        -1
    x193      c10       1
    x193      c60       1
    x194      c7        -1
    x194      c11       1
    x194      c61       1
    x195      c7        -1
    x195      c12       1
    x195      c62       1
    x228      c7        -1
    x228      c24       1
    x228      c95       1
    x232      c7        -1
    x232      c26       1
    x232      c99       1
    x242      c7        -1
    x242      c31       1
    x242      c109      1
    x256      c7        -1
    x256      c38       1
    x256      c123      1
    x321      c7        -1
    x321      c9        1
    x321      c188      1
    x331      c7        -1
    x331      c8        1
    x331      c198      1
    x13       c8        1
    x13       c10       -1
    x13       c63       1
    x14       c8        1
    x14       c11       -1
    x14       c64       1
    x15       c8        1
    x15       c12       -1
    x15       c65       1
    x53       c8        1
    x53       c28       -1
    x53       c103      1
    x147      c8        1
    x147      c39       -1
    x147      c197      1
    x152      c8        1
    x152      c48       -1
    x152      c202      1
    x166      c8        1
    x166      c38       -1
    x166      c216      1
    x170      c8        1
    x170      c37       -1
    x170      c220      1
    x183      c8        1
    x183      c34       -1
    x183      c233      1
    x196      c8        -1
    x196      c10       1
    x196      c63       1
    x197      c8        -1
    x197      c11       1
    x197      c64       1
    x198      c8        -1
    x198      c12       1
    x198      c65       1
    x236      c8        -1
    x236      c28       1
    x236      c103      1
    x330      c8        -1
    x330      c39       1
    x330      c197      1
    x335      c8        -1
    x335      c48       1
    x335      c202      1
    x349      c8        -1
    x349      c38       1
    x349      c216      1
    x353      c8        -1
    x353      c37       1
    x353      c220      1
    x366      c8        -1
    x366      c34       1
    x366      c233      1
    x16       c9        1
    x16       c10       -1
    x16       c66       1
    x17       c9        1
    x17       c11       -1
    x17       c67       1
    x18       c9        1
    x18       c12       -1
    x18       c68       1
    x199      c9        -1
    x199      c10       1
    x199      c66       1
    x200      c9        -1
    x200      c11       1
    x200      c67       1
    x201      c9        -1
    x201      c12       1
    x201      c68       1
    x65       c10       1
    x65       c34       -1
    x65       c115      1
    x69       c10       1
    x69       c36       -1
    x69       c119      1
    x131      c10       1
    x131      c11       -1
    x131      c181      1
    x143      c10       1
    x143      c27       -1
    x143      c193      1
    x248      c10       -1
    x248      c34       1
    x248      c115      1
    x252      c10       -1
    x252      c36       1
    x252      c119      1
    x314      c10       -1
    x314      c11       1
    x314      c181      1
    x326      c10       -1
    x326      c27       1
    x326      c193      1
    x107      c11       1
    x107      c18       -1
    x107      c157      1
    x119      c11       1
    x119      c12       -1
    x119      c169      1
    x172      c11       1
    x172      c40       -1
    x172      c222      1
    x290      c11       -1
    x290      c18       1
    x290      c157      1
    x302      c11       -1
    x302      c12       1
    x302      c169      1
    x355      c11       -1
    x355      c40       1
    x355      c222      1
    x41       c12       1
    x41       c14       -1
    x41       c91       1
    x85       c12       1
    x85       c44       -1
    x85       c135      1
    x103      c12       1
    x103      c35       -1
    x103      c153      1
    x153      c12       1
    x153      c34       -1
    x153      c203      1
    x168      c12       1
    x168      c26       -1
    x168      c218      1
    x224      c12       -1
    x224      c14       1
    x224      c91       1
    x268      c12       -1
    x268      c44       1
    x268      c135      1
    x286      c12       -1
    x286      c35       1
    x286      c153      1
    x336      c12       -1
    x336      c34       1
    x336      c203      1
    x351      c12       -1
    x351      c26       1
    x351      c218      1
    x19       c13       1
    x19       c14       -1
    x19       c69       1
    x20       c13       1
    x20       c15       -1
    x20       c70       1
    x21       c13       1
    x21       c16       -1
    x21       c71       1
    x22       c13       1
    x22       c17       -1
    x22       c72       1
    x42       c13       1
    x42       c20       -1
    x42       c92       1
    x118      c13       1
    x118      c39       -1
    x118      c168      1
    x155      c13       1
    x155      c23       -1
    x155      c205      1
    x173      c13       1
    x173      c27       -1
    x173      c223      1
    x181      c13       1
    x181      c42       -1
    x181      c231      1
    x202      c13       -1
    x202      c14       1
    x202      c69       1
    x203      c13       -1
    x203      c15       1
    x203      c70       1
    x204      c13       -1
    x204      c16       1
    x204      c71       1
    x205      c13       -1
    x205      c17       1
    x205      c72       1
    x225      c13       -1
    x225      c20       1
    x225      c92       1
    x301      c13       -1
    x301      c39       1
    x301      c168      1
    x338      c13       -1
    x338      c23       1
    x338      c205      1
    x356      c13       -1
    x356      c27       1
    x356      c223      1
    x364      c13       -1
    x364      c42       1
    x364      c231      1
    x23       c14       1
    x23       c15       -1
    x23       c73       1
    x24       c14       1
    x24       c16       -1
    x24       c74       1
    x25       c14       1
    x25       c17       -1
    x25       c75       1
    x75       c14       1
    x75       c39       -1
    x75       c125      1
    x91       c14       1
    x91       c47       -1
    x91       c141      1
    x95       c14       1
    x95       c49       -1
    x95       c145      1
    x99       c14       1
    x99       c38       -1
    x99       c149      1
    x129      c14       1
    x129      c31       -1
    x129      c179      1
    x157      c14       1
    x157      c46       -1
    x157      c207      1
    x206      c14       -1
    x206      c15       1
    x206      c73       1
    x207      c14       -1
    x207      c16       1
    x207      c74       1
    x208      c14       -1
    x208      c17       1
    x208      c75       1
    x258      c14       -1
    x258      c39       1
    x258      c125      1
    x274      c14       -1
    x274      c47       1
    x274      c141      1
    x278      c14       -1
    x278      c49       1
    x278      c145      1
    x282      c14       -1
    x282      c38       1
    x282      c149      1
    x312      c14       -1
    x312      c31       1
    x312      c179      1
    x340      c14       -1
    x340      c46       1
    x340      c207      1
    x26       c15       1
    x26       c16       -1
    x26       c76       1
    x27       c15       1
    x27       c17       -1
    x27       c77       1
    x83       c15       1
    x83       c43       -1
    x83       c133      1
    x100      c15       1
    x100      c27       -1
    x100      c150      1
    x128      c15       1
    x128      c20       -1
    x128      c178      1
    x133      c15       1
    x133      c32       -1
    x133      c183      1
    x171      c15       1
    x171      c23       -1
    x171      c221      1
    x209      c15       -1
    x209      c16       1
    x209      c76       1
    x210      c15       -1
    x210      c17       1
    x210      c77       1
    x266      c15       -1
    x266      c43       1
    x266      c133      1
    x283      c15       -1
    x283      c27       1
    x283      c150      1
    x311      c15       -1
    x311      c20       1
    x311      c178      1
    x316      c15       -1
    x316      c32       1
    x316      c183      1
    x354      c15       -1
    x354      c23       1
    x354      c221      1
    x28       c16       1
    x28       c17       -1
    x28       c78       1
    x51       c16       1
    x51       c27       -1
    x51       c101      1
    x115      c16       1
    x115      c25       -1
    x115      c165      1
    x169      c16       1
    x169      c49       -1
    x169      c219      1
    x211      c16       -1
    x211      c17       1
    x211      c78       1
    x234      c16       -1
    x234      c27       1
    x234      c101      1
    x298      c16       -1
    x298      c25       1
    x298      c165      1
    x352      c16       -1
    x352      c49       1
    x352      c219      1
    x89       c17       1
    x89       c46       -1
    x89       c139      1
    x125      c17       1
    x125      c34       -1
    x125      c175      1
    x140      c17       1
    x140      c33       -1
    x140      c190      1
    x272      c17       -1
    x272      c46       1
    x272      c139      1
    x308      c17       -1
    x308      c34       1
    x308      c175      1
    x323      c17       -1
    x323      c33       1
    x323      c190      1
    x29       c18       1
    x29       c19       -1
    x29       c79       1
    x30       c18       1
    x30       c20       -1
    x30       c80       1
    x31       c18       1
    x31       c21       -1
    x31       c81       1
    x32       c18       1
    x32       c22       -1
    x32       c82       1
    x43       c18       1
    x43       c23       -1
    x43       c93       1
    x77       c18       1
    x77       c40       -1
    x77       c127      1
    x81       c18       1
    x81       c42       -1
    x81       c131      1
    x97       c18       1
    x97       c50       -1
    x97       c147      1
    x175      c18       1
    x175      c36       -1
    x175      c225      1
    x182      c18       1
    x182      c47       -1
    x182      c232      1
    x212      c18       -1
    x212      c19       1
    x212      c79       1
    x213      c18       -1
    x213      c20       1
    x213      c80       1
    x214      c18       -1
    x214      c21       1
    x214      c81       1
    x215      c18       -1
    x215      c22       1
    x215      c82       1
    x226      c18       -1
    x226      c23       1
    x226      c93       1
    x260      c18       -1
    x260      c40       1
    x260      c127      1
    x264      c18       -1
    x264      c42       1
    x264      c131      1
    x280      c18       -1
    x280      c50       1
    x280      c147      1
    x358      c18       -1
    x358      c36       1
    x358      c225      1
    x365      c18       -1
    x365      c47       1
    x365      c232      1
    x33       c19       1
    x33       c20       -1
    x33       c83       1
    x34       c19       1
    x34       c21       -1
    x34       c84       1
    x35       c19       1
    x35       c22       -1
    x35       c85       1
    x47       c19       1
    x47       c25       -1
    x47       c97       1
    x63       c19       1
    x63       c33       -1
    x63       c113      1
    x216      c19       -1
    x216      c20       1
    x216      c83       1
    x217      c19       -1
    x217      c21       1
    x217      c84       1
    x218      c19       -1
    x218      c22       1
    x218      c85       1
    x230      c19       -1
    x230      c25       1
    x230      c97       1
    x246      c19       -1
    x246      c33       1
    x246      c113      1
    x36       c20       1
    x36       c21       -1
    x36       c86       1
    x37       c20       1
    x37       c22       -1
    x37       c87       1
    x55       c20       1
    x55       c29       -1
    x55       c105      1
    x93       c20       1
    x93       c48       -1
    x93       c143      1
    x117      c20       1
    x117      c27       -1
    x117      c167      1
    x146      c20       1
    x146      c42       -1
    x146      c196      1
    x219      c20       -1
    x219      c21       1
    x219      c86       1
    x220      c20       -1
    x220      c22       1
    x220      c87       1
    x238      c20       -1
    x238      c29       1
    x238      c105      1
    x276      c20       -1
    x276      c48       1
    x276      c143      1
    x300      c20       -1
    x300      c27       1
    x300      c167      1
    x329      c20       -1
    x329      c42       1
    x329      c196      1
    x38       c21       1
    x38       c22       -1
    x38       c88       1
    x79       c21       1
    x79       c41       -1
    x79       c129      1
    x221      c21       -1
    x221      c22       1
    x221      c88       1
    x262      c21       -1
    x262      c41       1
    x262      c129      1
    x98       c22       1
    x98       c50       -1
    x98       c148      1
    x139      c22       1
    x139      c25       -1
    x139      c189      1
    x281      c22       -1
    x281      c50       1
    x281      c148      1
    x322      c22       -1
    x322      c25       1
    x322      c189      1
    x44       c23       1
    x44       c27       -1
    x44       c94       1
    x160      c23       1
    x160      c39       -1
    x160      c210      1
    x227      c23       -1
    x227      c27       1
    x227      c94       1
    x343      c23       -1
    x343      c39       1
    x343      c210      1
    x46       c24       1
    x46       c41       -1
    x46       c96       1
    x101      c24       1
    x101      c48       -1
    x101      c151      1
    x114      c24       1
    x114      c37       -1
    x114      c164      1
    x135      c24       1
    x135      c36       -1
    x135      c185      1
    x229      c24       -1
    x229      c41       1
    x229      c96       1
    x284      c24       -1
    x284      c48       1
    x284      c151      1
    x297      c24       -1
    x297      c37       1
    x297      c164      1
    x318      c24       -1
    x318      c36       1
    x318      c185      1
    x48       c25       1
    x48       c32       -1
    x48       c98       1
    x156      c25       1
    x156      c49       -1
    x156      c206      1
    x231      c25       -1
    x231      c32       1
    x231      c98       1
    x339      c25       -1
    x339      c49       1
    x339      c206      1
    x50       c26       1
    x50       c48       -1
    x50       c100      1
    x126      c26       1
    x126      c31       -1
    x126      c176      1
    x233      c26       -1
    x233      c48       1
    x233      c100      1
    x309      c26       -1
    x309      c31       1
    x309      c176      1
    x52       c27       1
    x52       c34       -1
    x52       c102      1
    x121      c27       1
    x121      c37       -1
    x121      c171      1
    x161      c27       1
    x161      c40       -1
    x161      c211      1
    x165      c27       1
    x165      c28       -1
    x165      c215      1
    x235      c27       -1
    x235      c34       1
    x235      c102      1
    x304      c27       -1
    x304      c37       1
    x304      c171      1
    x344      c27       -1
    x344      c40       1
    x344      c211      1
    x348      c27       -1
    x348      c28       1
    x348      c215      1
    x54       c28       1
    x54       c32       -1
    x54       c104      1
    x109      c28       1
    x109      c33       -1
    x109      c159      1
    x116      c28       1
    x116      c34       -1
    x116      c166      1
    x141      c28       1
    x141      c45       -1
    x141      c191      1
    x176      c28       1
    x176      c50       -1
    x176      c226      1
    x237      c28       -1
    x237      c32       1
    x237      c104      1
    x292      c28       -1
    x292      c33       1
    x292      c159      1
    x299      c28       -1
    x299      c34       1
    x299      c166      1
    x324      c28       -1
    x324      c45       1
    x324      c191      1
    x359      c28       -1
    x359      c50       1
    x359      c226      1
    x56       c29       1
    x56       c41       -1
    x56       c106      1
    x110      c29       1
    x110      c43       -1
    x110      c160      1
    x132      c29       1
    x132      c30       -1
    x132      c182      1
    x163      c29       1
    x163      c42       -1
    x163      c213      1
    x239      c29       -1
    x239      c41       1
    x239      c106      1
    x293      c29       -1
    x293      c43       1
    x293      c160      1
    x315      c29       -1
    x315      c30       1
    x315      c182      1
    x346      c29       -1
    x346      c42       1
    x346      c213      1
    x58       c30       1
    x58       c43       -1
    x58       c108      1
    x159      c30       1
    x159      c35       -1
    x159      c209      1
    x241      c30       -1
    x241      c43       1
    x241      c108      1
    x342      c30       -1
    x342      c35       1
    x342      c209      1
    x60       c31       1
    x60       c47       -1
    x60       c110      1
    x123      c31       1
    x123      c36       -1
    x123      c173      1
    x162      c31       1
    x162      c39       -1
    x162      c212      1
    x243      c31       -1
    x243      c47       1
    x243      c110      1
    x306      c31       -1
    x306      c36       1
    x306      c173      1
    x345      c31       -1
    x345      c39       1
    x345      c212      1
    x62       c32       1
    x62       c42       -1
    x62       c112      1
    x149      c32       1
    x149      c39       -1
    x149      c199      1
    x245      c32       -1
    x245      c42       1
    x245      c112      1
    x332      c32       -1
    x332      c39       1
    x332      c199      1
    x64       c33       1
    x64       c47       -1
    x64       c114      1
    x104      c33       1
    x104      c50       -1
    x104      c154      1
    x247      c33       -1
    x247      c47       1
    x247      c114      1
    x287      c33       -1
    x287      c50       1
    x287      c154      1
    x66       c34       1
    x66       c49       -1
    x66       c116      1
    x249      c34       -1
    x249      c49       1
    x249      c116      1
    x68       c35       1
    x68       c47       -1
    x68       c118      1
    x134      c35       1
    x134      c44       -1
    x134      c184      1
    x251      c35       -1
    x251      c47       1
    x251      c118      1
    x317      c35       -1
    x317      c44       1
    x317      c184      1
    x70       c36       1
    x70       c43       -1
    x70       c120      1
    x253      c36       -1
    x253      c43       1
    x253      c120      1
    x72       c37       1
    x72       c39       -1
    x72       c122      1
    x127      c37       1
    x127      c41       -1
    x127      c177      1
    x180      c37       1
    x180      c46       -1
    x180      c230      1
    x255      c37       -1
    x255      c39       1
    x255      c122      1
    x310      c37       -1
    x310      c41       1
    x310      c177      1
    x363      c37       -1
    x363      c46       1
    x363      c230      1
    x74       c38       1
    x74       c46       -1
    x74       c124      1
    x122      c38       1
    x122      c47       -1
    x122      c172      1
    x145      c38       1
    x145      c45       -1
    x145      c195      1
    x257      c38       -1
    x257      c46       1
    x257      c124      1
    x305      c38       -1
    x305      c47       1
    x305      c172      1
    x328      c38       -1
    x328      c45       1
    x328      c195      1
    x76       c39       1
    x76       c50       -1
    x76       c126      1
    x105      c39       1
    x105      c46       -1
    x105      c155      1
    x259      c39       -1
    x259      c50       1
    x259      c126      1
    x288      c39       -1
    x288      c46       1
    x288      c155      1
    x78       c40       1
    x78       c50       -1
    x78       c128      1
    x178      c40       1
    x178      c43       -1
    x178      c228      1
    x261      c40       -1
    x261      c50       1
    x261      c128      1
    x361      c40       -1
    x361      c43       1
    x361      c228      1
    x80       c41       1
    x80       c47       -1
    x80       c130      1
    x263      c41       -1
    x263      c47       1
    x263      c130      1
    x82       c42       1
    x82       c47       -1
    x82       c132      1
    x265      c42       -1
    x265      c47       1
    x265      c132      1
    x84       c43       1
    x84       c50       -1
    x84       c134      1
    x267      c43       -1
    x267      c50       1
    x267      c134      1
    x86       c44       1
    x86       c49       -1
    x86       c136      1
    x179      c44       1
    x179      c46       -1
    x179      c229      1
    x269      c44       -1
    x269      c49       1
    x269      c136      1
    x362      c44       -1
    x362      c46       1
    x362      c229      1
    x88       c45       1
    x88       c47       -1
    x88       c138      1
    x271      c45       -1
    x271      c47       1
    x271      c138      1
    x90       c46       1
    x90       c49       -1
    x90       c140      1
    x273      c46       -1
    x273      c49       1
    x273      c140      1
    x92       c47       1
    x92       c48       -1
    x92       c142      1
    x275      c47       -1
    x275      c48       1
    x275      c142      1
    x94       c48       1
    x94       c50       -1
    x94       c144      1
    x277      c48       -1
    x277      c50       1
    x277      c144      1
    x96       c49       1
    x96       c50       -1
    x96       c146      1
    x279      c49       -1
    x279      c50       1
    x279      c146      1
RHS
    RHS1      c1        1347
    RHS1      c4        -14
    RHS1      c5        -13
    RHS1      c6        -16
    RHS1      c7        -11
    RHS1      c8        -96
    RHS1      c10       -97
    RHS1      c12       -17
    RHS1      c14       -80
    RHS1      c16       -96
    RHS1      c17       -51
    RHS1      c19       -41
    RHS1      c20       -59
    RHS1      c21       -52
    RHS1      c22       -89
    RHS1      c23       -15
    RHS1      c24       -51
    RHS1      c25       -18
    RHS1      c26       -54
    RHS1      c28       -13
    RHS1      c29       -57
    RHS1      c30       -48
    RHS1      c32       -96
    RHS1      c33       -83
    RHS1      c34       -89
    RHS1      c35       -91
BOUNDS
 BV BND1      x367    
 BV BND1      x368    
 BV BND1      x369    
 BV BND1      x370    
 BV BND1      x371    
 BV BND1      x372    
 BV BND1      x373    
 BV BND1      x374    
 UP BND1      x375      212
 BV BND1      x376    
 BV BND1      x377    
 BV BND1      x378    
 BV BND1      x379    
 BV BND1      x380    
 BV BND1      x381    
 BV BND1      x382    
 BV BND1      x383    
 UP BND1      x384      212
 BV BND1      x385    
 BV BND1      x386    
 BV BND1      x387    
 BV BND1      x388    
 BV BND1      x389    
 BV BND1      x390    
 BV BND1      x391    
 BV BND1      x392    
 UP BND1      x393      212
 BV BND1      x394    
 BV BND1      x395    
 BV BND1      x396    
 BV BND1      x397    
 BV BND1      x398    
 BV BND1      x399    
 BV BND1      x400    
 BV BND1      x401    
 UP BND1      x402      212
 BV BND1      x403    
 BV BND1      x404    
 BV BND1      x405    
 BV BND1      x406    
 BV BND1      x407    
 BV BND1      x408    
 BV BND1      x409    
 BV BND1      x410    
 UP BND1      x411      212
 BV BND1      x412    
 BV BND1      x413    
 BV BND1      x414    
 BV BND1      x415    
 BV BND1      x416    
 BV BND1      x417    
 BV BND1      x418    
 BV BND1      x419    
 UP BND1      x420      212
 BV BND1      x421    
 BV BND1      x422    
 BV BND1      x423    
 BV BND1      x424    
 BV BND1      x425    
 BV BND1      x426    
 BV BND1      x427    
 BV BND1      x428    
 UP BND1      x429      212
 BV BND1      x430    
 BV BND1      x431    
 BV BND1      x432    
 BV BND1      x433    
 BV BND1      x434    
 BV BND1      x435    
 BV BND1      x436    
 BV BND1      x437    
 UP BND1      x438      212
 BV BND1      x439    
 BV BND1      x440    
 BV BND1      x441    
 BV BND1      x442    
 BV BND1      x443    
 BV BND1      x444    
 BV BND1      x445    
 BV BND1      x446    
 UP BND1      x447      212
 BV BND1      x448    
 BV BND1      x449    
 BV BND1      x450    
 BV BND1      x451    
 BV BND1      x452    
 BV BND1      x453    
 BV BND1      x454    
 BV BND1      x455    
 UP BND1      x456      212
 BV BND1      x457    
 BV BND1      x458    
 BV BND1      x459    
 BV BND1      x460    
 BV BND1      x461    
 BV BND1      x462    
 BV BND1      x463    
 BV BND1      x464    
 UP BND1      x465      212
 BV BND1      x466    
 BV BND1      x467    
 BV BND1      x468    
 BV BND1      x469    
 BV BND1      x470    
 BV BND1      x471    
 BV BND1      x472    
 BV BND1      x473    
 UP BND1      x474      212
 BV BND1      x475    
 BV BND1      x476    
 BV BND1      x477    
 BV BND1      x478    
 BV BND1      x479    
 BV BND1      x480    
 BV BND1      x481    
 BV BND1      x482    
 UP BND1      x483      212
 BV BND1      x484    
 BV BND1      x485    
 BV BND1      x486    
 BV BND1      x487    
 BV BND1      x488    
 BV BND1      x489    
 BV BND1      x490    
 BV BND1      x491    
 UP BND1      x492      212
 BV BND1      x493    
 BV BND1      x494    
 BV BND1      x495    
 BV BND1      x496    
 BV BND1      x497    
 BV BND1      x498    
 BV BND1      x499    
 BV BND1      x500    
 UP BND1      x501      212
 BV BND1      x502    
 BV BND1      x503    
 BV BND1      x504    
 BV BND1      x505    
 BV BND1      x506    
 BV BND1      x507    
 BV BND1      x508    
 BV BND1      x509    
 UP BND1      x510      212
 BV BND1      x511    
 BV BND1      x512    
 BV BND1      x513    
 BV BND1      x514    
 BV BND1      x515    
 BV BND1      x516    
 BV BND1      x517    
 BV BND1      x518    
 UP BND1      x519      212
 BV BND1      x520    
 BV BND1      x521    
 BV BND1      x522    
 BV BND1      x523    
 BV BND1      x524    
 BV BND1      x525    
 BV BND1      x526    
 BV BND1      x527    
 UP BND1      x528      212
 BV BND1      x529    
 BV BND1      x530    
 BV BND1      x531    
 BV BND1      x532    
 BV BND1      x533    
 BV BND1      x534    
 BV BND1      x535    
 BV BND1      x536    
 UP BND1      x537      212
 BV BND1      x538    
 BV BND1      x539    
 BV BND1      x540    
 BV BND1      x541    
 BV BND1      x542    
 BV BND1      x543    
 BV BND1      x544    
 BV BND1      x545    
 UP BND1      x546      212
 BV BND1      x547    
 BV BND1      x548    
 BV BND1      x549    
 BV BND1      x550    
 BV BND1      x551    
 BV BND1      x552    
 BV BND1      x553    
 BV BND1      x554    
 UP BND1      x555      212
 BV BND1      x556    
 BV BND1      x557    
 BV BND1      x558    
 BV BND1      x559    
 BV BND1      x560    
 BV BND1      x561    
 BV BND1      x562    
 BV BND1      x563    
 UP BND1      x564      212
 BV BND1      x565    
 BV BND1      x566    
 BV BND1      x567    
 BV BND1      x568    
 BV BND1      x569    
 BV BND1      x570    
 BV BND1      x571    
 BV BND1      x572    
 UP BND1      x573      212
 BV BND1      x574    
 BV BND1      x575    
 BV BND1      x576    
 BV BND1      x577    
 BV BND1      x578    
 BV BND1      x579    
 BV BND1      x580    
 BV BND1      x581    
 UP BND1      x582      212
 BV BND1      x583    
 BV BND1      x584    
 BV BND1      x585    
 BV BND1      x586    
 BV BND1      x587    
 BV BND1      x588    
 BV BND1      x589    
 BV BND1      x590    
 UP BND1      x591      212
 BV BND1      x592    
 BV BND1      x593    
 BV BND1      x594    
 BV BND1      x595    
 BV BND1      x596    
 BV BND1      x597    
 BV BND1      x598    
 BV BND1      x599    
 UP BND1      x600      212
 BV BND1      x601    
 BV BND1      x602    
 BV BND1      x603    
 BV BND1      x604    
 BV BND1      x605    
 BV BND1      x606    
 BV BND1      x607    
 BV BND1      x608    
 UP BND1      x609      212
 BV BND1      x610    
 BV BND1      x611    
 BV BND1      x612    
 BV BND1      x613    
 BV BND1      x614    
 BV BND1      x615    
 BV BND1      x616    
 BV BND1      x617    
 UP BND1      x618      212
 BV BND1      x619    
 BV BND1      x620    
 BV BND1      x621    
 BV BND1      x622    
 BV BND1      x623    
 BV BND1      x624    
 BV BND1      x625    
 BV BND1      x626    
 UP BND1      x627      212
 BV BND1      x628    
 BV BND1      x629    
 BV BND1      x630    
 BV BND1      x631    
 BV BND1      x632    
 BV BND1      x633    
 BV BND1      x634    
 BV BND1      x635    
 UP BND1      x636      212
 BV BND1      x637    
 BV BND1      x638    
 BV BND1      x639    
 BV BND1      x640    
 BV BND1      x641    
 BV BND1      x642    
 BV BND1      x643    
 BV BND1      x644    
 UP BND1      x645      212
 BV BND1      x646    
 BV BND1      x647    
 BV BND1      x648    
 BV BND1      x649    
 BV BND1      x650    
 BV BND1      x651    
 BV BND1      x652    
 BV BND1      x653    
 UP BND1      x654      212
 BV BND1      x655    
 BV BND1      x656    
 BV BND1      x657    
 BV BND1      x658    
 BV BND1      x659    
 BV BND1      x660    
 BV BND1      x661    
 BV BND1      x662    
 UP BND1      x663      212
 BV BND1      x664    
 BV BND1      x665    
 BV BND1      x666    
 BV BND1      x667    
 BV BND1      x668    
 BV BND1      x669    
 BV BND1      x670    
 BV BND1      x671    
 UP BND1      x672      212
 BV BND1      x673    
 BV BND1      x674    
 BV BND1      x675    
 BV BND1      x676    
 BV BND1      x677    
 BV BND1      x678    
 BV BND1      x679    
 BV BND1      x680    
 UP BND1      x681      212
 BV BND1      x682    
 BV BND1      x683    
 BV BND1      x684    
 BV BND1      x685    
 BV BND1      x686    
 BV BND1      x687    
 BV BND1      x688    
 BV BND1      x689    
 UP BND1      x690      212
 BV BND1      x691    
 BV BND1      x692    
 BV BND1      x693    
 BV BND1      x694    
 BV BND1      x695    
 BV BND1      x696    
 BV BND1      x697    
 BV BND1      x698    
 UP BND1      x699      212
 BV BND1      x700    
 BV BND1      x701    
 BV BND1      x702    
 BV BND1      x703    
 BV BND1      x704    
 BV BND1      x705    
 BV BND1      x706    
 BV BND1      x707    
 UP BND1      x708      212
 BV BND1      x709    
 BV BND1      x710    
 BV BND1      x711    
 BV BND1      x712    
 BV BND1      x713    
 BV BND1      x714    
 BV BND1      x715    
 BV BND1      x716    
 UP BND1      x717      212
 BV BND1      x718    
 BV BND1      x719    
 BV BND1      x720    
 BV BND1      x721    
 BV BND1      x722    
 BV BND1      x723    
 BV BND1      x724    
 BV BND1      x725    
 UP BND1      x726      212
 BV BND1      x727    
 BV BND1      x728    
 BV BND1      x729    
 BV BND1      x730    
 BV BND1      x731    
 BV BND1      x732    
 BV BND1      x733    
 BV BND1      x734    
 UP BND1      x735      212
 BV BND1      x736    
 BV BND1      x737    
 BV BND1      x738    
 BV BND1      x739    
 BV BND1      x740    
 BV BND1      x741    
 BV BND1      x742    
 BV BND1      x743    
 UP BND1      x744      212
 BV BND1      x745    
 BV BND1      x746    
 BV BND1      x747    
 BV BND1      x748    
 BV BND1      x749    
 BV BND1      x750    
 BV BND1      x751    
 BV BND1      x752    
 UP BND1      x753      212
 BV BND1      x754    
 BV BND1      x755    
 BV BND1      x756    
 BV BND1      x757    
 BV BND1      x758    
 BV BND1      x759    
 BV BND1      x760    
 BV BND1      x761    
 UP BND1      x762      212
 BV BND1      x763    
 BV BND1      x764    
 BV BND1      x765    
 BV BND1      x766    
 BV BND1      x767    
 BV BND1      x768    
 BV BND1      x769    
 BV BND1      x770    
 UP BND1      x771      212
 BV BND1      x772    
 BV BND1      x773    
 BV BND1      x774    
 BV BND1      x775    
 BV BND1      x776    
 BV BND1      x777    
 BV BND1      x778    
 BV BND1      x779    
 UP BND1      x780      212
 BV BND1      x781    
 BV BND1      x782    
 BV BND1      x783    
 BV BND1      x784    
 BV BND1      x785    
 BV BND1      x786    
 BV BND1      x787    
 BV BND1      x788    
 UP BND1      x789      212
 BV BND1      x790    
 BV BND1      x791    
 BV BND1      x792    
 BV BND1      x793    
 BV BND1      x794    
 BV BND1      x795    
 BV BND1      x796    
 BV BND1      x797    
 UP BND1      x798      212
 BV BND1      x799    
 BV BND1      x800    
 BV BND1      x801    
 BV BND1      x802    
 BV BND1      x803    
 BV BND1      x804    
 BV BND1      x805    
 BV BND1      x806    
 UP BND1      x807      212
 BV BND1      x808    
 BV BND1      x809    
 BV BND1      x810    
 BV BND1      x811    
 BV BND1      x812    
 BV BND1      x813    
 BV BND1      x814    
 BV BND1      x815    
 UP BND1      x816      212
 BV BND1      x817    
 BV BND1      x818    
 BV BND1      x819    
 BV BND1      x820    
 BV BND1      x821    
 BV BND1      x822    
 BV BND1      x823    
 BV BND1      x824    
 UP BND1      x825      212
 BV BND1      x826    
 BV BND1      x827    
 BV BND1      x828    
 BV BND1      x829    
 BV BND1      x830    
 BV BND1      x831    
 BV BND1      x832    
 BV BND1      x833    
 UP BND1      x834      212
 BV BND1      x835    
 BV BND1      x836    
 BV BND1      x837    
 BV BND1      x838    
 BV BND1      x839    
 BV BND1      x840    
 BV BND1      x841    
 BV BND1      x842    
 UP BND1      x843      212
 BV BND1      x844    
 BV BND1      x845    
 BV BND1      x846    
 BV BND1      x847    
 BV BND1      x848    
 BV BND1      x849    
 BV BND1      x850    
 BV BND1      x851    
 UP BND1      x852      212
 BV BND1      x853    
 BV BND1      x854    
 BV BND1      x855    
 BV BND1      x856    
 BV BND1      x857    
 BV BND1      x858    
 BV BND1      x859    
 BV BND1      x860    
 UP BND1      x861      212
 BV BND1      x862    
 BV BND1      x863    
 BV BND1      x864    
 BV BND1      x865    
 BV BND1      x866    
 BV BND1      x867    
 BV BND1      x868    
 BV BND1      x869    
 UP BND1      x870      212
 BV BND1      x871    
 BV BND1      x872    
 BV BND1      x873    
 BV BND1      x874    
 BV BND1      x875    
 BV BND1      x876    
 BV BND1      x877    
 BV BND1      x878    
 UP BND1      x879      212
 BV BND1      x880    
 BV BND1      x881    
 BV BND1      x882    
 BV BND1      x883    
 BV BND1      x884    
 BV BND1      x885    
 BV BND1      x886    
 BV BND1      x887    
 UP BND1      x888      212
 BV BND1      x889    
 BV BND1      x890    
 BV BND1      x891    
 BV BND1      x892    
 BV BND1      x893    
 BV BND1      x894    
 BV BND1      x895    
 BV BND1      x896    
 UP BND1      x897      212
 BV BND1      x898    
 BV BND1      x899    
 BV BND1      x900    
 BV BND1      x901    
 BV BND1      x902    
 BV BND1      x903    
 BV BND1      x904    
 BV BND1      x905    
 UP BND1      x906      212
 BV BND1      x907    
 BV BND1      x908    
 BV BND1      x909    
 BV BND1      x910    
 BV BND1      x911    
 BV BND1      x912    
 BV BND1      x913    
 BV BND1      x914    
 UP BND1      x915      212
 BV BND1      x916    
 BV BND1      x917    
 BV BND1      x918    
 BV BND1      x919    
 BV BND1      x920    
 BV BND1      x921    
 BV BND1      x922    
 BV BND1      x923    
 UP BND1      x924      212
 BV BND1      x925    
 BV BND1      x926    
 BV BND1      x927    
 BV BND1      x928    
 BV BND1      x929    
 BV BND1      x930    
 BV BND1      x931    
 BV BND1      x932    
 UP BND1      x933      212
 BV BND1      x934    
 BV BND1      x935    
 BV BND1      x936    
 BV BND1      x937    
 BV BND1      x938    
 BV BND1      x939    
 BV BND1      x940    
 BV BND1      x941    
 UP BND1      x942      212
 BV BND1      x943    
 BV BND1      x944    
 BV BND1      x945    
 BV BND1      x946    
 BV BND1      x947    
 BV BND1      x948    
 BV BND1      x949    
 BV BND1      x950    
 UP BND1      x951      212
 BV BND1      x952    
 BV BND1      x953    
 BV BND1      x954    
 BV BND1      x955    
 BV BND1      x956    
 BV BND1      x957    
 BV BND1      x958    
 BV BND1      x959    
 UP BND1      x960      212
 BV BND1      x961    
 BV BND1      x962    
 BV BND1      x963    
 BV BND1      x964    
 BV BND1      x965    
 BV BND1      x966    
 BV BND1      x967    
 BV BND1      x968    
 UP BND1      x969      212
 BV BND1      x970    
 BV BND1      x971    
 BV BND1      x972    
 BV BND1      x973    
 BV BND1      x974    
 BV BND1      x975    
 BV BND1      x976    
 BV BND1      x977    
 UP BND1      x978      212
 BV BND1      x979    
 BV BND1      x980    
 BV BND1      x981    
 BV BND1      x982    
 BV BND1      x983    
 BV BND1      x984    
 BV BND1      x985    
 BV BND1      x986    
 UP BND1      x987      212
 BV BND1      x988    
 BV BND1      x989    
 BV BND1      x990    
 BV BND1      x991    
 BV BND1      x992    
 BV BND1      x993    
 BV BND1      x994    
 BV BND1      x995    
 UP BND1      x996      212
 BV BND1      x997    
 BV BND1      x998    
 BV BND1      x999    
 BV BND1      x1000   
 BV BND1      x1001   
 BV BND1      x1002   
 BV BND1      x1003   
 BV BND1      x1004   
 UP BND1      x1005     212
 BV BND1      x1006   
 BV BND1      x1007   
 BV BND1      x1008   
 BV BND1      x1009   
 BV BND1      x1010   
 BV BND1      x1011   
 BV BND1      x1012   
 BV BND1      x1013   
 UP BND1      x1014     212
 BV BND1      x1015   
 BV BND1      x1016   
 BV BND1      x1017   
 BV BND1      x1018   
 BV BND1      x1019   
 BV BND1      x1020   
 BV BND1      x1021   
 BV BND1      x1022   
 UP BND1      x1023     212
 BV BND1      x1024   
 BV BND1      x1025   
 BV BND1      x1026   
 BV BND1      x1027   
 BV BND1      x1028   
 BV BND1      x1029   
 BV BND1      x1030   
 BV BND1      x1031   
 UP BND1      x1032     212
 BV BND1      x1033   
 BV BND1      x1034   
 BV BND1      x1035   
 BV BND1      x1036   
 BV BND1      x1037   
 BV BND1      x1038   
 BV BND1      x1039   
 BV BND1      x1040   
 UP BND1      x1041     212
 BV BND1      x1042   
 BV BND1      x1043   
 BV BND1      x1044   
 BV BND1      x1045   
 BV BND1      x1046   
 BV BND1      x1047   
 BV BND1      x1048   
 BV BND1      x1049   
 UP BND1      x1050     212
 BV BND1      x1051   
 BV BND1      x1052   
 BV BND1      x1053   
 BV BND1      x1054   
 BV BND1      x1055   
 BV BND1      x1056   
 BV BND1      x1057   
 BV BND1      x1058   
 UP BND1      x1059     212
 BV BND1      x1060   
 BV BND1      x1061   
 BV BND1      x1062   
 BV BND1      x1063   
 BV BND1      x1064   
 BV BND1      x1065   
 BV BND1      x1066   
 BV BND1      x1067   
 UP BND1      x1068     212
 BV BND1      x1069   
 BV BND1      x1070   
 BV BND1      x1071   
 BV BND1      x1072   
 BV BND1      x1073   
 BV BND1      x1074   
 BV BND1      x1075   
 BV BND1      x1076   
 UP BND1      x1077     212
 BV BND1      x1078   
 BV BND1      x1079   
 BV BND1      x1080   
 BV BND1      x1081   
 BV BND1      x1082   
 BV BND1      x1083   
 BV BND1      x1084   
 BV BND1      x1085   
 UP BND1      x1086     212
 BV BND1      x1087   
 BV BND1      x1088   
 BV BND1      x1089   
 BV BND1      x1090   
 BV BND1      x1091   
 BV BND1      x1092   
 BV BND1      x1093   
 BV BND1      x1094   
 UP BND1      x1095     212
 BV BND1      x1096   
 BV BND1      x1097   
 BV BND1      x1098   
 BV BND1      x1099   
 BV BND1      x1100   
 BV BND1      x1101   
 BV BND1      x1102   
 BV BND1      x1103   
 UP BND1      x1104     212
 BV BND1      x1105   
 BV BND1      x1106   
 BV BND1      x1107   
 BV BND1      x1108   
 BV BND1      x1109   
 BV BND1      x1110   
 BV BND1      x1111   
 BV BND1      x1112   
 UP BND1      x1113     212
 BV BND1      x1114   
 BV BND1      x1115   
 BV BND1      x1116   
 BV BND1      x1117   
 BV BND1      x1118   
 BV BND1      x1119   
 BV BND1      x1120   
 BV BND1      x1121   
 UP BND1      x1122     212
 BV BND1      x1123   
 BV BND1      x1124   
 BV BND1      x1125   
 BV BND1      x1126   
 BV BND1      x1127   
 BV BND1      x1128   
 BV BND1      x1129   
 BV BND1      x1130   
 UP BND1      x1131     212
 BV BND1      x1132   
 BV BND1      x1133   
 BV BND1      x1134   
 BV BND1      x1135   
 BV BND1      x1136   
 BV BND1      x1137   
 BV BND1      x1138   
 BV BND1      x1139   
 UP BND1      x1140     212
 BV BND1      x1141   
 BV BND1      x1142   
 BV BND1      x1143   
 BV BND1      x1144   
 BV BND1      x1145   
 BV BND1      x1146   
 BV BND1      x1147   
 BV BND1      x1148   
 UP BND1      x1149     212
 BV BND1      x1150   
 BV BND1      x1151   
 BV BND1      x1152   
 BV BND1      x1153   
 BV BND1      x1154   
 BV BND1      x1155   
 BV BND1      x1156   
 BV BND1      x1157   
 UP BND1      x1158     212
 BV BND1      x1159   
 BV BND1      x1160   
 BV BND1      x1161   
 BV BND1      x1162   
 BV BND1      x1163   
 BV BND1      x1164   
 BV BND1      x1165   
 BV BND1      x1166   
 UP BND1      x1167     212
 BV BND1      x1168   
 BV BND1      x1169   
 BV BND1      x1170   
 BV BND1      x1171   
 BV BND1      x1172   
 BV BND1      x1173   
 BV BND1      x1174   
 BV BND1      x1175   
 UP BND1      x1176     212
 BV BND1      x1177   
 BV BND1      x1178   
 BV BND1      x1179   
 BV BND1      x1180   
 BV BND1      x1181   
 BV BND1      x1182   
 BV BND1      x1183   
 BV BND1      x1184   
 UP BND1      x1185     212
 BV BND1      x1186   
 BV BND1      x1187   
 BV BND1      x1188   
 BV BND1      x1189   
 BV BND1      x1190   
 BV BND1      x1191   
 BV BND1      x1192   
 BV BND1      x1193   
 UP BND1      x1194     212
 BV BND1      x1195   
 BV BND1      x1196   
 BV BND1      x1197   
 BV BND1      x1198   
 BV BND1      x1199   
 BV BND1      x1200   
 BV BND1      x1201   
 BV BND1      x1202   
 UP BND1      x1203     212
 BV BND1      x1204   
 BV BND1      x1205   
 BV BND1      x1206   
 BV BND1      x1207   
 BV BND1      x1208   
 BV BND1      x1209   
 BV BND1      x1210   
 BV BND1      x1211   
 UP BND1      x1212     212
 BV BND1      x1213   
 BV BND1      x1214   
 BV BND1      x1215   
 BV BND1      x1216   
 BV BND1      x1217   
 BV BND1      x1218   
 BV BND1      x1219   
 BV BND1      x1220   
 UP BND1      x1221     212
 BV BND1      x1222   
 BV BND1      x1223   
 BV BND1      x1224   
 BV BND1      x1225   
 BV BND1      x1226   
 BV BND1      x1227   
 BV BND1      x1228   
 BV BND1      x1229   
 UP BND1      x1230     212
 BV BND1      x1231   
 BV BND1      x1232   
 BV BND1      x1233   
 BV BND1      x1234   
 BV BND1      x1235   
 BV BND1      x1236   
 BV BND1      x1237   
 BV BND1      x1238   
 UP BND1      x1239     212
 BV BND1      x1240   
 BV BND1      x1241   
 BV BND1      x1242   
 BV BND1      x1243   
 BV BND1      x1244   
 BV BND1      x1245   
 BV BND1      x1246   
 BV BND1      x1247   
 UP BND1      x1248     212
 BV BND1      x1249   
 BV BND1      x1250   
 BV BND1      x1251   
 BV BND1      x1252   
 BV BND1      x1253   
 BV BND1      x1254   
 BV BND1      x1255   
 BV BND1      x1256   
 UP BND1      x1257     212
 BV BND1      x1258   
 BV BND1      x1259   
 BV BND1      x1260   
 BV BND1      x1261   
 BV BND1      x1262   
 BV BND1      x1263   
 BV BND1      x1264   
 BV BND1      x1265   
 UP BND1      x1266     212
 BV BND1      x1267   
 BV BND1      x1268   
 BV BND1      x1269   
 BV BND1      x1270   
 BV BND1      x1271   
 BV BND1      x1272   
 BV BND1      x1273   
 BV BND1      x1274   
 UP BND1      x1275     212
 BV BND1      x1276   
 BV BND1      x1277   
 BV BND1      x1278   
 BV BND1      x1279   
 BV BND1      x1280   
 BV BND1      x1281   
 BV BND1      x1282   
 BV BND1      x1283   
 UP BND1      x1284     212
 BV BND1      x1285   
 BV BND1      x1286   
 BV BND1      x1287   
 BV BND1      x1288   
 BV BND1      x1289   
 BV BND1      x1290   
 BV BND1      x1291   
 BV BND1      x1292   
 UP BND1      x1293     212
 BV BND1      x1294   
 BV BND1      x1295   
 BV BND1      x1296   
 BV BND1      x1297   
 BV BND1      x1298   
 BV BND1      x1299   
 BV BND1      x1300   
 BV BND1      x1301   
 UP BND1      x1302     212
 BV BND1      x1303   
 BV BND1      x1304   
 BV BND1      x1305   
 BV BND1      x1306   
 BV BND1      x1307   
 BV BND1      x1308   
 BV BND1      x1309   
 BV BND1      x1310   
 UP BND1      x1311     212
 BV BND1      x1312   
 BV BND1      x1313   
 BV BND1      x1314   
 BV BND1      x1315   
 BV BND1      x1316   
 BV BND1      x1317   
 BV BND1      x1318   
 BV BND1      x1319   
 UP BND1      x1320     212
 BV BND1      x1321   
 BV BND1      x1322   
 BV BND1      x1323   
 BV BND1      x1324   
 BV BND1      x1325   
 BV BND1      x1326   
 BV BND1      x1327   
 BV BND1      x1328   
 UP BND1      x1329     212
 BV BND1      x1330   
 BV BND1      x1331   
 BV BND1      x1332   
 BV BND1      x1333   
 BV BND1      x1334   
 BV BND1      x1335   
 BV BND1      x1336   
 BV BND1      x1337   
 UP BND1      x1338     212
 BV BND1      x1339   
 BV BND1      x1340   
 BV BND1      x1341   
 BV BND1      x1342   
 BV BND1      x1343   
 BV BND1      x1344   
 BV BND1      x1345   
 BV BND1      x1346   
 UP BND1      x1347     212
 BV BND1      x1348   
 BV BND1      x1349   
 BV BND1      x1350   
 BV BND1      x1351   
 BV BND1      x1352   
 BV BND1      x1353   
 BV BND1      x1354   
 BV BND1      x1355   
 UP BND1      x1356     212
 BV BND1      x1357   
 BV BND1      x1358   
 BV BND1      x1359   
 BV BND1      x1360   
 BV BND1      x1361   
 BV BND1      x1362   
 BV BND1      x1363   
 BV BND1      x1364   
 UP BND1      x1365     212
 BV BND1      x1366   
 BV BND1      x1367   
 BV BND1      x1368   
 BV BND1      x1369   
 BV BND1      x1370   
 BV BND1      x1371   
 BV BND1      x1372   
 BV BND1      x1373   
 UP BND1      x1374     212
 BV BND1      x1375   
 BV BND1      x1376   
 BV BND1      x1377   
 BV BND1      x1378   
 BV BND1      x1379   
 BV BND1      x1380   
 BV BND1      x1381   
 BV BND1      x1382   
 UP BND1      x1383     212
 BV BND1      x1384   
 BV BND1      x1385   
 BV BND1      x1386   
 BV BND1      x1387   
 BV BND1      x1388   
 BV BND1      x1389   
 BV BND1      x1390   
 BV BND1      x1391   
 UP BND1      x1392     212
 BV BND1      x1393   
 BV BND1      x1394   
 BV BND1      x1395   
 BV BND1      x1396   
 BV BND1      x1397   
 BV BND1      x1398   
 BV BND1      x1399   
 BV BND1      x1400   
 UP BND1      x1401     212
 BV BND1      x1402   
 BV BND1      x1403   
 BV BND1      x1404   
 BV BND1      x1405   
 BV BND1      x1406   
 BV BND1      x1407   
 BV BND1      x1408   
 BV BND1      x1409   
 UP BND1      x1410     212
 BV BND1      x1411   
 BV BND1      x1412   
 BV BND1      x1413   
 BV BND1      x1414   
 BV BND1      x1415   
 BV BND1      x1416   
 BV BND1      x1417   
 BV BND1      x1418   
 UP BND1      x1419     212
 BV BND1      x1420   
 BV BND1      x1421   
 BV BND1      x1422   
 BV BND1      x1423   
 BV BND1      x1424   
 BV BND1      x1425   
 BV BND1      x1426   
 BV BND1      x1427   
 UP BND1      x1428     212
 BV BND1      x1429   
 BV BND1      x1430   
 BV BND1      x1431   
 BV BND1      x1432   
 BV BND1      x1433   
 BV BND1      x1434   
 BV BND1      x1435   
 BV BND1      x1436   
 UP BND1      x1437     212
 BV BND1      x1438   
 BV BND1      x1439   
 BV BND1      x1440   
 BV BND1      x1441   
 BV BND1      x1442   
 BV BND1      x1443   
 BV BND1      x1444   
 BV BND1      x1445   
 UP BND1      x1446     212
 BV BND1      x1447   
 BV BND1      x1448   
 BV BND1      x1449   
 BV BND1      x1450   
 BV BND1      x1451   
 BV BND1      x1452   
 BV BND1      x1453   
 BV BND1      x1454   
 UP BND1      x1455     212
 BV BND1      x1456   
 BV BND1      x1457   
 BV BND1      x1458   
 BV BND1      x1459   
 BV BND1      x1460   
 BV BND1      x1461   
 BV BND1      x1462   
 BV BND1      x1463   
 UP BND1      x1464     212
 BV BND1      x1465   
 BV BND1      x1466   
 BV BND1      x1467   
 BV BND1      x1468   
 BV BND1      x1469   
 BV BND1      x1470   
 BV BND1      x1471   
 BV BND1      x1472   
 UP BND1      x1473     212
 BV BND1      x1474   
 BV BND1      x1475   
 BV BND1      x1476   
 BV BND1      x1477   
 BV BND1      x1478   
 BV BND1      x1479   
 BV BND1      x1480   
 BV BND1      x1481   
 UP BND1      x1482     212
 BV BND1      x1483   
 BV BND1      x1484   
 BV BND1      x1485   
 BV BND1      x1486   
 BV BND1      x1487   
 BV BND1      x1488   
 BV BND1      x1489   
 BV BND1      x1490   
 UP BND1      x1491     212
 BV BND1      x1492   
 BV BND1      x1493   
 BV BND1      x1494   
 BV BND1      x1495   
 BV BND1      x1496   
 BV BND1      x1497   
 BV BND1      x1498   
 BV BND1      x1499   
 UP BND1      x1500     212
 BV BND1      x1501   
 BV BND1      x1502   
 BV BND1      x1503   
 BV BND1      x1504   
 BV BND1      x1505   
 BV BND1      x1506   
 BV BND1      x1507   
 BV BND1      x1508   
 UP BND1      x1509     212
 BV BND1      x1510   
 BV BND1      x1511   
 BV BND1      x1512   
 BV BND1      x1513   
 BV BND1      x1514   
 BV BND1      x1515   
 BV BND1      x1516   
 BV BND1      x1517   
 UP BND1      x1518     212
 BV BND1      x1519   
 BV BND1      x1520   
 BV BND1      x1521   
 BV BND1      x1522   
 BV BND1      x1523   
 BV BND1      x1524   
 BV BND1      x1525   
 BV BND1      x1526   
 UP BND1      x1527     212
 BV BND1      x1528   
 BV BND1      x1529   
 BV BND1      x1530   
 BV BND1      x1531   
 BV BND1      x1532   
 BV BND1      x1533   
 BV BND1      x1534   
 BV BND1      x1535   
 UP BND1      x1536     212
 BV BND1      x1537   
 BV BND1      x1538   
 BV BND1      x1539   
 BV BND1      x1540   
 BV BND1      x1541   
 BV BND1      x1542   
 BV BND1      x1543   
 BV BND1      x1544   
 UP BND1      x1545     212
 BV BND1      x1546   
 BV BND1      x1547   
 BV BND1      x1548   
 BV BND1      x1549   
 BV BND1      x1550   
 BV BND1      x1551   
 BV BND1      x1552   
 BV BND1      x1553   
 UP BND1      x1554     212
 BV BND1      x1555   
 BV BND1      x1556   
 BV BND1      x1557   
 BV BND1      x1558   
 BV BND1      x1559   
 BV BND1      x1560   
 BV BND1      x1561   
 BV BND1      x1562   
 UP BND1      x1563     212
 BV BND1      x1564   
 BV BND1      x1565   
 BV BND1      x1566   
 BV BND1      x1567   
 BV BND1      x1568   
 BV BND1      x1569   
 BV BND1      x1570   
 BV BND1      x1571   
 UP BND1      x1572     212
 BV BND1      x1573   
 BV BND1      x1574   
 BV BND1      x1575   
 BV BND1      x1576   
 BV BND1      x1577   
 BV BND1      x1578   
 BV BND1      x1579   
 BV BND1      x1580   
 UP BND1      x1581     212
 BV BND1      x1582   
 BV BND1      x1583   
 BV BND1      x1584   
 BV BND1      x1585   
 BV BND1      x1586   
 BV BND1      x1587   
 BV BND1      x1588   
 BV BND1      x1589   
 UP BND1      x1590     212
 BV BND1      x1591   
 BV BND1      x1592   
 BV BND1      x1593   
 BV BND1      x1594   
 BV BND1      x1595   
 BV BND1      x1596   
 BV BND1      x1597   
 BV BND1      x1598   
 UP BND1      x1599     212
 BV BND1      x1600   
 BV BND1      x1601   
 BV BND1      x1602   
 BV BND1      x1603   
 BV BND1      x1604   
 BV BND1      x1605   
 BV BND1      x1606   
 BV BND1      x1607   
 UP BND1      x1608     212
 BV BND1      x1609   
 BV BND1      x1610   
 BV BND1      x1611   
 BV BND1      x1612   
 BV BND1      x1613   
 BV BND1      x1614   
 BV BND1      x1615   
 BV BND1      x1616   
 UP BND1      x1617     212
 BV BND1      x1618   
 BV BND1      x1619   
 BV BND1      x1620   
 BV BND1      x1621   
 BV BND1      x1622   
 BV BND1      x1623   
 BV BND1      x1624   
 BV BND1      x1625   
 UP BND1      x1626     212
 BV BND1      x1627   
 BV BND1      x1628   
 BV BND1      x1629   
 BV BND1      x1630   
 BV BND1      x1631   
 BV BND1      x1632   
 BV BND1      x1633   
 BV BND1      x1634   
 UP BND1      x1635     212
 BV BND1      x1636   
 BV BND1      x1637   
 BV BND1      x1638   
 BV BND1      x1639   
 BV BND1      x1640   
 BV BND1      x1641   
 BV BND1      x1642   
 BV BND1      x1643   
 UP BND1      x1644     212
 BV BND1      x1645   
 BV BND1      x1646   
 BV BND1      x1647   
 BV BND1      x1648   
 BV BND1      x1649   
 BV BND1      x1650   
 BV BND1      x1651   
 BV BND1      x1652   
 UP BND1      x1653     212
 BV BND1      x1654   
 BV BND1      x1655   
 BV BND1      x1656   
 BV BND1      x1657   
 BV BND1      x1658   
 BV BND1      x1659   
 BV BND1      x1660   
 BV BND1      x1661   
 UP BND1      x1662     212
 BV BND1      x1663   
 BV BND1      x1664   
 BV BND1      x1665   
 BV BND1      x1666   
 BV BND1      x1667   
 BV BND1      x1668   
 BV BND1      x1669   
 BV BND1      x1670   
 UP BND1      x1671     212
 BV BND1      x1672   
 BV BND1      x1673   
 BV BND1      x1674   
 BV BND1      x1675   
 BV BND1      x1676   
 BV BND1      x1677   
 BV BND1      x1678   
 BV BND1      x1679   
 UP BND1      x1680     212
 BV BND1      x1681   
 BV BND1      x1682   
 BV BND1      x1683   
 BV BND1      x1684   
 BV BND1      x1685   
 BV BND1      x1686   
 BV BND1      x1687   
 BV BND1      x1688   
 UP BND1      x1689     212
 BV BND1      x1690   
 BV BND1      x1691   
 BV BND1      x1692   
 BV BND1      x1693   
 BV BND1      x1694   
 BV BND1      x1695   
 BV BND1      x1696   
 BV BND1      x1697   
 UP BND1      x1698     212
 BV BND1      x1699   
 BV BND1      x1700   
 BV BND1      x1701   
 BV BND1      x1702   
 BV BND1      x1703   
 BV BND1      x1704   
 BV BND1      x1705   
 BV BND1      x1706   
 UP BND1      x1707     212
 BV BND1      x1708   
 BV BND1      x1709   
 BV BND1      x1710   
 BV BND1      x1711   
 BV BND1      x1712   
 BV BND1      x1713   
 BV BND1      x1714   
 BV BND1      x1715   
 UP BND1      x1716     212
 BV BND1      x1717   
 BV BND1      x1718   
 BV BND1      x1719   
 BV BND1      x1720   
 BV BND1      x1721   
 BV BND1      x1722   
 BV BND1      x1723   
 BV BND1      x1724   
 UP BND1      x1725     212
 BV BND1      x1726   
 BV BND1      x1727   
 BV BND1      x1728   
 BV BND1      x1729   
 BV BND1      x1730   
 BV BND1      x1731   
 BV BND1      x1732   
 BV BND1      x1733   
 UP BND1      x1734     212
 BV BND1      x1735   
 BV BND1      x1736   
 BV BND1      x1737   
 BV BND1      x1738   
 BV BND1      x1739   
 BV BND1      x1740   
 BV BND1      x1741   
 BV BND1      x1742   
 UP BND1      x1743     212
 BV BND1      x1744   
 BV BND1      x1745   
 BV BND1      x1746   
 BV BND1      x1747   
 BV BND1      x1748   
 BV BND1      x1749   
 BV BND1      x1750   
 BV BND1      x1751   
 UP BND1      x1752     212
 BV BND1      x1753   
 BV BND1      x1754   
 BV BND1      x1755   
 BV BND1      x1756   
 BV BND1      x1757   
 BV BND1      x1758   
 BV BND1      x1759   
 BV BND1      x1760   
 UP BND1      x1761     212
 BV BND1      x1762   
 BV BND1      x1763   
 BV BND1      x1764   
 BV BND1      x1765   
 BV BND1      x1766   
 BV BND1      x1767   
 BV BND1      x1768   
 BV BND1      x1769   
 UP BND1      x1770     212
 BV BND1      x1771   
 BV BND1      x1772   
 BV BND1      x1773   
 BV BND1      x1774   
 BV BND1      x1775   
 BV BND1      x1776   
 BV BND1      x1777   
 BV BND1      x1778   
 UP BND1      x1779     212
 BV BND1      x1780   
 BV BND1      x1781   
 BV BND1      x1782   
 BV BND1      x1783   
 BV BND1      x1784   
 BV BND1      x1785   
 BV BND1      x1786   
 BV BND1      x1787   
 UP BND1      x1788     212
 BV BND1      x1789   
 BV BND1      x1790   
 BV BND1      x1791   
 BV BND1      x1792   
 BV BND1      x1793   
 BV BND1      x1794   
 BV BND1      x1795   
 BV BND1      x1796   
 UP BND1      x1797     212
 BV BND1      x1798   
 BV BND1      x1799   
 BV BND1      x1800   
 BV BND1      x1801   
 BV BND1      x1802   
 BV BND1      x1803   
 BV BND1      x1804   
 BV BND1      x1805   
 UP BND1      x1806     212
 BV BND1      x1807   
 BV BND1      x1808   
 BV BND1      x1809   
 BV BND1      x1810   
 BV BND1      x1811   
 BV BND1      x1812   
 BV BND1      x1813   
 BV BND1      x1814   
 UP BND1      x1815     212
 BV BND1      x1816   
 BV BND1      x1817   
 BV BND1      x1818   
 BV BND1      x1819   
 BV BND1      x1820   
 BV BND1      x1821   
 BV BND1      x1822   
 BV BND1      x1823   
 UP BND1      x1824     212
 BV BND1      x1825   
 BV BND1      x1826   
 BV BND1      x1827   
 BV BND1      x1828   
 BV BND1      x1829   
 BV BND1      x1830   
 BV BND1      x1831   
 BV BND1      x1832   
 UP BND1      x1833     212
 BV BND1      x1834   
 BV BND1      x1835   
 BV BND1      x1836   
 BV BND1      x1837   
 BV BND1      x1838   
 BV BND1      x1839   
 BV BND1      x1840   
 BV BND1      x1841   
 UP BND1      x1842     212
 BV BND1      x1843   
 BV BND1      x1844   
 BV BND1      x1845   
 BV BND1      x1846   
 BV BND1      x1847   
 BV BND1      x1848   
 BV BND1      x1849   
 BV BND1      x1850   
 UP BND1      x1851     212
 BV BND1      x1852   
 BV BND1      x1853   
 BV BND1      x1854   
 BV BND1      x1855   
 BV BND1      x1856   
 BV BND1      x1857   
 BV BND1      x1858   
 BV BND1      x1859   
 UP BND1      x1860     212
 BV BND1      x1861   
 BV BND1      x1862   
 BV BND1      x1863   
 BV BND1      x1864   
 BV BND1      x1865   
 BV BND1      x1866   
 BV BND1      x1867   
 BV BND1      x1868   
 UP BND1      x1869     212
 BV BND1      x1870   
 BV BND1      x1871   
 BV BND1      x1872   
 BV BND1      x1873   
 BV BND1      x1874   
 BV BND1      x1875   
 BV BND1      x1876   
 BV BND1      x1877   
 UP BND1      x1878     212
 BV BND1      x1879   
 BV BND1      x1880   
 BV BND1      x1881   
 BV BND1      x1882   
 BV BND1      x1883   
 BV BND1      x1884   
 BV BND1      x1885   
 BV BND1      x1886   
 UP BND1      x1887     212
 BV BND1      x1888   
 BV BND1      x1889   
 BV BND1      x1890   
 BV BND1      x1891   
 BV BND1      x1892   
 BV BND1      x1893   
 BV BND1      x1894   
 BV BND1      x1895   
 UP BND1      x1896     212
 BV BND1      x1897   
 BV BND1      x1898   
 BV BND1      x1899   
 BV BND1      x1900   
 BV BND1      x1901   
 BV BND1      x1902   
 BV BND1      x1903   
 BV BND1      x1904   
 UP BND1      x1905     212
 BV BND1      x1906   
 BV BND1      x1907   
 BV BND1      x1908   
 BV BND1      x1909   
 BV BND1      x1910   
 BV BND1      x1911   
 BV BND1      x1912   
 BV BND1      x1913   
 UP BND1      x1914     212
 BV BND1      x1915   
 BV BND1      x1916   
 BV BND1      x1917   
 BV BND1      x1918   
 BV BND1      x1919   
 BV BND1      x1920   
 BV BND1      x1921   
 BV BND1      x1922   
 UP BND1      x1923     212
 BV BND1      x1924   
 BV BND1      x1925   
 BV BND1      x1926   
 BV BND1      x1927   
 BV BND1      x1928   
 BV BND1      x1929   
 BV BND1      x1930   
 BV BND1      x1931   
 UP BND1      x1932     212
 BV BND1      x1933   
 BV BND1      x1934   
 BV BND1      x1935   
 BV BND1      x1936   
 BV BND1      x1937   
 BV BND1      x1938   
 BV BND1      x1939   
 BV BND1      x1940   
 UP BND1      x1941     212
 BV BND1      x1942   
 BV BND1      x1943   
 BV BND1      x1944   
 BV BND1      x1945   
 BV BND1      x1946   
 BV BND1      x1947   
 BV BND1      x1948   
 BV BND1      x1949   
 UP BND1      x1950     212
 BV BND1      x1951   
 BV BND1      x1952   
 BV BND1      x1953   
 BV BND1      x1954   
 BV BND1      x1955   
 BV BND1      x1956   
 BV BND1      x1957   
 BV BND1      x1958   
 UP BND1      x1959     212
 BV BND1      x1960   
 BV BND1      x1961   
 BV BND1      x1962   
 BV BND1      x1963   
 BV BND1      x1964   
 BV BND1      x1965   
 BV BND1      x1966   
 BV BND1      x1967   
 UP BND1      x1968     212
 BV BND1      x1969   
 BV BND1      x1970   
 BV BND1      x1971   
 BV BND1      x1972   
 BV BND1      x1973   
 BV BND1      x1974   
 BV BND1      x1975   
 BV BND1      x1976   
 UP BND1      x1977     212
 BV BND1      x1978   
 BV BND1      x1979   
 BV BND1      x1980   
 BV BND1      x1981   
 BV BND1      x1982   
 BV BND1      x1983   
 BV BND1      x1984   
 BV BND1      x1985   
 UP BND1      x1986     212
 BV BND1      x1987   
 BV BND1      x1988   
 BV BND1      x1989   
 BV BND1      x1990   
 BV BND1      x1991   
 BV BND1      x1992   
 BV BND1      x1993   
 BV BND1      x1994   
 UP BND1      x1995     212
 BV BND1      x1996   
 BV BND1      x1997   
 BV BND1      x1998   
 BV BND1      x1999   
 BV BND1      x2000   
 BV BND1      x2001   
 BV BND1      x2002   
 BV BND1      x2003   
 UP BND1      x2004     212
 BV BND1      x2005   
 BV BND1      x2006   
 BV BND1      x2007   
 BV BND1      x2008   
 BV BND1      x2009   
 BV BND1      x2010   
 BV BND1      x2011   
 BV BND1      x2012   
 UP BND1      x2013     212
 UP BND1      x1        46230
 UP BND1      x2        46230
 UP BND1      x3        46230
 UP BND1      x39       46230
 UP BND1      x102      46230
 UP BND1      x106      46230
 UP BND1      x142      46230
 UP BND1      x154      46230
 UP BND1      x184      46230
 UP BND1      x185      46230
 UP BND1      x186      46230
 UP BND1      x222      46230
 UP BND1      x285      46230
 UP BND1      x289      46230
 UP BND1      x325      46230
 UP BND1      x337      46230
 UP BND1      x4        46230
 UP BND1      x5        46230
 UP BND1      x6        46230
 UP BND1      x71       46230
 UP BND1      x87       46230
 UP BND1      x108      46230
 UP BND1      x136      46230
 UP BND1      x150      46230
 UP BND1      x167      46230
 UP BND1      x187      46230
 UP BND1      x188      46230
 UP BND1      x189      46230
 UP BND1      x254      46230
 UP BND1      x270      46230
 UP BND1      x291      46230
 UP BND1      x319      46230
 UP BND1      x333      46230
 UP BND1      x350      46230
 UP BND1      x7        46230
 UP BND1      x8        46230
 UP BND1      x9        46230
 UP BND1      x113      46230
 UP BND1      x130      46230
 UP BND1      x190      46230
 UP BND1      x191      46230
 UP BND1      x192      46230
 UP BND1      x296      46230
 UP BND1      x313      46230
 UP BND1      x57       46230
 UP BND1      x111      46230
 UP BND1      x124      46230
 UP BND1      x144      46230
 UP BND1      x240      46230
 UP BND1      x294      46230
 UP BND1      x307      46230
 UP BND1      x327      46230
 UP BND1      x61       46230
 UP BND1      x67       46230
 UP BND1      x112      46230
 UP BND1      x158      46230
 UP BND1      x244      46230
 UP BND1      x250      46230
 UP BND1      x295      46230
 UP BND1      x341      46230
 UP BND1      x40       46230
 UP BND1      x120      46230
 UP BND1      x137      46230
 UP BND1      x151      46230
 UP BND1      x164      46230
 UP BND1      x174      46230
 UP BND1      x177      46230
 UP BND1      x223      46230
 UP BND1      x303      46230
 UP BND1      x320      46230
 UP BND1      x334      46230
 UP BND1      x347      46230
 UP BND1      x357      46230
 UP BND1      x360      46230
 UP BND1      x10       46230
 UP BND1      x11       46230
 UP BND1      x12       46230
 UP BND1      x45       46230
 UP BND1      x49       46230
 UP BND1      x59       46230
 UP BND1      x73       46230
 UP BND1      x138      46230
 UP BND1      x148      46230
 UP BND1      x193      46230
 UP BND1      x194      46230
 UP BND1      x195      46230
 UP BND1      x228      46230
 UP BND1      x232      46230
 UP BND1      x242      46230
 UP BND1      x256      46230
 UP BND1      x321      46230
 UP BND1      x331      46230
 UP BND1      x13       46230
 UP BND1      x14       46230
 UP BND1      x15       46230
 UP BND1      x53       46230
 UP BND1      x147      46230
 UP BND1      x152      46230
 UP BND1      x166      46230
 UP BND1      x170      46230
 UP BND1      x183      46230
 UP BND1      x196      46230
 UP BND1      x197      46230
 UP BND1      x198      46230
 UP BND1      x236      46230
 UP BND1      x330      46230
 UP BND1      x335      46230
 UP BND1      x349      46230
 UP BND1      x353      46230
 UP BND1      x366      46230
 UP BND1      x16       46230
 UP BND1      x17       46230
 UP BND1      x18       46230
 UP BND1      x199      46230
 UP BND1      x200      46230
 UP BND1      x201      46230
 UP BND1      x65       46230
 UP BND1      x69       46230
 UP BND1      x131      46230
 UP BND1      x143      46230
 UP BND1      x248      46230
 UP BND1      x252      46230
 UP BND1      x314      46230
 UP BND1      x326      46230
 UP BND1      x107      46230
 UP BND1      x119      46230
 UP BND1      x172      46230
 UP BND1      x290      46230
 UP BND1      x302      46230
 UP BND1      x355      46230
 UP BND1      x41       46230
 UP BND1      x85       46230
 UP BND1      x103      46230
 UP BND1      x153      46230
 UP BND1      x168      46230
 UP BND1      x224      46230
 UP BND1      x268      46230
 UP BND1      x286      46230
 UP BND1      x336      46230
 UP BND1      x351      46230
 UP BND1      x19       46230
 UP BND1      x20       46230
 UP BND1      x21       46230
 UP BND1      x22       46230
 UP BND1      x42       46230
 UP BND1      x118      46230
 UP BND1      x155      46230
 UP BND1      x173      46230
 UP BND1      x181      46230
 UP BND1      x202      46230
 UP BND1      x203      46230
 UP BND1      x204      46230
 UP BND1      x205      46230
 UP BND1      x225      46230
 UP BND1      x301      46230
 UP BND1      x338      46230
 UP BND1      x356      46230
 UP BND1      x364      46230
 UP BND1      x23       46230
 UP BND1      x24       46230
 UP BND1      x25       46230
 UP BND1      x75       46230
 UP BND1      x91       46230
 UP BND1      x95       46230
 UP BND1      x99       46230
 UP BND1      x129      46230
 UP BND1      x157      46230
 UP BND1      x206      46230
 UP BND1      x207      46230
 UP BND1      x208      46230
 UP BND1      x258      46230
 UP BND1      x274      46230
 UP BND1      x278      46230
 UP BND1      x282      46230
 UP BND1      x312      46230
 UP BND1      x340      46230
 UP BND1      x26       46230
 UP BND1      x27       46230
 UP BND1      x83       46230
 UP BND1      x100      46230
 UP BND1      x128      46230
 UP BND1      x133      46230
 UP BND1      x171      46230
 UP BND1      x209      46230
 UP BND1      x210      46230
 UP BND1      x266      46230
 UP BND1      x283      46230
 UP BND1      x311      46230
 UP BND1      x316      46230
 UP BND1      x354      46230
 UP BND1      x28       46230
 UP BND1      x51       46230
 UP BND1      x115      46230
 UP BND1      x169      46230
 UP BND1      x211      46230
 UP BND1      x234      46230
 UP BND1      x298      46230
 UP BND1      x352      46230
 UP BND1      x89       46230
 UP BND1      x125      46230
 UP BND1      x140      46230
 UP BND1      x272      46230
 UP BND1      x308      46230
 UP BND1      x323      46230
 UP BND1      x29       46230
 UP BND1      x30       46230
 UP BND1      x31       46230
 UP BND1      x32       46230
 UP BND1      x43       46230
 UP BND1      x77       46230
 UP BND1      x81       46230
 UP BND1      x97       46230
 UP BND1      x175      46230
 UP BND1      x182      46230
 UP BND1      x212      46230
 UP BND1      x213      46230
 UP BND1      x214      46230
 UP BND1      x215      46230
 UP BND1      x226      46230
 UP BND1      x260      46230
 UP BND1      x264      46230
 UP BND1      x280      46230
 UP BND1      x358      46230
 UP BND1      x365      46230
 UP BND1      x33       46230
 UP BND1      x34       46230
 UP BND1      x35       46230
 UP BND1      x47       46230
 UP BND1      x63       46230
 UP BND1      x216      46230
 UP BND1      x217      46230
 UP BND1      x218      46230
 UP BND1      x230      46230
 UP BND1      x246      46230
 UP BND1      x36       46230
 UP BND1      x37       46230
 UP BND1      x55       46230
 UP BND1      x93       46230
 UP BND1      x117      46230
 UP BND1      x146      46230
 UP BND1      x219      46230
 UP BND1      x220      46230
 UP BND1      x238      46230
 UP BND1      x276      46230
 UP BND1      x300      46230
 UP BND1      x329      46230
 UP BND1      x38       46230
 UP BND1      x79       46230
 UP BND1      x221      46230
 UP BND1      x262      46230
 UP BND1      x98       46230
 UP BND1      x139      46230
 UP BND1      x281      46230
 UP BND1      x322      46230
 UP BND1      x44       46230
 UP BND1      x160      46230
 UP BND1      x227      46230
 UP BND1      x343      46230
 UP BND1      x46       46230
 UP BND1      x101      46230
 UP BND1      x114      46230
 UP BND1      x135      46230
 UP BND1      x229      46230
 UP BND1      x284      46230
 UP BND1      x297      46230
 UP BND1      x318      46230
 UP BND1      x48       46230
 UP BND1      x156      46230
 UP BND1      x231      46230
 UP BND1      x339      46230
 UP BND1      x50       46230
 UP BND1      x126      46230
 UP BND1      x233      46230
 UP BND1      x309      46230
 UP BND1      x52       46230
 UP BND1      x121      46230
 UP BND1      x161      46230
 UP BND1      x165      46230
 UP BND1      x235      46230
 UP BND1      x304      46230
 UP BND1      x344      46230
 UP BND1      x348      46230
 UP BND1      x54       46230
 UP BND1      x109      46230
 UP BND1      x116      46230
 UP BND1      x141      46230
 UP BND1      x176      46230
 UP BND1      x237      46230
 UP BND1      x292      46230
 UP BND1      x299      46230
 UP BND1      x324      46230
 UP BND1      x359      46230
 UP BND1      x56       46230
 UP BND1      x110      46230
 UP BND1      x132      46230
 UP BND1      x163      46230
 UP BND1      x239      46230
 UP BND1      x293      46230
 UP BND1      x315      46230
 UP BND1      x346      46230
 UP BND1      x58       46230
 UP BND1      x159      46230
 UP BND1      x241      46230
 UP BND1      x342      46230
 UP BND1      x60       46230
 UP BND1      x123      46230
 UP BND1      x162      46230
 UP BND1      x243      46230
 UP BND1      x306      46230
 UP BND1      x345      46230
 UP BND1      x62       46230
 UP BND1      x149      46230
 UP BND1      x245      46230
 UP BND1      x332      46230
 UP BND1      x64       46230
 UP BND1      x104      46230
 UP BND1      x247      46230
 UP BND1      x287      46230
 UP BND1      x66       46230
 UP BND1      x249      46230
 UP BND1      x68       46230
 UP BND1      x134      46230
 UP BND1      x251      46230
 UP BND1      x317      46230
 UP BND1      x70       46230
 UP BND1      x253      46230
 UP BND1      x72       46230
 UP BND1      x127      46230
 UP BND1      x180      46230
 UP BND1      x255      46230
 UP BND1      x310      46230
 UP BND1      x363      46230
 UP BND1      x74       46230
 UP BND1      x122      46230
 UP BND1      x145      46230
 UP BND1      x257      46230
 UP BND1      x305      46230
 UP BND1      x328      46230
 UP BND1      x76       46230
 UP BND1      x105      46230
 UP BND1      x259      46230
 UP BND1      x288      46230
 UP BND1      x78       46230
 UP BND1      x178      46230
 UP BND1      x261      46230
 UP BND1      x361      46230
 UP BND1      x80       46230
 UP BND1      x263      46230
 UP BND1      x82       46230
 UP BND1      x265      46230
 UP BND1      x84       46230
 UP BND1      x267      46230
 UP BND1      x86       46230
 UP BND1      x179      46230
 UP BND1      x269      46230
 UP BND1      x362      46230
 UP BND1      x88       46230
 UP BND1      x271      46230
 UP BND1      x90       46230
 UP BND1      x273      46230
 UP BND1      x92       46230
 UP BND1      x275      46230
 UP BND1      x94       46230
 UP BND1      x277      46230
 UP BND1      x96       46230
 UP BND1      x279      46230
ENDATA
