NAME beasleyC3_pre
ROWS
 N  OBJ
 E  CNS..002
 E  CNS..003
 E  CNS..005
 E  CNS..006
 E  CNS..009
 E  CNS..012
 E  CNS..013
 E  CNS..015
 E  CNS..016
 E  CNS..023
 E  CNS..024
 E  CNS..030
 E  CNS..031
 E  CNS..033
 E  CNS..036
 E  CNS..038
 E  CNS..040
 E  CNS..043
 E  CNS..048
 E  CNS..073
 E  CNS..077
 E  CNS..080
 E  CNS..081
 E  CNS..083
 E  CNS..084
 E  CNS..086
 E  CNS..090
 E  CNS..091
 E  CNS..098
 E  CNS..103
 E  CNS..106
 E  CNS..108
 E  CNS..116
 E  CNS..117
 E  CNS..118
 E  CNS..123
 E  CNS..129
 E  CNS..130
 E  CNS..132
 E  CNS..133
 E  CNS..135
 E  CNS..138
 E  CNS..141
 E  CNS..143
 E  CNS..146
 E  CNS..148
 E  CNS..150
 E  CNS..154
 E  CNS..156
 E  CNS..160
 E  CNS..163
 E  CNS..164
 E  CNS..167
 E  CNS..170
 E  CNS..174
 E  CNS..181
 E  CNS..184
 E  CNS..188
 E  CNS..189
 E  CNS..190
 E  CNS..193
 E  CNS..195
 E  CNS..197
 E  CNS..201
 E  CNS..203
 E  CNS..204
 E  CNS..210
 E  CNS..212
 E  CNS..214
 E  CNS..215
 E  CNS..216
 E  CNS..217
 E  CNS..220
 E  CNS..222
 E  CNS..224
 E  CNS..229
 E  CNS..231
 E  CNS..232
 E  CNS..234
 E  CNS..235
 E  CNS..238
 E  CNS..239
 E  CNS..240
 E  CNS..241
 E  CNS..246
 E  CNS..249
 E  CNS..254
 E  CNS..255
 E  CNS..256
 E  CNS..257
 E  CNS..264
 E  CNS..265
 E  CNS..271
 E  CNS..272
 E  CNS..273
 E  CNS..277
 E  CNS..278
 E  CNS..281
 E  CNS..284
 E  CNS..289
 E  CNS..290
 E  CNS..292
 E  CNS..298
 E  CNS..300
 E  CNS..305
 E  CNS..306
 E  CNS..308
 E  CNS..309
 E  CNS..311
 E  CNS..320
 E  CNS..326
 E  CNS..328
 E  CNS..335
 E  CNS..340
 E  CNS..341
 E  CNS..342
 E  CNS..345
 E  CNS..348
 E  CNS..350
 E  CNS..353
 E  CNS..354
 E  CNS..355
 E  CNS..357
 E  CNS..360
 E  CNS..362
 E  CNS..363
 E  CNS..364
 E  CNS..366
 E  CNS..367
 E  CNS..369
 E  CNS..371
 E  CNS..373
 E  CNS..376
 E  CNS..379
 E  CNS..381
 E  CNS..383
 E  CNS..384
 E  CNS..387
 E  CNS..388
 E  CNS..390
 E  CNS..392
 E  CNS..400
 E  CNS..403
 E  CNS..405
 E  CNS..406
 E  CNS..409
 E  CNS..410
 E  CNS..412
 E  CNS..414
 E  CNS..416
 E  CNS..417
 E  CNS..418
 E  CNS..420
 E  CNS..425
 E  CNS..434
 E  CNS..437
 E  CNS..438
 E  CNS..439
 E  CNS..447
 E  CNS..448
 E  CNS..454
 E  CNS..464
 E  CNS..465
 E  CNS..466
 E  CNS..470
 E  CNS..472
 E  CNS..473
 E  CNS..474
 E  CNS..478
 E  CNS..479
 E  CNS..480
 E  CNS..482
 E  CNS..484
 E  CNS..488
 E  CNS..489
 E  CNS..491
 E  CNS..492
 E  CNS..494
 E  CNS..496
 E  CNS..498
 L  UC..0001
 L  UC..0002
 L  UC..0003
 L  UC..0004
 L  UC..0005
 L  UC..0006
 L  UC..0007
 L  UC..0008
 L  UC..0009
 L  UC..0010
 L  UC..0011
 L  UC..0012
 L  UC..0013
 L  UC..0014
 L  UC..0015
 L  UC..0016
 L  UC..0017
 L  UC..0018
 L  UC..0019
 L  UC..0020
 L  UC..0021
 L  UC..0022
 L  UC..0025
 L  UC..0026
 L  UC..0029
 L  UC..0030
 L  UC..0031
 L  UC..0032
 L  UC..0035
 L  UC..0036
 L  UC..0037
 L  UC..0038
 L  UC..0039
 L  UC..0040
 L  UC..0041
 L  UC..0042
 L  UC..0045
 L  UC..0046
 L  UC..0047
 L  UC..0048
 L  UC..0049
 L  UC..0050
 L  UC..0051
 L  UC..0052
 L  UC..0053
 L  UC..0054
 L  UC..0055
 L  UC..0056
 L  UC..0057
 L  UC..0058
 L  UC..0059
 L  UC..0060
 L  UC..0061
 L  UC..0062
 L  UC..0063
 L  UC..0064
 L  UC..0065
 L  UC..0066
 L  UC..0067
 L  UC..0068
 L  UC..0069
 L  UC..0070
 L  UC..0071
 L  UC..0072
 L  UC..0073
 L  UC..0074
 L  UC..0075
 L  UC..0077
 L  UC..0078
 L  UC..0079
 L  UC..0080
 L  UC..0081
 L  UC..0082
 L  UC..0083
 L  UC..0084
 L  UC..0085
 L  UC..0086
 L  UC..0087
 L  UC..0088
 L  UC..0089
 L  UC..0090
 L  UC..0091
 L  UC..0092
 L  UC..0093
 L  UC..0094
 L  UC..0095
 L  UC..0097
 L  UC..0098
 L  UC..0099
 L  UC..0100
 L  UC..0103
 L  UC..0104
 L  UC..0105
 L  UC..0106
 L  UC..0109
 L  UC..0110
 L  UC..0111
 L  UC..0112
 L  UC..0113
 L  UC..0115
 L  UC..0116
 L  UC..0117
 L  UC..0118
 L  UC..0119
 L  UC..0120
 L  UC..0121
 L  UC..0122
 L  UC..0123
 L  UC..0124
 L  UC..0125
 L  UC..0126
 L  UC..0127
 L  UC..0128
 L  UC..0129
 L  UC..0130
 L  UC..0132
 L  UC..0133
 L  UC..0135
 L  UC..0137
 L  UC..0138
 L  UC..0139
 L  UC..0140
 L  UC..0143
 L  UC..0144
 L  UC..0145
 L  UC..0146
 L  UC..0147
 L  UC..0148
 L  UC..0149
 L  UC..0150
 L  UC..0151
 L  UC..0152
 L  UC..0156
 L  UC..0163
 L  UC..0170
 L  UC..0171
 L  UC..0172
 L  UC..0174
 L  UC..0175
 L  UC..0176
 L  UC..0179
 L  UC..0180
 L  UC..0181
 L  UC..0182
 L  UC..0185
 L  UC..0187
 L  UC..0191
 L  UC..0192
 L  UC..0193
 L  UC..0194
 L  UC..0195
 L  UC..0196
 L  UC..0197
 L  UC..0199
 L  UC..0200
 L  UC..0201
 L  UC..0202
 L  UC..0203
 L  UC..0204
 L  UC..0205
 L  UC..0206
 L  UC..0207
 L  UC..0208
 L  UC..0211
 L  UC..0212
 L  UC..0215
 L  UC..0217
 L  UC..0218
 L  UC..0221
 L  UC..0222
 L  UC..0223
 L  UC..0224
 L  UC..0225
 L  UC..0226
 L  UC..0227
 L  UC..0228
 L  UC..0231
 L  UC..0232
 L  UC..0233
 L  UC..0234
 L  UC..0237
 L  UC..0238
 L  UC..0243
 L  UC..0244
 L  UC..0245
 L  UC..0246
 L  UC..0248
 L  UC..0249
 L  UC..0250
 L  UC..0251
 L  UC..0252
 L  UC..0253
 L  UC..0254
 L  UC..0256
 L  UC..0257
 L  UC..0258
 L  UC..0260
 L  UC..0261
 L  UC..0262
 L  UC..0264
 L  UC..0267
 L  UC..0268
 L  UC..0269
 L  UC..0270
 L  UC..0271
 L  UC..0272
 L  UC..0274
 L  UC..0275
 L  UC..0276
 L  UC..0281
 L  UC..0282
 L  UC..0285
 L  UC..0289
 L  UC..0299
 L  UC..0300
 L  UC..0301
 L  UC..0302
 L  UC..0303
 L  UC..0306
 L  UC..0307
 L  UC..0308
 L  UC..0309
 L  UC..0310
 L  UC..0311
 L  UC..0312
 L  UC..0313
 L  UC..0314
 L  UC..0320
 L  UC..0321
 L  UC..0322
 L  UC..0327
 L  UC..0328
 L  UC..0335
 L  UC..0339
 L  UC..0340
 L  UC..0347
 L  UC..0348
 L  UC..0349
 L  UC..0350
 L  UC..0358
 L  UC..0359
 L  UC..0360
 L  UC..0361
 L  UC..0362
 L  UC..0365
 L  UC..0366
 L  UC..0367
 L  UC..0368
 L  UC..0369
 L  UC..0372
 L  UC..0373
 L  UC..0374
 L  UC..0379
 L  UC..0383
 L  UC..0384
 L  UC..0386
 L  UC..0393
 L  UC..0394
 L  UC..0395
 L  UC..0396
 L  UC..0398
 L  UC..0399
 L  UC..0400
 L  UC..0405
 L  UC..0406
 L  UC..0407
 L  UC..0408
 L  UC..0409
 L  UC..0410
 L  UC..0413
 L  UC..0419
 L  UC..0420
 L  UC..0421
 L  UC..0422
 L  UC..0424
 L  UC..0429
 L  UC..0433
 L  UC..0434
 L  UC..0437
 L  UC..0438
 L  UC..0441
 L  UC..0445
 L  UC..0446
 L  UC..0447
 L  UC..0448
 L  UC..0451
 L  UC..0452
 L  UC..0455
 L  UC..0456
 L  UC..0463
 L  UC..0464
 L  UC..0468
 L  UC..0470
 L  UC..0475
 L  UC..0476
 L  UC..0477
 L  UC..0478
 L  UC..0480
 L  UC..0483
 L  UC..0495
 L  UC..0496
 L  UC..0497
 L  UC..0498
 L  UC..0501
 L  UC..0503
 L  UC..0504
 L  UC..0507
 L  UC..0508
 L  UC..0512
 L  UC..0513
 L  UC..0514
 L  UC..0521
 L  UC..0522
 L  UC..0525
 L  UC..0526
 L  UC..0529
 L  UC..0530
 L  UC..0533
 L  UC..0534
 L  UC..0544
 L  UC..0547
 L  UC..0551
 L  UC..0552
 L  UC..0553
 L  UC..0563
 L  UC..0564
 L  UC..0565
 L  UC..0566
 L  UC..0570
 L  UC..0578
 L  UC..0579
 L  UC..0580
 L  UC..0586
 L  UC..0589
 L  UC..0590
 L  UC..0591
 L  UC..0595
 L  UC..0596
 L  UC..0597
 L  UC..0598
 L  UC..0603
 L  UC..0604
 L  UC..0609
 L  UC..0610
 L  UC..0631
 L  UC..0632
 L  UC..0633
 L  UC..0634
 L  UC..0643
 L  UC..0644
 L  UC..0649
 L  UC..0651
 L  UC..0652
 L  UC..0655
 L  UC..0656
 L  UC..0657
 L  UC..0658
 L  UC..0662
 L  UC..0669
 L  UC..0671
 L  UC..0674
 L  UC..0676
 L  UC..0679
 L  UC..0680
 L  UC..0681
 L  UC..0689
 L  UC..0690
 L  UC..0693
 L  UC..0694
 L  UC..0695
 L  UC..0696
 L  UC..0700
 L  UC..0715
 L  UC..0716
 L  UC..0717
 L  UC..0718
 L  UC..0719
 L  UC..0721
 L  UC..0722
 L  UC..0749
 L  UC..0750
 L  UC..0753
 L  UC..0754
 L  UC..0764
 L  UC..0783
 L  UC..0784
 L  UC..0785
 L  UC..0786
 L  UC..0788
 L  UC..0791
 L  UC..0792
 L  UC..0793
 L  UC..0794
 L  UC..0799
 L  UC..0803
 L  UC..0805
 L  UC..0806
 L  UC..0816
 L  UC..0823
 L  UC..0824
 L  UC..0829
 L  UC..0830
 L  UC..0837
 L  UC..0838
 L  UC..0841
 L  UC..0842
 L  UC..0850
 L  UC..0853
 L  UC..0854
 L  UC..0855
 L  UC..0856
 L  UC..0869
 L  UC..0870
 L  UC..0875
 L  UC..0876
 L  UC..0880
 L  UC..0883
 L  UC..0887
 L  UC..0888
 L  UC..0899
 L  UC..0900
 L  UC..0911
 L  UC..0913
 L  UC..0914
 L  UC..0916
 L  UC..0918
 L  UC..0920
 L  UC..0921
 L  UC..0922
 L  UC..0925
 L  UC..0926
 L  UC..0945
 L  UC..0946
 L  UC..0947
 L  UC..0948
 L  UC..0953
 L  UC..0962
 L  UC..0975
 L  UC..0980
 L  UC..0982
 L  UC..0985
 L  UC..0986
 L  UC..0987
 L  UC..0988
 L  UC..0992
 L  UC..0996
 L  UC..1001
 L  UC..1002
 L  UC..1005
 L  UC..1006
 L  UC..1008
 L  UC..1009
 L  UC..1011
 L  UC..1016
 L  UC..1017
 L  UC..1018
 L  UC..1021
 L  UC..1022
 L  UC..1025
 L  UC..1027
 L  UC..1033
 L  UC..1034
 L  UC..1035
 L  UC..1036
 L  UC..1037
 L  UC..1038
 L  UC..1041
 L  UC..1042
 L  UC..1043
 L  UC..1044
 L  UC..1045
 L  UC..1050
 L  UC..1051
 L  UC..1052
 L  UC..1054
 L  UC..1055
 L  UC..1056
 L  UC..1058
 L  UC..1059
 L  UC..1061
 L  UC..1062
 L  UC..1063
 L  UC..1064
 L  UC..1065
 L  UC..1066
 L  UC..1067
 L  UC..1068
 L  UC..1069
 L  UC..1070
 L  UC..1073
 L  UC..1074
 L  UC..1077
 L  UC..1079
 L  UC..1080
 L  UC..1081
 L  UC..1082
 L  UC..1085
 L  UC..1086
 L  UC..1087
 L  UC..1088
 L  UC..1089
 L  UC..1090
 L  UC..1091
 L  UC..1092
 L  UC..1093
 L  UC..1094
 L  UC..1095
 L  UC..1096
 L  UC..1098
 L  UC..1099
 L  UC..1100
 L  UC..1102
 L  UC..1103
 L  UC..1104
 L  UC..1106
 L  UC..1107
 L  UC..1108
 L  UC..1109
 L  UC..1110
 L  UC..1112
 L  UC..1113
 L  UC..1115
 L  UC..1116
 L  UC..1117
 L  UC..1118
 L  UC..1120
 L  UC..1121
 L  UC..1123
 L  UC..1124
 L  UC..1125
 L  UC..1126
 L  UC..1128
 L  UC..1129
 L  UC..1130
 L  UC..1135
 L  UC..1136
 L  UC..1137
 L  UC..1138
 L  UC..1139
 L  UC..1142
 L  UC..1143
 L  UC..1145
 L  UC..1147
 L  UC..1148
 L  UC..1153
 L  UC..1154
 L  UC..1155
 L  UC..1160
 L  UC..1163
 L  UC..1164
 L  UC..1169
 L  UC..1170
 L  UC..1171
 L  UC..1172
 L  UC..1173
 L  UC..1175
 L  UC..1176
 L  UC..1177
 L  UC..1178
 L  UC..1179
 L  UC..1181
 L  UC..1182
 L  UC..1183
 L  UC..1186
 L  UC..1187
 L  UC..1188
 L  UC..1189
 L  UC..1190
 L  UC..1191
 L  UC..1192
 L  UC..1193
 L  UC..1194
 L  UC..1196
 L  UC..1197
 L  UC..1198
 L  UC..1201
 L  UC..1202
 L  UC..1203
 L  UC..1204
 L  UC..1205
 L  UC..1206
 L  UC..1207
 L  UC..1208
 L  UC..1210
 L  UC..1212
 L  UC..1214
 L  UC..1215
 L  UC..1216
 L  UC..1217
 L  UC..1218
 L  UC..1221
 L  UC..1223
 L  UC..1224
 L  UC..1225
 L  UC..1227
 L  UC..1228
 L  UC..1233
 L  UC..1236
 L  UC..1238
 L  UC..1239
 L  UC..1240
 L  UC..1241
 L  UC..1242
 L  UC..1243
 L  UC..1245
 L  UC..1246
 L  UC..1247
 L  UC..1248
 L  UC..1249
 L  UC..1250
COLUMNS
    x...0001  CNS..255  1
    x...0001  CNS..498  -1
    x...0001  UC..0001  1
    x...0002  CNS..255  -1
    x...0002  CNS..498  1
    x...0002  UC..0002  1
    x...0003  CNS..264  -1
    x...0003  CNS..498  1
    x...0003  UC..0003  1
    x...0004  CNS..264  1
    x...0004  CNS..498  -1
    x...0004  UC..0004  1
    x...0005  CNS..381  -1
    x...0005  CNS..498  1
    x...0005  UC..0005  1
    x...0006  CNS..381  1
    x...0006  CNS..498  -1
    x...0006  UC..0006  1
    x...0007  CNS..193  1
    x...0007  CNS..264  -1
    x...0007  UC..0007  1
    x...0008  CNS..193  -1
    x...0008  CNS..264  1
    x...0008  UC..0008  1
    x...0009  CNS..255  1
    x...0009  CNS..278  -1
    x...0009  UC..0009  1
    x...0010  CNS..255  -1
    x...0010  CNS..278  1
    x...0010  UC..0010  1
    x...0011  CNS..264  -1
    x...0011  CNS..271  1
    x...0011  UC..0011  1
    x...0012  CNS..264  1
    x...0012  CNS..271  -1
    x...0012  UC..0012  1
    x...0013  CNS..271  1
    x...0013  CNS..465  -1
    x...0013  UC..0013  1
    x...0014  CNS..271  -1
    x...0014  CNS..465  1
    x...0014  UC..0014  1
    x...0015  CNS..278  -1
    x...0015  CNS..281  1
    x...0015  UC..0015  1
    x...0016  CNS..278  1
    x...0016  CNS..281  -1
    x...0016  UC..0016  1
    x...0017  CNS..305  1
    x...0017  CNS..465  -1
    x...0017  UC..0017  1
    x...0018  CNS..305  -1
    x...0018  CNS..465  1
    x...0018  UC..0018  1
    x...0019  CNS..281  -1
    x...0019  CNS..354  1
    x...0019  UC..0019  1
    x...0020  CNS..281  1
    x...0020  CNS..354  -1
    x...0020  UC..0020  1
    x...0021  CNS..465  -1
    x...0021  CNS..496  1
    x...0021  UC..0021  1
    x...0022  CNS..465  1
    x...0022  CNS..496  -1
    x...0022  UC..0022  1
    x...0025  CNS..465  -1
    x...0025  CNS..466  1
    x...0025  UC..0025  1
    x...0026  CNS..465  1
    x...0026  CNS..466  -1
    x...0026  UC..0026  1
    x...0028  UC..0132  1
    x...0028  CNS..265  -1
    x...0028  CNS..465  1
    x...0029  CNS..272  -1
    x...0029  CNS..381  1
    x...0029  UC..0029  1
    x...0030  CNS..272  1
    x...0030  CNS..381  -1
    x...0030  UC..0030  1
    x...0031  CNS..272  -1
    x...0031  CNS..418  1
    x...0031  UC..0031  1
    x...0032  CNS..272  1
    x...0032  CNS..418  -1
    x...0032  UC..0032  1
    x...0035  CNS..305  -1
    x...0035  CNS..492  1
    x...0035  UC..0035  1
    x...0036  CNS..305  1
    x...0036  CNS..492  -1
    x...0036  UC..0036  1
    x...0037  CNS..278  -1
    x...0037  CNS..340  1
    x...0037  UC..0037  1
    x...0038  CNS..278  1
    x...0038  CNS..340  -1
    x...0038  UC..0038  1
    x...0039  CNS..212  1
    x...0039  CNS..466  -1
    x...0039  UC..0039  1
    x...0040  CNS..212  -1
    x...0040  CNS..466  1
    x...0040  UC..0040  1
    x...0041  CNS..238  1
    x...0041  CNS..496  -1
    x...0041  UC..0041  1
    x...0042  CNS..238  -1
    x...0042  CNS..496  1
    x...0042  UC..0042  1
    x...0045  CNS..146  -1
    x...0045  CNS..340  1
    x...0045  UC..0045  1
    x...0046  CNS..146  1
    x...0046  CNS..340  -1
    x...0046  UC..0046  1
    x...0047  CNS..141  1
    x...0047  CNS..418  -1
    x...0047  UC..0047  1
    x...0048  CNS..141  -1
    x...0048  CNS..418  1
    x...0048  UC..0048  1
    x...0049  CNS..348  -1
    x...0049  CNS..466  1
    x...0049  UC..0049  1
    x...0050  CNS..348  1
    x...0050  CNS..466  -1
    x...0050  UC..0050  1
    x...0051  CNS..306  1
    x...0051  CNS..348  -1
    x...0051  UC..0051  1
    x...0052  CNS..306  -1
    x...0052  CNS..348  1
    x...0052  UC..0052  1
    x...0053  CNS..271  1
    x...0053  CNS..425  -1
    x...0053  UC..0053  1
    x...0054  CNS..271  -1
    x...0054  CNS..425  1
    x...0054  UC..0054  1
    x...0055  CNS..156  -1
    x...0055  CNS..425  1
    x...0055  UC..0055  1
    x...0056  CNS..156  1
    x...0056  CNS..425  -1
    x...0056  UC..0056  1
    x...0057  CNS..272  -1
    x...0057  CNS..273  1
    x...0057  UC..0057  1
    x...0058  CNS..272  1
    x...0058  CNS..273  -1
    x...0058  UC..0058  1
    x...0059  CNS..366  -1
    x...0059  CNS..492  1
    x...0059  UC..0059  1
    x...0060  CNS..366  1
    x...0060  CNS..492  -1
    x...0060  UC..0060  1
    x...0061  CNS..212  -1
    x...0061  CNS..222  1
    x...0061  UC..0061  1
    x...0062  CNS..212  1
    x...0062  CNS..222  -1
    x...0062  UC..0062  1
    x...0063  CNS..090  -1
    x...0063  CNS..496  1
    x...0063  UC..0063  1
    x...0064  CNS..090  1
    x...0064  CNS..496  -1
    x...0064  UC..0064  1
    x...0065  CNS..232  -1
    x...0065  CNS..465  1
    x...0065  UC..0065  1
    x...0066  CNS..232  1
    x...0066  CNS..465  -1
    x...0066  UC..0066  1
    x...0067  CNS..091  -1
    x...0067  CNS..232  1
    x...0067  UC..0067  1
    x...0068  CNS..091  1
    x...0068  CNS..232  -1
    x...0068  UC..0068  1
    x...0069  CNS..091  -1
    x...0069  CNS..163  1
    x...0069  UC..0069  1
    x...0070  CNS..091  1
    x...0070  CNS..163  -1
    x...0070  UC..0070  1
    x...0071  CNS..224  -1
    x...0071  CNS..255  1
    x...0071  UC..0071  1
    x...0072  CNS..224  1
    x...0072  CNS..255  -1
    x...0072  UC..0072  1
    x...0073  CNS..491  1
    x...0073  CNS..498  -1
    x...0073  UC..0073  1
    x...0074  CNS..491  -1
    x...0074  CNS..498  1
    x...0074  UC..0074  1
    x...0075  CNS..473  -1
    x...0075  CNS..305  1
    x...0075  UC..0075  1
    x...0077  CNS..416  -1
    x...0077  CNS..418  1
    x...0077  UC..0077  1
    x...0078  CNS..416  1
    x...0078  CNS..418  -1
    x...0078  UC..0078  1
    x...0079  CNS..403  -1
    x...0079  CNS..418  1
    x...0079  UC..0079  1
    x...0080  CNS..403  1
    x...0080  CNS..418  -1
    x...0080  UC..0080  1
    x...0081  CNS..023  -1
    x...0081  CNS..498  1
    x...0081  UC..0081  1
    x...0082  CNS..023  1
    x...0082  CNS..498  -1
    x...0082  UC..0082  1
    x...0083  CNS..222  1
    x...0083  CNS..387  -1
    x...0083  UC..0083  1
    x...0084  CNS..222  -1
    x...0084  CNS..387  1
    x...0084  UC..0084  1
    x...0085  CNS..108  1
    x...0085  CNS..306  -1
    x...0085  UC..0085  1
    x...0086  CNS..108  -1
    x...0086  CNS..306  1
    x...0086  UC..0086  1
    x...0087  CNS..201  -1
    x...0087  CNS..496  1
    x...0087  UC..0087  1
    x...0088  CNS..201  1
    x...0088  CNS..496  -1
    x...0088  UC..0088  1
    x...0089  CNS..306  -1
    x...0089  CNS..376  1
    x...0089  UC..0089  1
    x...0090  CNS..306  1
    x...0090  CNS..376  -1
    x...0090  UC..0090  1
    x...0091  CNS..489  -1
    x...0091  CNS..491  1
    x...0091  UC..0091  1
    x...0092  CNS..489  1
    x...0092  CNS..491  -1
    x...0092  UC..0092  1
    x...0093  CNS..249  -1
    x...0093  CNS..496  1
    x...0093  UC..0093  1
    x...0094  CNS..249  1
    x...0094  CNS..496  -1
    x...0094  UC..0094  1
    x...0096  UC..0256  1
    x...0096  CNS..488  -1
    x...0096  CNS..272  1
    x...0097  CNS..117  1
    x...0097  CNS..212  -1
    x...0097  UC..0097  1
    x...0098  CNS..117  -1
    x...0098  CNS..212  1
    x...0098  UC..0098  1
    x...0099  CNS..181  1
    x...0099  CNS..381  -1
    x...0099  UC..0099  1
    x...0100  CNS..181  -1
    x...0100  CNS..381  1
    x...0100  UC..0100  1
    x...0103  CNS..255  -1
    x...0103  CNS..482  1
    x...0103  UC..0103  1
    x...0104  CNS..255  1
    x...0104  CNS..482  -1
    x...0104  UC..0104  1
    x...0105  CNS..117  1
    x...0105  CNS..203  -1
    x...0105  UC..0105  1
    x...0106  CNS..117  -1
    x...0106  CNS..203  1
    x...0106  UC..0106  1
    x...0109  CNS..366  -1
    x...0109  CNS..447  1
    x...0109  UC..0109  1
    x...0110  CNS..366  1
    x...0110  CNS..447  -1
    x...0110  UC..0110  1
    x...0111  CNS..164  1
    x...0111  CNS..387  -1
    x...0111  UC..0111  1
    x...0112  CNS..164  -1
    x...0112  CNS..387  1
    x...0112  UC..0112  1
    x...0113  CNS..305  -1
    x...0113  CNS..473  1
    x...0113  UC..0113  1
    x...0115  CNS..238  1
    x...0115  CNS..355  -1
    x...0115  UC..0115  1
    x...0116  CNS..238  -1
    x...0116  CNS..355  1
    x...0116  UC..0116  1
    x...0117  CNS..003  -1
    x...0117  CNS..348  1
    x...0117  UC..0117  1
    x...0118  CNS..003  1
    x...0118  CNS..348  -1
    x...0118  UC..0118  1
    x...0119  CNS..013  -1
    x...0119  CNS..141  1
    x...0119  UC..0119  1
    x...0120  CNS..013  1
    x...0120  CNS..141  -1
    x...0120  UC..0120  1
    x...0121  CNS..048  -1
    x...0121  CNS..473  1
    x...0121  UC..0121  1
    x...0122  CNS..048  1
    x...0122  CNS..473  -1
    x...0122  UC..0122  1
    x...0123  CNS..181  1
    x...0123  CNS..239  -1
    x...0123  UC..0123  1
    x...0124  CNS..181  -1
    x...0124  CNS..239  1
    x...0124  UC..0124  1
    x...0125  CNS..239  1
    x...0125  CNS..379  -1
    x...0125  UC..0125  1
    x...0126  CNS..239  -1
    x...0126  CNS..379  1
    x...0126  UC..0126  1
    x...0127  CNS..234  1
    x...0127  CNS..416  -1
    x...0127  UC..0127  1
    x...0128  CNS..234  -1
    x...0128  CNS..416  1
    x...0128  UC..0128  1
    x...0129  CNS..086  1
    x...0129  CNS..466  -1
    x...0129  UC..0129  1
    x...0130  CNS..086  -1
    x...0130  CNS..466  1
    x...0130  UC..0130  1
    x...0133  CNS..143  -1
    x...0133  CNS..273  1
    x...0133  UC..0133  1
    x...0135  CNS..480  -1
    x...0135  CNS..447  1
    x...0135  UC..0135  1
    x...0137  CNS..006  -1
    x...0137  CNS..156  1
    x...0137  UC..0137  1
    x...0138  CNS..006  1
    x...0138  CNS..156  -1
    x...0138  UC..0138  1
    x...0139  CNS..012  1
    x...0139  CNS..023  -1
    x...0139  UC..0139  1
    x...0140  CNS..012  -1
    x...0140  CNS..023  1
    x...0140  UC..0140  1
    x...0143  CNS..222  -1
    x...0143  CNS..350  1
    x...0143  UC..0143  1
    x...0144  CNS..222  1
    x...0144  CNS..350  -1
    x...0144  UC..0144  1
    x...0145  CNS..376  -1
    x...0145  CNS..478  1
    x...0145  UC..0145  1
    x...0146  CNS..376  1
    x...0146  CNS..478  -1
    x...0146  UC..0146  1
    x...0147  CNS..203  1
    x...0147  CNS..388  -1
    x...0147  UC..0147  1
    x...0148  CNS..203  -1
    x...0148  CNS..388  1
    x...0148  UC..0148  1
    x...0149  CNS..043  1
    x...0149  CNS..478  -1
    x...0149  UC..0149  1
    x...0150  CNS..043  -1
    x...0150  CNS..478  1
    x...0150  UC..0150  1
    x...0151  CNS..133  1
    x...0151  CNS..156  -1
    x...0151  UC..0151  1
    x...0152  CNS..133  -1
    x...0152  CNS..156  1
    x...0152  UC..0152  1
    x...0156  CNS..190  -1
    x...0156  CNS..496  1
    x...0156  UC..0156  1
    x...0164  UC..1238  1
    x...0164  CNS..160  -1
    x...0164  CNS..492  1
    x...0170  CNS..292  -1
    x...0170  CNS..238  1
    x...0170  UC..0170  1
    x...0171  CNS..132  1
    x...0171  CNS..281  -1
    x...0171  UC..0171  1
    x...0172  CNS..132  -1
    x...0172  CNS..281  1
    x...0172  UC..0172  1
    x...0173  UC..0197  1
    x...0173  CNS..353  -1
    x...0173  CNS..234  1
    x...0175  CNS..129  1
    x...0175  CNS..376  -1
    x...0175  UC..0175  1
    x...0176  CNS..129  -1
    x...0176  CNS..376  1
    x...0176  UC..0176  1
    x...0179  CNS..340  1
    x...0179  CNS..373  -1
    x...0179  UC..0179  1
    x...0180  CNS..340  -1
    x...0180  CNS..373  1
    x...0180  UC..0180  1
    x...0181  CNS..006  1
    x...0181  CNS..320  -1
    x...0181  UC..0181  1
    x...0182  CNS..006  -1
    x...0182  CNS..320  1
    x...0182  UC..0182  1
    x...0185  CNS..406  -1
    x...0185  CNS..478  1
    x...0185  UC..0185  1
    x...0187  CNS..154  -1
    x...0187  CNS..212  1
    x...0187  UC..0187  1
    x...0191  CNS..003  -1
    x...0191  CNS..496  1
    x...0191  UC..0191  1
    x...0193  CNS..364  1
    x...0193  CNS..425  -1
    x...0193  UC..0193  1
    x...0194  CNS..364  -1
    x...0194  CNS..425  1
    x...0194  UC..0194  1
    x...0195  CNS..184  1
    x...0195  CNS..234  -1
    x...0195  UC..0195  1
    x...0196  CNS..184  -1
    x...0196  CNS..234  1
    x...0196  UC..0196  1
    x...0199  CNS..117  1
    x...0199  CNS..390  -1
    x...0199  UC..0199  1
    x...0200  CNS..117  -1
    x...0200  CNS..390  1
    x...0200  UC..0200  1
    x...0201  CNS..005  1
    x...0201  CNS..388  -1
    x...0201  UC..0201  1
    x...0202  CNS..005  -1
    x...0202  CNS..388  1
    x...0202  UC..0202  1
    x...0203  CNS..043  -1
    x...0203  CNS..420  1
    x...0203  UC..0203  1
    x...0204  CNS..043  1
    x...0204  CNS..420  -1
    x...0204  UC..0204  1
    x...0205  CNS..038  1
    x...0205  CNS..163  -1
    x...0205  UC..0205  1
    x...0206  CNS..038  -1
    x...0206  CNS..163  1
    x...0206  UC..0206  1
    x...0207  CNS..181  -1
    x...0207  CNS..241  1
    x...0207  UC..0207  1
    x...0208  CNS..181  1
    x...0208  CNS..241  -1
    x...0208  UC..0208  1
    x...0211  CNS..195  1
    x...0211  CNS..222  -1
    x...0211  UC..0211  1
    x...0212  CNS..195  -1
    x...0212  CNS..222  1
    x...0212  UC..0212  1
    x...0215  CNS..417  -1
    x...0215  CNS..091  1
    x...0215  UC..0215  1
    x...0217  CNS..353  1
    x...0217  CNS..447  -1
    x...0217  UC..0217  1
    x...0218  CNS..353  -1
    x...0218  CNS..447  1
    x...0218  UC..0218  1
    x...0221  CNS..167  -1
    x...0221  CNS..353  1
    x...0221  UC..0221  1
    x...0222  CNS..167  1
    x...0222  CNS..353  -1
    x...0222  UC..0222  1
    x...0223  CNS..012  -1
    x...0223  CNS..479  1
    x...0223  UC..0223  1
    x...0224  CNS..012  1
    x...0224  CNS..479  -1
    x...0224  UC..0224  1
    x...0225  CNS..038  1
    x...0225  CNS..472  -1
    x...0225  UC..0225  1
    x...0226  CNS..038  -1
    x...0226  CNS..472  1
    x...0226  UC..0226  1
    x...0227  CNS..005  -1
    x...0227  CNS..189  1
    x...0227  UC..0227  1
    x...0228  CNS..005  1
    x...0228  CNS..189  -1
    x...0228  UC..0228  1
    x...0231  CNS..116  1
    x...0231  CNS..133  -1
    x...0231  UC..0231  1
    x...0232  CNS..116  -1
    x...0232  CNS..133  1
    x...0232  UC..0232  1
    x...0233  CNS..031  1
    x...0233  CNS..086  -1
    x...0233  UC..0233  1
    x...0234  CNS..031  -1
    x...0234  CNS..086  1
    x...0234  UC..0234  1
    x...0237  CNS..203  1
    x...0237  CNS..308  -1
    x...0237  UC..0237  1
    x...0238  CNS..203  -1
    x...0238  CNS..308  1
    x...0238  UC..0238  1
    x...0243  CNS..163  -1
    x...0243  CNS..464  1
    x...0243  UC..0243  1
    x...0244  CNS..163  1
    x...0244  CNS..464  -1
    x...0244  UC..0244  1
    x...0245  CNS..335  -1
    x...0245  CNS..350  1
    x...0245  UC..0245  1
    x...0246  CNS..335  1
    x...0246  CNS..350  -1
    x...0246  UC..0246  1
    x...0247  UC..1139  1
    x...0247  CNS..354  -1
    x...0247  CNS..425  1
    x...0249  CNS..289  1
    x...0249  CNS..366  -1
    x...0249  UC..0249  1
    x...0250  CNS..289  -1
    x...0250  CNS..366  1
    x...0250  UC..0250  1
    x...0251  CNS..249  1
    x...0251  CNS..369  -1
    x...0251  UC..0251  1
    x...0252  CNS..249  -1
    x...0252  CNS..369  1
    x...0252  UC..0252  1
    x...0253  CNS..357  -1
    x...0253  CNS..489  1
    x...0253  UC..0253  1
    x...0255  UC..0095  1
    x...0255  CNS..272  -1
    x...0255  CNS..488  1
    x...0257  CNS..003  1
    x...0257  CNS..277  -1
    x...0257  UC..0257  1
    x...0258  CNS..003  -1
    x...0258  CNS..277  1
    x...0258  UC..0258  1
    x...0261  CNS..024  1
    x...0261  CNS..366  -1
    x...0261  UC..0261  1
    x...0262  CNS..024  -1
    x...0262  CNS..366  1
    x...0262  UC..0262  1
    x...0264  CNS..465  -1
    x...0264  CNS..129  1
    x...0264  UC..0264  1
    x...0267  CNS..163  1
    x...0267  CNS..474  -1
    x...0267  UC..0267  1
    x...0268  CNS..163  -1
    x...0268  CNS..474  1
    x...0268  UC..0268  1
    x...0269  CNS..326  1
    x...0269  CNS..473  -1
    x...0269  UC..0269  1
    x...0270  CNS..326  -1
    x...0270  CNS..473  1
    x...0270  UC..0270  1
    x...0271  CNS..143  -1
    x...0271  CNS..369  1
    x...0271  UC..0271  1
    x...0273  UC..0700  1
    x...0273  CNS..030  -1
    x...0273  CNS..272  1
    x...0276  CNS..188  -1
    x...0276  CNS..132  1
    x...0276  UC..0276  1
    x...0278  CNS..425  -1
    x...0278  UC..1054  1
    x...0278  CNS..379  1
    x...0281  CNS..420  1
    x...0281  CNS..439  -1
    x...0281  UC..0281  1
    x...0282  CNS..420  -1
    x...0282  CNS..439  1
    x...0282  UC..0282  1
    x...0283  UC..0275  1
    x...0283  CNS..132  -1
    x...0283  CNS..188  1
    x...0286  UC..1183  1
    x...0286  CNS..434  -1
    x...0286  CNS..195  1
    x...0287  UC..0254  1
    x...0287  CNS..489  -1
    x...0287  CNS..357  1
    x...0289  CNS..148  -1
    x...0289  CNS..048  1
    x...0289  UC..0289  1
    x...0295  CNS..447  -1
    x...0295  UC..0260  1
    x...0295  CNS..480  1
    x...0298  UC..1214  1
    x...0298  CNS..341  -1
    x...0298  CNS..195  1
    x...0299  CNS..403  1
    x...0299  CNS..438  -1
    x...0299  UC..0299  1
    x...0300  CNS..403  -1
    x...0300  CNS..438  1
    x...0300  UC..0300  1
    x...0301  CNS..024  -1
    x...0301  CNS..098  1
    x...0301  UC..0301  1
    x...0302  CNS..024  1
    x...0302  CNS..098  -1
    x...0302  UC..0302  1
    x...0303  CNS..210  -1
    x...0303  CNS..212  1
    x...0303  UC..0303  1
    x...0306  CNS..278  -1
    x...0306  CNS..090  1
    x...0306  UC..0306  1
    x...0307  CNS..048  1
    x...0307  CNS..383  -1
    x...0307  UC..0307  1
    x...0308  CNS..048  -1
    x...0308  CNS..383  1
    x...0308  UC..0308  1
    x...0309  CNS..277  1
    x...0309  CNS..434  -1
    x...0309  UC..0309  1
    x...0310  CNS..277  -1
    x...0310  CNS..434  1
    x...0310  UC..0310  1
    x...0311  CNS..086  1
    x...0311  CNS..216  -1
    x...0311  UC..0311  1
    x...0312  CNS..086  -1
    x...0312  CNS..216  1
    x...0312  UC..0312  1
    x...0313  CNS..167  -1
    x...0313  CNS..246  1
    x...0313  UC..0313  1
    x...0314  CNS..167  1
    x...0314  CNS..246  -1
    x...0314  UC..0314  1
    x...0316  UC..1045  1
    x...0316  CNS..390  -1
    x...0316  CNS..098  1
    x...0320  CNS..454  -1
    x...0320  CNS..278  1
    x...0320  UC..0320  1
    x...0321  CNS..348  -1
    x...0321  CNS..405  1
    x...0321  UC..0321  1
    x...0322  CNS..348  1
    x...0322  CNS..405  -1
    x...0322  UC..0322  1
    x...0327  CNS..016  -1
    x...0327  CNS..473  1
    x...0327  UC..0327  1
    x...0328  CNS..016  1
    x...0328  CNS..473  -1
    x...0328  UC..0328  1
    x...0336  UC..1009  1
    x...0336  CNS..400  -1
    x...0336  CNS..364  1
    x...0337  UC..1056  1
    x...0337  CNS..273  -1
    x...0337  CNS..272  1
    x...0339  CNS..013  1
    x...0339  CNS..154  -1
    x...0339  UC..0339  1
    x...0340  CNS..013  -1
    x...0340  CNS..154  1
    x...0340  UC..0340  1
    x...0347  CNS..135  -1
    x...0347  CNS..108  1
    x...0347  UC..0347  1
    x...0349  CNS..083  -1
    x...0349  CNS..350  1
    x...0349  UC..0349  1
    x...0350  CNS..083  1
    x...0350  CNS..350  -1
    x...0350  UC..0350  1
    x...0357  UC..0386  1
    x...0357  CNS..290  -1
    x...0357  CNS..238  1
    x...0359  CNS..090  -1
    x...0359  CNS..414  1
    x...0359  UC..0359  1
    x...0360  CNS..090  1
    x...0360  CNS..414  -1
    x...0360  UC..0360  1
    x...0361  CNS..170  1
    x...0361  CNS..272  -1
    x...0361  UC..0361  1
    x...0362  CNS..170  -1
    x...0362  CNS..272  1
    x...0362  UC..0362  1
    x...0365  CNS..383  1
    x...0365  CNS..437  -1
    x...0365  UC..0365  1
    x...0366  CNS..383  -1
    x...0366  CNS..437  1
    x...0366  UC..0366  1
    x...0367  CNS..367  1
    x...0367  CNS..478  -1
    x...0367  UC..0367  1
    x...0368  CNS..367  -1
    x...0368  CNS..478  1
    x...0368  UC..0368  1
    x...0370  UC..0470  1
    x...0370  CNS..170  -1
    x...0370  CNS..272  1
    x...0371  CNS..320  -1
    x...0371  UC..1050  1
    x...0371  CNS..387  1
    x...0373  CNS..103  1
    x...0373  CNS..479  -1
    x...0373  UC..0373  1
    x...0374  CNS..103  -1
    x...0374  CNS..479  1
    x...0374  UC..0374  1
    x...0377  UC..1178  1
    x...0377  CNS..040  -1
    x...0377  CNS..335  1
    x...0380  CNS..015  -1
    x...0380  UC..1121  1
    x...0380  CNS..425  1
    x...0384  CNS..257  -1
    x...0384  CNS..163  1
    x...0384  UC..0384  1
    x...0385  UC..0358  1
    x...0385  CNS..238  -1
    x...0385  CNS..290  1
    x...0388  UC..1201  1
    x...0388  CNS..474  -1
    x...0388  CNS..414  1
    x...0393  CNS..363  -1
    x...0393  CNS..439  1
    x...0393  UC..0393  1
    x...0394  CNS..363  1
    x...0394  CNS..439  -1
    x...0394  UC..0394  1
    x...0395  CNS..023  -1
    x...0395  CNS..284  1
    x...0395  UC..0395  1
    x...0396  CNS..023  1
    x...0396  CNS..284  -1
    x...0396  UC..0396  1
    x...0397  UC..1155  1
    x...0397  CNS..300  -1
    x...0397  CNS..031  1
    x...0400  CNS..009  -1
    x...0400  CNS..116  1
    x...0400  UC..0400  1
    x...0405  CNS..290  -1
    x...0405  CNS..328  1
    x...0405  UC..0405  1
    x...0406  CNS..290  1
    x...0406  CNS..328  -1
    x...0406  UC..0406  1
    x...0407  CNS..254  1
    x...0407  CNS..388  -1
    x...0407  UC..0407  1
    x...0408  CNS..254  -1
    x...0408  CNS..388  1
    x...0408  UC..0408  1
    x...0409  CNS..217  -1
    x...0409  CNS..357  1
    x...0409  UC..0409  1
    x...0413  CNS..366  -1
    x...0413  CNS..188  1
    x...0413  UC..0413  1
    x...0417  CNS..254  -1
    x...0417  UC..1225  1
    x...0417  CNS..390  1
    x...0419  CNS..141  -1
    x...0419  CNS..341  1
    x...0419  UC..0419  1
    x...0420  CNS..141  1
    x...0420  CNS..341  -1
    x...0420  UC..0420  1
    x...0421  CNS..009  1
    x...0421  CNS..016  -1
    x...0421  UC..0421  1
    x...0422  CNS..009  -1
    x...0422  CNS..016  1
    x...0422  UC..0422  1
    x...0423  UC..1059  1
    x...0423  CNS..231  -1
    x...0423  CNS..116  1
    x...0429  CNS..342  -1
    x...0429  CNS..447  1
    x...0429  UC..0429  1
    x...0433  CNS..292  -1
    x...0433  CNS..464  1
    x...0433  UC..0433  1
    x...0434  CNS..292  1
    x...0434  CNS..464  -1
    x...0434  UC..0434  1
    x...0437  CNS..081  -1
    x...0437  CNS..103  1
    x...0437  UC..0437  1
    x...0438  CNS..081  1
    x...0438  CNS..103  -1
    x...0438  UC..0438  1
    x...0441  CNS..298  -1
    x...0441  CNS..167  1
    x...0441  UC..0441  1
    x...0445  CNS..392  1
    x...0445  CNS..416  -1
    x...0445  UC..0445  1
    x...0446  CNS..392  -1
    x...0446  CNS..416  1
    x...0446  UC..0446  1
    x...0447  CNS..255  -1
    x...0447  CNS..342  1
    x...0447  UC..0447  1
    x...0448  CNS..255  1
    x...0448  CNS..342  -1
    x...0448  UC..0448  1
    x...0451  CNS..036  -1
    x...0451  CNS..418  1
    x...0451  UC..0451  1
    x...0452  CNS..036  1
    x...0452  CNS..418  -1
    x...0452  UC..0452  1
    x...0455  CNS..002  -1
    x...0455  CNS..438  1
    x...0455  UC..0455  1
    x...0457  UC..0544  1
    x...0457  CNS..130  -1
    x...0457  CNS..357  1
    x...0461  UC..0512  1
    x...0461  CNS..488  -1
    x...0461  CNS..348  1
    x...0463  CNS..073  -1
    x...0463  CNS..479  1
    x...0463  UC..0463  1
    x...0464  CNS..073  1
    x...0464  CNS..479  -1
    x...0464  UC..0464  1
    x...0469  CNS..272  -1
    x...0469  UC..0369  1
    x...0469  CNS..170  1
    x...0475  CNS..181  1
    x...0475  CNS..311  -1
    x...0475  UC..0475  1
    x...0476  CNS..181  -1
    x...0476  CNS..311  1
    x...0476  UC..0476  1
    x...0477  CNS..118  -1
    x...0477  CNS..326  1
    x...0477  UC..0477  1
    x...0478  CNS..118  1
    x...0478  CNS..326  -1
    x...0478  UC..0478  1
    x...0479  UC..0788  1
    x...0479  CNS..256  -1
    x...0479  CNS..193  1
    x...0483  CNS..164  -1
    x...0483  CNS..024  1
    x...0483  UC..0483  1
    x...0485  CNS..348  -1
    x...0485  UC..0816  1
    x...0485  CNS..170  1
    x...0495  CNS..033  -1
    x...0495  CNS..188  1
    x...0495  UC..0495  1
    x...0497  CNS..090  1
    x...0497  CNS..215  -1
    x...0497  UC..0497  1
    x...0498  CNS..090  -1
    x...0498  CNS..215  1
    x...0498  UC..0498  1
    x...0502  UC..0880  1
    x...0502  CNS..273  -1
    x...0502  CNS..234  1
    x...0503  CNS..489  1
    x...0503  CNS..494  -1
    x...0503  UC..0503  1
    x...0504  CNS..489  -1
    x...0504  CNS..494  1
    x...0504  UC..0504  1
    x...0507  CNS..024  1
    x...0507  CNS..138  -1
    x...0507  UC..0507  1
    x...0508  CNS..024  -1
    x...0508  CNS..138  1
    x...0508  UC..0508  1
    x...0513  CNS..123  1
    x...0513  CNS..392  -1
    x...0513  UC..0513  1
    x...0514  CNS..123  -1
    x...0514  CNS..392  1
    x...0514  UC..0514  1
    x...0521  CNS..342  -1
    x...0521  CNS..409  1
    x...0521  UC..0521  1
    x...0522  CNS..342  1
    x...0522  CNS..409  -1
    x...0522  UC..0522  1
    x...0525  CNS..077  1
    x...0525  CNS..239  -1
    x...0525  UC..0525  1
    x...0526  CNS..077  -1
    x...0526  CNS..239  1
    x...0526  UC..0526  1
    x...0528  UC..1022  1
    x...0528  CNS..103  -1
    x...0528  CNS..284  1
    x...0529  CNS..392  -1
    x...0529  CNS..073  1
    x...0529  UC..0529  1
    x...0533  CNS..412  1
    x...0533  CNS..482  -1
    x...0533  UC..0533  1
    x...0534  CNS..412  -1
    x...0534  CNS..482  1
    x...0534  UC..0534  1
    x...0547  CNS..048  -1
    x...0547  CNS..148  1
    x...0547  UC..0547  1
    x...0551  CNS..106  -1
    x...0551  CNS..167  1
    x...0551  UC..0551  1
    x...0552  CNS..106  1
    x...0552  CNS..167  -1
    x...0552  UC..0552  1
    x...0553  CNS..371  -1
    x...0553  CNS..434  1
    x...0553  UC..0553  1
    x...0563  CNS..235  1
    x...0563  CNS..355  -1
    x...0563  UC..0563  1
    x...0564  CNS..235  -1
    x...0564  CNS..355  1
    x...0564  UC..0564  1
    x...0565  CNS..197  -1
    x...0565  CNS..420  1
    x...0565  UC..0565  1
    x...0566  CNS..197  1
    x...0566  CNS..420  -1
    x...0566  UC..0566  1
    x...0570  CNS..091  -1
    x...0570  CNS..417  1
    x...0570  UC..0570  1
    x...0572  UC..0888  1
    x...0572  CNS..160  -1
    x...0572  CNS..083  1
    x...0579  CNS..448  -1
    x...0579  CNS..480  1
    x...0579  UC..0579  1
    x...0580  CNS..448  1
    x...0580  CNS..480  -1
    x...0580  UC..0580  1
    x...0583  CNS..216  -1
    x...0583  UC..0694  1
    x...0583  CNS..340  1
    x...0586  CNS..494  -1
    x...0586  CNS..328  1
    x...0586  UC..0586  1
    x...0589  CNS..240  -1
    x...0589  CNS..412  1
    x...0589  UC..0589  1
    x...0590  CNS..240  1
    x...0590  CNS..412  -1
    x...0590  UC..0590  1
    x...0591  CNS..406  -1
    x...0591  CNS..369  1
    x...0591  UC..0591  1
    x...0594  UC..0410  1
    x...0594  CNS..357  -1
    x...0594  CNS..217  1
    x...0595  CNS..150  1
    x...0595  CNS..272  -1
    x...0595  UC..0595  1
    x...0596  CNS..150  -1
    x...0596  CNS..272  1
    x...0596  UC..0596  1
    x...0597  CNS..036  1
    x...0597  CNS..406  -1
    x...0597  UC..0597  1
    x...0598  CNS..036  -1
    x...0598  CNS..406  1
    x...0598  UC..0598  1
    x...0599  UC..0716  1
    x...0599  CNS..231  -1
    x...0599  CNS..132  1
    x...0602  UC..1171  1
    x...0602  CNS..265  -1
    x...0602  CNS..439  1
    x...0603  CNS..239  -1
    x...0603  CNS..371  1
    x...0603  UC..0603  1
    x...0604  CNS..239  1
    x...0604  CNS..371  -1
    x...0604  UC..0604  1
    x...0609  CNS..216  -1
    x...0609  CNS..229  1
    x...0609  UC..0609  1
    x...0610  CNS..216  1
    x...0610  CNS..229  -1
    x...0610  UC..0610  1
    x...0611  UC..0456  1
    x...0611  CNS..438  -1
    x...0611  CNS..002  1
    x...0631  CNS..009  -1
    x...0631  CNS..231  1
    x...0631  UC..0631  1
    x...0632  CNS..009  1
    x...0632  CNS..231  -1
    x...0632  UC..0632  1
    x...0633  CNS..220  -1
    x...0633  CNS..235  1
    x...0633  UC..0633  1
    x...0634  CNS..220  1
    x...0634  CNS..235  -1
    x...0634  UC..0634  1
    x...0643  CNS..130  1
    x...0643  CNS..480  -1
    x...0643  UC..0643  1
    x...0644  CNS..130  -1
    x...0644  CNS..480  1
    x...0644  UC..0644  1
    x...0647  UC..0875  1
    x...0647  CNS..360  -1
    x...0647  CNS..364  1
    x...0649  CNS..496  -1
    x...0649  CNS..190  1
    x...0649  UC..0649  1
    x...0651  CNS..084  -1
    x...0651  CNS..193  1
    x...0651  UC..0651  1
    x...0652  CNS..084  1
    x...0652  CNS..193  -1
    x...0652  UC..0652  1
    x...0655  CNS..246  -1
    x...0655  CNS..353  1
    x...0655  UC..0655  1
    x...0657  CNS..184  -1
    x...0657  CNS..410  1
    x...0657  UC..0657  1
    x...0658  CNS..184  1
    x...0658  CNS..410  -1
    x...0658  UC..0658  1
    x...0661  UC..1106  1
    x...0661  CNS..473  -1
    x...0661  CNS..083  1
    x...0665  UC..1086  1
    x...0665  CNS..073  -1
    x...0665  CNS..106  1
    x...0667  UC..0986  1
    x...0667  CNS..362  -1
    x...0667  CNS..084  1
    x...0670  UC..1145  1
    x...0670  CNS..341  -1
    x...0670  CNS..240  1
    x...0674  CNS..117  -1
    x...0674  CNS..188  1
    x...0674  UC..0674  1
    x...0676  CNS..188  -1
    x...0676  CNS..437  1
    x...0676  UC..0676  1
    x...0679  CNS..015  1
    x...0679  CNS..038  -1
    x...0679  UC..0679  1
    x...0680  CNS..015  -1
    x...0680  CNS..038  1
    x...0680  UC..0680  1
    x...0682  UC..1160  1
    x...0682  CNS..383  -1
    x...0682  CNS..281  1
    x...0689  CNS..143  -1
    x...0689  CNS..148  1
    x...0689  UC..0689  1
    x...0690  CNS..143  1
    x...0690  CNS..148  -1
    x...0690  UC..0690  1
    x...0696  CNS..090  -1
    x...0696  CNS..472  1
    x...0696  UC..0696  1
    x...0699  UC..0274  1
    x...0699  CNS..272  -1
    x...0699  CNS..030  1
    x...0707  UC..1250  1
    x...0707  CNS..220  -1
    x...0707  CNS..190  1
    x...0715  CNS..132  -1
    x...0715  CNS..231  1
    x...0715  UC..0715  1
    x...0717  CNS..174  -1
    x...0717  CNS..496  1
    x...0717  UC..0717  1
    x...0718  CNS..174  1
    x...0718  CNS..496  -1
    x...0718  UC..0718  1
    x...0721  CNS..309  -1
    x...0721  CNS..437  1
    x...0721  UC..0721  1
    x...0722  CNS..309  1
    x...0722  CNS..437  -1
    x...0722  UC..0722  1
    x...0725  UC..1205  1
    x...0725  CNS..030  -1
    x...0725  CNS..290  1
    x...0749  CNS..214  1
    x...0749  CNS..217  -1
    x...0749  UC..0749  1
    x...0750  CNS..214  -1
    x...0750  CNS..217  1
    x...0750  UC..0750  1
    x...0753  CNS..033  -1
    x...0753  CNS..412  1
    x...0753  UC..0753  1
    x...0754  CNS..033  1
    x...0754  CNS..412  -1
    x...0754  UC..0754  1
    x...0764  CNS..146  -1
    x...0764  CNS..184  1
    x...0764  UC..0764  1
    x...0773  UC..1044  1
    x...0773  CNS..364  -1
    x...0773  CNS..308  1
    x...0783  CNS..229  1
    x...0783  CNS..384  -1
    x...0783  UC..0783  1
    x...0784  CNS..229  -1
    x...0784  CNS..384  1
    x...0784  UC..0784  1
    x...0785  CNS..080  -1
    x...0785  CNS..492  1
    x...0785  UC..0785  1
    x...0786  CNS..080  1
    x...0786  CNS..492  -1
    x...0786  UC..0786  1
    x...0787  UC..0480  1
    x...0787  CNS..193  -1
    x...0787  CNS..256  1
    x...0791  CNS..298  1
    x...0791  CNS..367  -1
    x...0791  UC..0791  1
    x...0792  CNS..298  -1
    x...0792  CNS..367  1
    x...0792  UC..0792  1
    x...0793  CNS..084  -1
    x...0793  CNS..484  1
    x...0793  UC..0793  1
    x...0794  CNS..084  1
    x...0794  CNS..484  -1
    x...0794  UC..0794  1
    x...0800  UC..1186  1
    x...0800  CNS..163  -1
    x...0800  CNS..195  1
    x...0802  UC..1117  1
    x...0802  CNS..235  -1
    x...0802  CNS..326  1
    x...0804  UC..1120  1
    x...0804  CNS..197  -1
    x...0804  CNS..006  1
    x...0805  CNS..106  1
    x...0805  CNS..257  -1
    x...0805  UC..0805  1
    x...0806  CNS..106  -1
    x...0806  CNS..257  1
    x...0806  UC..0806  1
    x...0823  CNS..400  1
    x...0823  CNS..465  -1
    x...0823  UC..0823  1
    x...0824  CNS..400  -1
    x...0824  CNS..465  1
    x...0824  UC..0824  1
    x...0830  CNS..220  -1
    x...0830  CNS..123  1
    x...0830  UC..0830  1
    x...0837  CNS..038  -1
    x...0837  CNS..328  1
    x...0837  UC..0837  1
    x...0841  CNS..257  1
    x...0841  CNS..470  -1
    x...0841  UC..0841  1
    x...0842  CNS..257  -1
    x...0842  CNS..470  1
    x...0842  UC..0842  1
    x...0849  UC..1058  1
    x...0849  CNS..308  -1
    x...0849  CNS..405  1
    x...0853  CNS..030  1
    x...0853  CNS..454  -1
    x...0853  UC..0853  1
    x...0854  CNS..030  -1
    x...0854  CNS..454  1
    x...0854  UC..0854  1
    x...0855  CNS..118  -1
    x...0855  CNS..300  1
    x...0855  UC..0855  1
    x...0856  CNS..118  1
    x...0856  CNS..300  -1
    x...0856  UC..0856  1
    x...0858  CNS..387  -1
    x...0858  UC..0372  1
    x...0858  CNS..320  1
    x...0869  CNS..224  -1
    x...0869  CNS..492  1
    x...0869  UC..0869  1
    x...0876  CNS..364  -1
    x...0876  CNS..360  1
    x...0876  UC..0876  1
    x...0879  UC..0501  1
    x...0879  CNS..234  -1
    x...0879  CNS..273  1
    x...0883  CNS..043  -1
    x...0883  CNS..002  1
    x...0883  UC..0883  1
    x...0886  CNS..369  -1
    x...0886  UC..0272  1
    x...0886  CNS..143  1
    x...0887  CNS..083  -1
    x...0887  CNS..160  1
    x...0887  UC..0887  1
    x...0899  CNS..080  -1
    x...0899  CNS..345  1
    x...0899  UC..0899  1
    x...0900  CNS..080  1
    x...0900  CNS..345  -1
    x...0900  UC..0900  1
    x...0901  UC..1210  1
    x...0901  CNS..273  -1
    x...0901  CNS..143  1
    x...0911  CNS..189  -1
    x...0911  CNS..212  1
    x...0911  UC..0911  1
    x...0913  CNS..160  -1
    x...0913  CNS..265  1
    x...0913  UC..0913  1
    x...0914  CNS..160  1
    x...0914  CNS..265  -1
    x...0914  UC..0914  1
    x...0916  CNS..212  -1
    x...0916  CNS..210  1
    x...0916  UC..0916  1
    x...0918  CNS..379  -1
    x...0918  CNS..425  1
    x...0918  UC..0918  1
    x...0921  CNS..135  -1
    x...0921  CNS..498  1
    x...0921  UC..0921  1
    x...0922  CNS..135  1
    x...0922  CNS..498  -1
    x...0922  UC..0922  1
    x...0924  UC..0379  1
    x...0924  CNS..425  -1
    x...0924  CNS..015  1
    x...0925  CNS..345  -1
    x...0925  CNS..170  1
    x...0925  UC..0925  1
    x...0945  CNS..040  1
    x...0945  CNS..123  -1
    x...0945  UC..0945  1
    x...0946  CNS..040  -1
    x...0946  CNS..123  1
    x...0946  UC..0946  1
    x...0947  CNS..204  1
    x...0947  CNS..438  -1
    x...0947  UC..0947  1
    x...0948  CNS..204  -1
    x...0948  CNS..438  1
    x...0948  UC..0948  1
    x...0961  UC..1179  1
    x...0961  CNS..464  -1
    x...0961  CNS..484  1
    x...0975  CNS..224  -1
    x...0975  CNS..494  1
    x...0975  UC..0975  1
    x...0982  CNS..292  -1
    x...0982  CNS..414  1
    x...0982  UC..0982  1
    x...0985  CNS..084  -1
    x...0985  CNS..362  1
    x...0985  UC..0985  1
    x...0987  CNS..281  -1
    x...0987  CNS..174  1
    x...0987  UC..0987  1
    x...0991  UC..1173  1
    x...0991  CNS..369  -1
    x...0991  CNS..335  1
    x...1001  CNS..077  1
    x...1001  CNS..138  -1
    x...1001  UC..1001  1
    x...1002  CNS..077  -1
    x...1002  CNS..138  1
    x...1002  UC..1002  1
    x...1003  UC..0693  1
    x...1003  CNS..340  -1
    x...1003  CNS..216  1
    x...1005  CNS..081  1
    x...1005  CNS..203  -1
    x...1005  UC..1005  1
    x...1006  CNS..081  -1
    x...1006  CNS..203  1
    x...1006  UC..1006  1
    x...1008  CNS..348  -1
    x...1008  CNS..488  1
    x...1008  UC..1008  1
    x...1010  UC..0335  1
    x...1010  CNS..364  -1
    x...1010  CNS..400  1
    x...1011  CNS..188  -1
    x...1011  CNS..366  1
    x...1011  UC..1011  1
    x...1016  CNS..437  -1
    x...1016  CNS..188  1
    x...1016  UC..1016  1
    x...1017  CNS..098  -1
    x...1017  CNS..360  1
    x...1017  UC..1017  1
    x...1018  CNS..098  1
    x...1018  CNS..360  -1
    x...1018  UC..1018  1
    x...1019  CNS..369  -1
    x...1019  UC..0671  1
    x...1019  CNS..406  1
    x...1021  CNS..284  -1
    x...1021  CNS..103  1
    x...1021  UC..1021  1
    x...1023  CNS..238  -1
    x...1023  UC..0578  1
    x...1023  CNS..292  1
    x...1025  CNS..129  -1
    x...1025  CNS..465  1
    x...1025  UC..1025  1
    x...1027  CNS..002  -1
    x...1027  CNS..043  1
    x...1027  UC..1027  1
    x...1029  UC..0988  1
    x...1029  CNS..174  -1
    x...1029  CNS..281  1
    x...1033  CNS..241  -1
    x...1033  CNS..246  1
    x...1033  UC..1033  1
    x...1034  CNS..241  1
    x...1034  CNS..246  -1
    x...1034  UC..1034  1
    x...1035  CNS..098  -1
    x...1035  CNS..210  1
    x...1035  UC..1035  1
    x...1036  CNS..098  1
    x...1036  CNS..210  -1
    x...1036  UC..1036  1
    x...1037  CNS..345  1
    x...1037  CNS..470  -1
    x...1037  UC..1037  1
    x...1038  CNS..345  -1
    x...1038  CNS..470  1
    x...1038  UC..1038  1
    x...1040  UC..0174  1
    x...1040  CNS..234  -1
    x...1040  CNS..353  1
    x...1041  CNS..256  -1
    x...1041  CNS..464  1
    x...1041  UC..1041  1
    x...1042  CNS..256  1
    x...1042  CNS..464  -1
    x...1042  UC..1042  1
    x...1043  CNS..308  -1
    x...1043  CNS..364  1
    x...1043  UC..1043  1
    x...1046  CNS..098  -1
    x...1046  UC..0953  1
    x...1046  CNS..390  1
    x...1047  UC..0829  1
    x...1047  CNS..123  -1
    x...1047  CNS..220  1
    x...1051  CNS..146  -1
    x...1051  CNS..390  1
    x...1051  UC..1051  1
    x...1052  CNS..146  1
    x...1052  CNS..390  -1
    x...1052  UC..1052  1
    x...1055  CNS..272  -1
    x...1055  CNS..273  1
    x...1055  UC..1055  1
    x...1057  UC..0850  1
    x...1057  CNS..405  -1
    x...1057  CNS..308  1
    x...1060  UC..0424  1
    x...1060  CNS..116  -1
    x...1060  CNS..231  1
    x...1061  CNS..204  -1
    x...1061  CNS..448  1
    x...1061  UC..1061  1
    x...1062  CNS..204  1
    x...1062  CNS..448  -1
    x...1062  UC..1062  1
    x...1063  CNS..376  1
    x...1063  CNS..484  -1
    x...1063  UC..1063  1
    x...1064  CNS..376  -1
    x...1064  CNS..484  1
    x...1064  UC..1064  1
    x...1065  CNS..033  1
    x...1065  CNS..478  -1
    x...1065  UC..1065  1
    x...1066  CNS..033  -1
    x...1066  CNS..478  1
    x...1066  UC..1066  1
    x...1067  CNS..013  -1
    x...1067  CNS..320  1
    x...1067  UC..1067  1
    x...1068  CNS..013  1
    x...1068  CNS..320  -1
    x...1068  UC..1068  1
    x...1069  CNS..005  -1
    x...1069  CNS..081  1
    x...1069  UC..1069  1
    x...1070  CNS..005  1
    x...1070  CNS..081  -1
    x...1070  UC..1070  1
    x...1073  CNS..005  -1
    x...1073  CNS..040  1
    x...1073  UC..1073  1
    x...1074  CNS..005  1
    x...1074  CNS..040  -1
    x...1074  UC..1074  1
    x...1075  CNS..167  -1
    x...1075  UC..0996  1
    x...1075  CNS..298  1
    x...1077  CNS..357  -1
    x...1077  CNS..130  1
    x...1077  UC..1077  1
    x...1079  CNS..309  1
    x...1079  CNS..373  -1
    x...1079  UC..1079  1
    x...1080  CNS..309  -1
    x...1080  CNS..373  1
    x...1080  UC..1080  1
    x...1081  CNS..116  -1
    x...1081  CNS..355  1
    x...1081  UC..1081  1
    x...1082  CNS..116  1
    x...1082  CNS..355  -1
    x...1082  UC..1082  1
    x...1083  UC..0468  1
    x...1083  CNS..278  -1
    x...1083  CNS..454  1
    x...1085  CNS..106  -1
    x...1085  CNS..073  1
    x...1085  UC..1085  1
    x...1087  CNS..284  -1
    x...1087  CNS..472  1
    x...1087  UC..1087  1
    x...1088  CNS..284  1
    x...1088  CNS..472  -1
    x...1088  UC..1088  1
    x...1089  CNS..290  1
    x...1089  CNS..491  -1
    x...1089  UC..1089  1
    x...1090  CNS..290  -1
    x...1090  CNS..491  1
    x...1090  UC..1090  1
    x...1091  CNS..193  1
    x...1091  CNS..215  -1
    x...1091  UC..1091  1
    x...1092  CNS..193  -1
    x...1092  CNS..215  1
    x...1092  UC..1092  1
    x...1093  CNS..271  -1
    x...1093  CNS..387  1
    x...1093  UC..1093  1
    x...1094  CNS..271  1
    x...1094  CNS..387  -1
    x...1094  UC..1094  1
    x...1095  CNS..080  -1
    x...1095  CNS..229  1
    x...1095  UC..1095  1
    x...1096  CNS..080  1
    x...1096  CNS..229  -1
    x...1096  UC..1096  1
    x...1098  CNS..434  -1
    x...1098  CNS..371  1
    x...1098  UC..1098  1
    x...1099  CNS..086  -1
    x...1099  CNS..254  1
    x...1099  UC..1099  1
    x...1100  CNS..086  1
    x...1100  CNS..254  -1
    x...1100  UC..1100  1
    x...1102  CNS..212  -1
    x...1102  CNS..154  1
    x...1102  UC..1102  1
    x...1103  CNS..308  1
    x...1103  CNS..354  -1
    x...1103  UC..1103  1
    x...1104  CNS..308  -1
    x...1104  CNS..354  1
    x...1104  UC..1104  1
    x...1105  UC..0662  1
    x...1105  CNS..083  -1
    x...1105  CNS..473  1
    x...1107  CNS..084  -1
    x...1107  CNS..472  1
    x...1107  UC..1107  1
    x...1108  CNS..084  1
    x...1108  CNS..472  -1
    x...1108  UC..1108  1
    x...1109  CNS..264  1
    x...1109  CNS..363  -1
    x...1109  UC..1109  1
    x...1110  CNS..264  -1
    x...1110  CNS..363  1
    x...1110  UC..1110  1
    x...1112  CNS..188  -1
    x...1112  CNS..117  1
    x...1112  UC..1112  1
    x...1113  CNS..465  -1
    x...1113  CNS..265  1
    x...1113  UC..1113  1
    x...1115  CNS..210  -1
    x...1115  CNS..417  1
    x...1115  UC..1115  1
    x...1116  CNS..210  1
    x...1116  CNS..417  -1
    x...1116  UC..1116  1
    x...1118  CNS..326  -1
    x...1118  CNS..235  1
    x...1118  UC..1118  1
    x...1119  UC..0803  1
    x...1119  CNS..006  -1
    x...1119  CNS..197  1
    x...1123  CNS..148  1
    x...1123  CNS..256  -1
    x...1123  UC..1123  1
    x...1124  CNS..148  -1
    x...1124  CNS..256  1
    x...1124  UC..1124  1
    x...1125  CNS..410  1
    x...1125  CNS..438  -1
    x...1125  UC..1125  1
    x...1126  CNS..410  -1
    x...1126  CNS..438  1
    x...1126  UC..1126  1
    x...1128  CNS..447  -1
    x...1128  CNS..342  1
    x...1128  UC..1128  1
    x...1129  CNS..214  1
    x...1129  CNS..417  -1
    x...1129  UC..1129  1
    x...1130  CNS..214  -1
    x...1130  CNS..417  1
    x...1130  UC..1130  1
    x...1132  UC..0496  1
    x...1132  CNS..188  -1
    x...1132  CNS..033  1
    x...1134  UC..0926  1
    x...1134  CNS..170  -1
    x...1134  CNS..345  1
    x...1135  CNS..091  -1
    x...1135  CNS..246  1
    x...1135  UC..1135  1
    x...1136  CNS..091  1
    x...1136  CNS..246  -1
    x...1136  UC..1136  1
    x...1137  CNS..289  1
    x...1137  CNS..474  -1
    x...1137  UC..1137  1
    x...1138  CNS..289  -1
    x...1138  CNS..474  1
    x...1138  UC..1138  1
    x...1140  UC..0248  1
    x...1140  CNS..425  -1
    x...1140  CNS..354  1
    x...1142  CNS..494  -1
    x...1142  CNS..224  1
    x...1142  UC..1142  1
    x...1143  CNS..212  -1
    x...1143  CNS..189  1
    x...1143  UC..1143  1
    x...1146  UC..0669  1
    x...1146  CNS..240  -1
    x...1146  CNS..341  1
    x...1147  CNS..006  1
    x...1147  CNS..348  -1
    x...1147  UC..1147  1
    x...1148  CNS..006  -1
    x...1148  CNS..348  1
    x...1148  UC..1148  1
    x...1150  UC..0192  1
    x...1150  CNS..496  -1
    x...1150  CNS..003  1
    x...1151  UC..0838  1
    x...1151  CNS..328  -1
    x...1151  CNS..038  1
    x...1153  CNS..197  1
    x...1153  CNS..384  -1
    x...1153  UC..1153  1
    x...1154  CNS..197  -1
    x...1154  CNS..384  1
    x...1154  UC..1154  1
    x...1156  UC..0398  1
    x...1156  CNS..031  -1
    x...1156  CNS..300  1
    x...1157  UC..0870  1
    x...1157  CNS..492  -1
    x...1157  CNS..224  1
    x...1159  UC..0681  1
    x...1159  CNS..281  -1
    x...1159  CNS..383  1
    x...1162  UC..0656  1
    x...1162  CNS..353  -1
    x...1162  CNS..246  1
    x...1163  CNS..311  1
    x...1163  CNS..362  -1
    x...1163  UC..1163  1
    x...1164  CNS..311  -1
    x...1164  CNS..362  1
    x...1164  UC..1164  1
    x...1165  UC..0348  1
    x...1165  CNS..108  -1
    x...1165  CNS..135  1
    x...1168  UC..0920  1
    x...1168  CNS..024  -1
    x...1168  CNS..164  1
    x...1169  CNS..164  1
    x...1169  CNS..201  -1
    x...1169  UC..1169  1
    x...1170  CNS..164  -1
    x...1170  CNS..201  1
    x...1170  UC..1170  1
    x...1172  CNS..439  -1
    x...1172  CNS..265  1
    x...1172  UC..1172  1
    x...1174  UC..0992  1
    x...1174  CNS..335  -1
    x...1174  CNS..369  1
    x...1175  CNS..117  -1
    x...1175  CNS..384  1
    x...1175  UC..1175  1
    x...1176  CNS..117  1
    x...1176  CNS..384  -1
    x...1176  UC..1176  1
    x...1177  CNS..335  -1
    x...1177  CNS..040  1
    x...1177  UC..1177  1
    x...1180  UC..0962  1
    x...1180  CNS..484  -1
    x...1180  CNS..464  1
    x...1181  CNS..002  -1
    x...1181  CNS..474  1
    x...1181  UC..1181  1
    x...1182  CNS..002  1
    x...1182  CNS..474  -1
    x...1182  UC..1182  1
    x...1184  UC..0285  1
    x...1184  CNS..195  -1
    x...1184  CNS..434  1
    x...1185  UC..0799  1
    x...1185  CNS..195  -1
    x...1185  CNS..163  1
    x...1187  CNS..012  -1
    x...1187  CNS..036  1
    x...1187  UC..1187  1
    x...1188  CNS..012  1
    x...1188  CNS..036  -1
    x...1188  UC..1188  1
    x...1189  CNS..416  1
    x...1189  CNS..454  -1
    x...1189  UC..1189  1
    x...1190  CNS..416  -1
    x...1190  CNS..454  1
    x...1190  UC..1190  1
    x...1191  CNS..271  -1
    x...1191  CNS..300  1
    x...1191  UC..1191  1
    x...1192  CNS..271  1
    x...1192  CNS..300  -1
    x...1192  UC..1192  1
    x...1193  CNS..135  -1
    x...1193  CNS..379  1
    x...1193  UC..1193  1
    x...1194  CNS..135  1
    x...1194  CNS..379  -1
    x...1194  UC..1194  1
    x...1196  CNS..478  -1
    x...1196  CNS..406  1
    x...1196  UC..1196  1
    x...1197  CNS..362  1
    x...1197  CNS..366  -1
    x...1197  UC..1197  1
    x...1198  CNS..362  -1
    x...1198  CNS..366  1
    x...1198  UC..1198  1
    x...1199  UC..0695  1
    x...1199  CNS..472  -1
    x...1199  CNS..090  1
    x...1202  CNS..414  -1
    x...1202  CNS..474  1
    x...1202  UC..1202  1
    x...1203  CNS..189  1
    x...1203  CNS..214  -1
    x...1203  UC..1203  1
    x...1204  CNS..189  -1
    x...1204  CNS..214  1
    x...1204  UC..1204  1
    x...1206  CNS..290  -1
    x...1206  CNS..030  1
    x...1206  UC..1206  1
    x...1207  CNS..098  1
    x...1207  CNS..150  -1
    x...1207  UC..1207  1
    x...1208  CNS..098  -1
    x...1208  CNS..150  1
    x...1208  UC..1208  1
    x...1212  CNS..184  -1
    x...1212  CNS..146  1
    x...1212  UC..1212  1
    x...1213  UC..0980  1
    x...1213  CNS..195  -1
    x...1213  CNS..341  1
    x...1215  CNS..108  1
    x...1215  CNS..164  -1
    x...1215  UC..1215  1
    x...1216  CNS..108  -1
    x...1216  CNS..164  1
    x...1216  UC..1216  1
    x...1217  CNS..405  1
    x...1217  CNS..488  -1
    x...1217  UC..1217  1
    x...1218  CNS..405  -1
    x...1218  CNS..488  1
    x...1218  UC..1218  1
    x...1220  UC..0399  1
    x...1220  CNS..116  -1
    x...1220  CNS..009  1
    x...1221  CNS..170  -1
    x...1221  CNS..348  1
    x...1221  UC..1221  1
    x...1223  CNS..373  -1
    x...1223  CNS..403  1
    x...1223  UC..1223  1
    x...1224  CNS..373  1
    x...1224  CNS..403  -1
    x...1224  UC..1224  1
    x...1226  CNS..390  -1
    x...1226  UC..0719  1
    x...1226  CNS..254  1
    x...1227  CNS..106  -1
    x...1227  CNS..371  1
    x...1227  UC..1227  1
    x...1228  CNS..106  1
    x...1228  CNS..371  -1
    x...1228  UC..1228  1
    x...1229  UC..0530  1
    x...1229  CNS..073  -1
    x...1229  CNS..392  1
    x...1231  UC..0383  1
    x...1231  CNS..163  -1
    x...1231  CNS..257  1
    x...1233  CNS..090  -1
    x...1233  CNS..278  1
    x...1233  UC..1233  1
    x...1236  CNS..414  -1
    x...1236  CNS..292  1
    x...1236  UC..1236  1
    x...1237  UC..0163  1
    x...1237  CNS..492  -1
    x...1237  CNS..160  1
    x...1239  CNS..150  -1
    x...1239  CNS..410  1
    x...1239  UC..1239  1
    x...1240  CNS..150  1
    x...1240  CNS..410  -1
    x...1240  UC..1240  1
    x...1241  CNS..132  -1
    x...1241  CNS..289  1
    x...1241  UC..1241  1
    x...1242  CNS..132  1
    x...1242  CNS..289  -1
    x...1242  UC..1242  1
    x...1243  CNS..328  -1
    x...1243  CNS..494  1
    x...1243  UC..1243  1
    x...1245  CNS..106  -1
    x...1245  CNS..470  1
    x...1245  UC..1245  1
    x...1246  CNS..106  1
    x...1246  CNS..470  -1
    x...1246  UC..1246  1
    x...1247  CNS..409  1
    x...1247  CNS..447  -1
    x...1247  UC..1247  1
    x...1248  CNS..409  -1
    x...1248  CNS..447  1
    x...1248  UC..1248  1
    x...1249  CNS..190  -1
    x...1249  CNS..220  1
    x...1249  UC..1249  1
    MARKER    'MARKER'                 'INTORG'
    y...0001  OBJ       7
    y...0001  UC..0001  -82
    y...0002  OBJ       7
    y...0002  UC..0002  -82
    y...0003  OBJ       8
    y...0003  UC..0003  -82
    y...0004  OBJ       8
    y...0004  UC..0004  -82
    y...0005  OBJ       4
    y...0005  UC..0005  -82
    y...0006  OBJ       4
    y...0006  UC..0006  -82
    y...0007  OBJ       8
    y...0007  UC..0007  -82
    y...0008  OBJ       8
    y...0008  UC..0008  -82
    y...0009  OBJ       8
    y...0009  UC..0009  -82
    y...0010  OBJ       8
    y...0010  UC..0010  -82
    y...0011  OBJ       4
    y...0011  UC..0011  -82
    y...0012  OBJ       4
    y...0012  UC..0012  -82
    y...0013  OBJ       4
    y...0013  UC..0013  -82
    y...0014  OBJ       4
    y...0014  UC..0014  -82
    y...0015  OBJ       5
    y...0015  UC..0015  -82
    y...0016  OBJ       5
    y...0016  UC..0016  -82
    y...0017  OBJ       8
    y...0017  UC..0017  -82
    y...0018  OBJ       8
    y...0018  UC..0018  -82
    y...0019  OBJ       9
    y...0019  UC..0019  -82
    y...0020  OBJ       9
    y...0020  UC..0020  -82
    y...0021  OBJ       10
    y...0021  UC..0021  -82
    y...0022  OBJ       10
    y...0022  UC..0022  -82
    y...0025  OBJ       6
    y...0025  UC..0025  -82
    y...0026  OBJ       6
    y...0026  UC..0026  -82
    y...0029  OBJ       10
    y...0029  UC..0029  -82
    y...0030  OBJ       10
    y...0030  UC..0030  -82
    y...0031  OBJ       8
    y...0031  UC..0031  -82
    y...0032  OBJ       8
    y...0032  UC..0032  -82
    y...0035  OBJ       3
    y...0035  UC..0035  -82
    y...0036  OBJ       3
    y...0036  UC..0036  -82
    y...0037  OBJ       4
    y...0037  UC..0037  -82
    y...0038  OBJ       4
    y...0038  UC..0038  -82
    y...0039  OBJ       3
    y...0039  UC..0039  -82
    y...0040  OBJ       3
    y...0040  UC..0040  -82
    y...0041  OBJ       4
    y...0041  UC..0041  -82
    y...0042  OBJ       4
    y...0042  UC..0042  -82
    y...0045  OBJ       7
    y...0045  UC..0045  -82
    y...0046  OBJ       7
    y...0046  UC..0046  -82
    y...0047  OBJ       5
    y...0047  UC..0047  -82
    y...0048  OBJ       5
    y...0048  UC..0048  -82
    y...0049  OBJ       9
    y...0049  UC..0049  -82
    y...0050  OBJ       9
    y...0050  UC..0050  -82
    y...0051  OBJ       10
    y...0051  UC..0051  -82
    y...0052  OBJ       10
    y...0052  UC..0052  -82
    y...0053  OBJ       7
    y...0053  UC..0053  -82
    y...0054  OBJ       7
    y...0054  UC..0054  -82
    y...0055  OBJ       8
    y...0055  UC..0055  -82
    y...0056  OBJ       8
    y...0056  UC..0056  -82
    y...0057  OBJ       9
    y...0057  UC..0057  -82
    y...0058  OBJ       9
    y...0058  UC..0058  -82
    y...0059  OBJ       6
    y...0059  UC..0059  -82
    y...0060  OBJ       6
    y...0060  UC..0060  -82
    y...0061  OBJ       8
    y...0061  UC..0061  -82
    y...0062  OBJ       8
    y...0062  UC..0062  -82
    y...0063  OBJ       3
    y...0063  UC..0063  -82
    y...0064  OBJ       3
    y...0064  UC..0064  -82
    y...0065  OBJ       10
    y...0065  UC..0065  -82
    y...0066  OBJ       10
    y...0066  UC..0066  -82
    y...0067  OBJ       1
    y...0067  UC..0067  -82
    y...0068  OBJ       1
    y...0068  UC..0068  -82
    y...0069  OBJ       6
    y...0069  UC..0069  -82
    y...0070  OBJ       6
    y...0070  UC..0070  -82
    y...0071  OBJ       8
    y...0071  UC..0071  -82
    y...0072  OBJ       8
    y...0072  UC..0072  -82
    y...0073  OBJ       5
    y...0073  UC..0073  -82
    y...0074  OBJ       5
    y...0074  UC..0074  -82
    y...0075  OBJ       10
    y...0075  UC..0075  -82
    y...0077  OBJ       2
    y...0077  UC..0077  -82
    y...0078  OBJ       2
    y...0078  UC..0078  -82
    y...0079  OBJ       6
    y...0079  UC..0079  -82
    y...0080  OBJ       6
    y...0080  UC..0080  -82
    y...0081  OBJ       5
    y...0081  UC..0081  -82
    y...0082  OBJ       5
    y...0082  UC..0082  -82
    y...0083  OBJ       4
    y...0083  UC..0083  -82
    y...0084  OBJ       4
    y...0084  UC..0084  -82
    y...0085  OBJ       8
    y...0085  UC..0085  -82
    y...0086  OBJ       8
    y...0086  UC..0086  -82
    y...0087  OBJ       6
    y...0087  UC..0087  -82
    y...0088  OBJ       6
    y...0088  UC..0088  -82
    y...0089  OBJ       8
    y...0089  UC..0089  -82
    y...0090  OBJ       8
    y...0090  UC..0090  -82
    y...0091  OBJ       9
    y...0091  UC..0091  -82
    y...0092  OBJ       9
    y...0092  UC..0092  -82
    y...0093  OBJ       5
    y...0093  UC..0093  -82
    y...0094  OBJ       5
    y...0094  UC..0094  -82
    y...0095  OBJ       10
    y...0095  UC..0095  -82
    y...0097  OBJ       6
    y...0097  UC..0097  -82
    y...0098  OBJ       6
    y...0098  UC..0098  -82
    y...0099  OBJ       9
    y...0099  UC..0099  -82
    y...0100  OBJ       9
    y...0100  UC..0100  -82
    y...0103  OBJ       9
    y...0103  UC..0103  -82
    y...0104  OBJ       9
    y...0104  UC..0104  -82
    y...0105  OBJ       4
    y...0105  UC..0105  -82
    y...0106  OBJ       4
    y...0106  UC..0106  -82
    y...0109  OBJ       2
    y...0109  UC..0109  -82
    y...0110  OBJ       2
    y...0110  UC..0110  -82
    y...0111  OBJ       10
    y...0111  UC..0111  -82
    y...0112  OBJ       10
    y...0112  UC..0112  -82
    y...0113  OBJ       10
    y...0113  UC..0113  -82
    y...0115  OBJ       5
    y...0115  UC..0115  -82
    y...0116  OBJ       5
    y...0116  UC..0116  -82
    y...0117  OBJ       6
    y...0117  UC..0117  -82
    y...0118  OBJ       6
    y...0118  UC..0118  -82
    y...0119  OBJ       3
    y...0119  UC..0119  -82
    y...0120  OBJ       3
    y...0120  UC..0120  -82
    y...0121  OBJ       5
    y...0121  UC..0121  -82
    y...0122  OBJ       5
    y...0122  UC..0122  -82
    y...0123  OBJ       3
    y...0123  UC..0123  -82
    y...0124  OBJ       3
    y...0124  UC..0124  -82
    y...0125  OBJ       4
    y...0125  UC..0125  -82
    y...0126  OBJ       4
    y...0126  UC..0126  -82
    y...0127  OBJ       3
    y...0127  UC..0127  -82
    y...0128  OBJ       3
    y...0128  UC..0128  -82
    y...0129  OBJ       5
    y...0129  UC..0129  -82
    y...0130  OBJ       5
    y...0130  UC..0130  -82
    y...0132  OBJ       17
    y...0132  UC..0132  -82
    y...0133  OBJ       15
    y...0133  UC..0133  -82
    y...0135  OBJ       22
    y...0135  UC..0135  -82
    y...0137  OBJ       9
    y...0137  UC..0137  -82
    y...0138  OBJ       9
    y...0138  UC..0138  -82
    y...0139  OBJ       6
    y...0139  UC..0139  -82
    y...0140  OBJ       6
    y...0140  UC..0140  -82
    y...0143  OBJ       7
    y...0143  UC..0143  -82
    y...0144  OBJ       7
    y...0144  UC..0144  -82
    y...0145  OBJ       3
    y...0145  UC..0145  -82
    y...0146  OBJ       3
    y...0146  UC..0146  -82
    y...0147  OBJ       3
    y...0147  UC..0147  -82
    y...0148  OBJ       3
    y...0148  UC..0148  -82
    y...0149  OBJ       7
    y...0149  UC..0149  -82
    y...0150  OBJ       7
    y...0150  UC..0150  -82
    y...0151  OBJ       10
    y...0151  UC..0151  -82
    y...0152  OBJ       10
    y...0152  UC..0152  -82
    y...0156  OBJ       6
    y...0156  UC..0156  -82
    y...0163  OBJ       3
    y...0163  UC..0163  -82
    y...0170  OBJ       19
    y...0170  UC..0170  -82
    y...0171  OBJ       8
    y...0171  UC..0171  -82
    y...0172  OBJ       8
    y...0172  UC..0172  -82
    y...0174  OBJ       9
    y...0174  UC..0174  -82
    y...0175  OBJ       1
    y...0175  UC..0175  -82
    y...0176  OBJ       1
    y...0176  UC..0176  -82
    y...0179  OBJ       4
    y...0179  UC..0179  -82
    y...0180  OBJ       4
    y...0180  UC..0180  -82
    y...0181  OBJ       5
    y...0181  UC..0181  -82
    y...0182  OBJ       5
    y...0182  UC..0182  -82
    y...0185  OBJ       10
    y...0185  UC..0185  -82
    y...0187  OBJ       18
    y...0187  UC..0187  -82
    y...0191  OBJ       13
    y...0191  UC..0191  -82
    y...0192  OBJ       13
    y...0192  UC..0192  -82
    y...0193  OBJ       8
    y...0193  UC..0193  -82
    y...0194  OBJ       8
    y...0194  UC..0194  -82
    y...0195  OBJ       4
    y...0195  UC..0195  -82
    y...0196  OBJ       4
    y...0196  UC..0196  -82
    y...0197  OBJ       9
    y...0197  UC..0197  -82
    y...0199  OBJ       4
    y...0199  UC..0199  -82
    y...0200  OBJ       4
    y...0200  UC..0200  -82
    y...0201  OBJ       6
    y...0201  UC..0201  -82
    y...0202  OBJ       6
    y...0202  UC..0202  -82
    y...0203  OBJ       7
    y...0203  UC..0203  -82
    y...0204  OBJ       7
    y...0204  UC..0204  -82
    y...0205  OBJ       8
    y...0205  UC..0205  -82
    y...0206  OBJ       8
    y...0206  UC..0206  -82
    y...0207  OBJ       8
    y...0207  UC..0207  -82
    y...0208  OBJ       8
    y...0208  UC..0208  -82
    y...0211  OBJ       3
    y...0211  UC..0211  -82
    y...0212  OBJ       3
    y...0212  UC..0212  -82
    y...0215  OBJ       11
    y...0215  UC..0215  -82
    y...0217  OBJ       9
    y...0217  UC..0217  -82
    y...0218  OBJ       9
    y...0218  UC..0218  -82
    y...0221  OBJ       10
    y...0221  UC..0221  -82
    y...0222  OBJ       10
    y...0222  UC..0222  -82
    y...0223  OBJ       2
    y...0223  UC..0223  -82
    y...0224  OBJ       2
    y...0224  UC..0224  -82
    y...0225  OBJ       9
    y...0225  UC..0225  -82
    y...0226  OBJ       9
    y...0226  UC..0226  -82
    y...0227  OBJ       10
    y...0227  UC..0227  -82
    y...0228  OBJ       10
    y...0228  UC..0228  -82
    y...0231  OBJ       2
    y...0231  UC..0231  -82
    y...0232  OBJ       2
    y...0232  UC..0232  -82
    y...0233  OBJ       9
    y...0233  UC..0233  -82
    y...0234  OBJ       9
    y...0234  UC..0234  -82
    y...0237  OBJ       10
    y...0237  UC..0237  -82
    y...0238  OBJ       10
    y...0238  UC..0238  -82
    y...0243  OBJ       10
    y...0243  UC..0243  -82
    y...0244  OBJ       10
    y...0244  UC..0244  -82
    y...0245  OBJ       6
    y...0245  UC..0245  -82
    y...0246  OBJ       6
    y...0246  UC..0246  -82
    y...0248  OBJ       10
    y...0248  UC..0248  -82
    y...0249  OBJ       9
    y...0249  UC..0249  -82
    y...0250  OBJ       9
    y...0250  UC..0250  -82
    y...0251  OBJ       6
    y...0251  UC..0251  -82
    y...0252  OBJ       6
    y...0252  UC..0252  -82
    y...0253  OBJ       18
    y...0253  UC..0253  -82
    y...0254  OBJ       18
    y...0254  UC..0254  -82
    y...0256  OBJ       10
    y...0256  UC..0256  -82
    y...0257  OBJ       1
    y...0257  UC..0257  -82
    y...0258  OBJ       1
    y...0258  UC..0258  -82
    y...0260  OBJ       22
    y...0260  UC..0260  -82
    y...0261  OBJ       10
    y...0261  UC..0261  -82
    y...0262  OBJ       10
    y...0262  UC..0262  -82
    y...0264  OBJ       19
    y...0264  UC..0264  -82
    y...0267  OBJ       5
    y...0267  UC..0267  -82
    y...0268  OBJ       5
    y...0268  UC..0268  -82
    y...0269  OBJ       2
    y...0269  UC..0269  -82
    y...0270  OBJ       2
    y...0270  UC..0270  -82
    y...0271  OBJ       23
    y...0271  UC..0271  -82
    y...0272  OBJ       23
    y...0272  UC..0272  -82
    y...0274  OBJ       11
    y...0274  UC..0274  -82
    y...0275  OBJ       16
    y...0275  UC..0275  -82
    y...0276  OBJ       16
    y...0276  UC..0276  -82
    y...0281  OBJ       10
    y...0281  UC..0281  -82
    y...0282  OBJ       10
    y...0282  UC..0282  -82
    y...0285  OBJ       6
    y...0285  UC..0285  -82
    y...0289  OBJ       12
    y...0289  UC..0289  -82
    y...0299  OBJ       7
    y...0299  UC..0299  -82
    y...0300  OBJ       7
    y...0300  UC..0300  -82
    y...0301  OBJ       2
    y...0301  UC..0301  -82
    y...0302  OBJ       2
    y...0302  UC..0302  -82
    y...0303  OBJ       13
    y...0303  UC..0303  -82
    y...0306  OBJ       5
    y...0306  UC..0306  -82
    y...0307  OBJ       3
    y...0307  UC..0307  -82
    y...0308  OBJ       3
    y...0308  UC..0308  -82
    y...0309  OBJ       7
    y...0309  UC..0309  -82
    y...0310  OBJ       7
    y...0310  UC..0310  -82
    y...0311  OBJ       1
    y...0311  UC..0311  -82
    y...0312  OBJ       1
    y...0312  UC..0312  -82
    y...0313  OBJ       4
    y...0313  UC..0313  -82
    y...0314  OBJ       4
    y...0314  UC..0314  -82
    y...0320  OBJ       19
    y...0320  UC..0320  -82
    y...0321  OBJ       9
    y...0321  UC..0321  -82
    y...0322  OBJ       9
    y...0322  UC..0322  -82
    y...0327  OBJ       3
    y...0327  UC..0327  -82
    y...0328  OBJ       3
    y...0328  UC..0328  -82
    y...0335  OBJ       16
    y...0335  UC..0335  -82
    y...0339  OBJ       3
    y...0339  UC..0339  -82
    y...0340  OBJ       3
    y...0340  UC..0340  -82
    y...0347  OBJ       18
    y...0347  UC..0347  -82
    y...0348  OBJ       18
    y...0348  UC..0348  -82
    y...0349  OBJ       3
    y...0349  UC..0349  -82
    y...0350  OBJ       3
    y...0350  UC..0350  -82
    y...0358  OBJ       15
    y...0358  UC..0358  -82
    y...0359  OBJ       5
    y...0359  UC..0359  -82
    y...0360  OBJ       5
    y...0360  UC..0360  -82
    y...0361  OBJ       9
    y...0361  UC..0361  -82
    y...0362  OBJ       9
    y...0362  UC..0362  -82
    y...0365  OBJ       8
    y...0365  UC..0365  -82
    y...0366  OBJ       8
    y...0366  UC..0366  -82
    y...0367  OBJ       2
    y...0367  UC..0367  -82
    y...0368  OBJ       2
    y...0368  UC..0368  -82
    y...0369  OBJ       21
    y...0369  UC..0369  -82
    y...0372  OBJ       23
    y...0372  UC..0372  -82
    y...0373  OBJ       8
    y...0373  UC..0373  -82
    y...0374  OBJ       8
    y...0374  UC..0374  -82
    y...0379  OBJ       11
    y...0379  UC..0379  -82
    y...0383  OBJ       15
    y...0383  UC..0383  -82
    y...0384  OBJ       15
    y...0384  UC..0384  -82
    y...0386  OBJ       15
    y...0386  UC..0386  -82
    y...0393  OBJ       2
    y...0393  UC..0393  -82
    y...0394  OBJ       2
    y...0394  UC..0394  -82
    y...0395  OBJ       10
    y...0395  UC..0395  -82
    y...0396  OBJ       10
    y...0396  UC..0396  -82
    y...0398  OBJ       7
    y...0398  UC..0398  -82
    y...0399  OBJ       15
    y...0399  UC..0399  -82
    y...0400  OBJ       15
    y...0400  UC..0400  -82
    y...0405  OBJ       6
    y...0405  UC..0405  -82
    y...0406  OBJ       6
    y...0406  UC..0406  -82
    y...0407  OBJ       1
    y...0407  UC..0407  -82
    y...0408  OBJ       1
    y...0408  UC..0408  -82
    y...0409  OBJ       4
    y...0409  UC..0409  -82
    y...0410  OBJ       4
    y...0410  UC..0410  -82
    y...0413  OBJ       10
    y...0413  UC..0413  -82
    y...0419  OBJ       2
    y...0419  UC..0419  -82
    y...0420  OBJ       2
    y...0420  UC..0420  -82
    y...0421  OBJ       3
    y...0421  UC..0421  -82
    y...0422  OBJ       3
    y...0422  UC..0422  -82
    y...0424  OBJ       16
    y...0424  UC..0424  -82
    y...0429  OBJ       11
    y...0429  UC..0429  -82
    y...0433  OBJ       7
    y...0433  UC..0433  -82
    y...0434  OBJ       7
    y...0434  UC..0434  -82
    y...0437  OBJ       10
    y...0437  UC..0437  -82
    y...0438  OBJ       10
    y...0438  UC..0438  -82
    y...0441  OBJ       17
    y...0441  UC..0441  -82
    y...0445  OBJ       9
    y...0445  UC..0445  -82
    y...0446  OBJ       9
    y...0446  UC..0446  -82
    y...0447  OBJ       1
    y...0447  UC..0447  -82
    y...0448  OBJ       1
    y...0448  UC..0448  -82
    y...0451  OBJ       3
    y...0451  UC..0451  -82
    y...0452  OBJ       3
    y...0452  UC..0452  -82
    y...0455  OBJ       13
    y...0455  UC..0455  -82
    y...0456  OBJ       13
    y...0456  UC..0456  -82
    y...0463  OBJ       9
    y...0463  UC..0463  -82
    y...0464  OBJ       9
    y...0464  UC..0464  -82
    y...0468  OBJ       19
    y...0468  UC..0468  -82
    y...0470  OBJ       21
    y...0470  UC..0470  -82
    y...0475  OBJ       3
    y...0475  UC..0475  -82
    y...0476  OBJ       3
    y...0476  UC..0476  -82
    y...0477  OBJ       3
    y...0477  UC..0477  -82
    y...0478  OBJ       3
    y...0478  UC..0478  -82
    y...0480  OBJ       10
    y...0480  UC..0480  -82
    y...0483  OBJ       15
    y...0483  UC..0483  -82
    y...0495  OBJ       4
    y...0495  UC..0495  -82
    y...0496  OBJ       4
    y...0496  UC..0496  -82
    y...0497  OBJ       2
    y...0497  UC..0497  -82
    y...0498  OBJ       2
    y...0498  UC..0498  -82
    y...0501  OBJ       27
    y...0501  UC..0501  -82
    y...0503  OBJ       2
    y...0503  UC..0503  -82
    y...0504  OBJ       2
    y...0504  UC..0504  -82
    y...0507  OBJ       4
    y...0507  UC..0507  -82
    y...0508  OBJ       4
    y...0508  UC..0508  -82
    y...0512  OBJ       26
    y...0512  UC..0512  -82
    y...0513  OBJ       2
    y...0513  UC..0513  -82
    y...0514  OBJ       2
    y...0514  UC..0514  -82
    y...0521  OBJ       3
    y...0521  UC..0521  -82
    y...0522  OBJ       3
    y...0522  UC..0522  -82
    y...0525  OBJ       1
    y...0525  UC..0525  -82
    y...0526  OBJ       1
    y...0526  UC..0526  -82
    y...0529  OBJ       13
    y...0529  UC..0529  -82
    y...0530  OBJ       13
    y...0530  UC..0530  -82
    y...0533  OBJ       8
    y...0533  UC..0533  -82
    y...0534  OBJ       8
    y...0534  UC..0534  -82
    y...0544  OBJ       12
    y...0544  UC..0544  -82
    y...0547  OBJ       12
    y...0547  UC..0547  -82
    y...0551  OBJ       5
    y...0551  UC..0551  -82
    y...0552  OBJ       5
    y...0552  UC..0552  -82
    y...0553  OBJ       12
    y...0553  UC..0553  -82
    y...0563  OBJ       1
    y...0563  UC..0563  -82
    y...0564  OBJ       1
    y...0564  UC..0564  -82
    y...0565  OBJ       6
    y...0565  UC..0565  -82
    y...0566  OBJ       6
    y...0566  UC..0566  -82
    y...0570  OBJ       11
    y...0570  UC..0570  -82
    y...0578  OBJ       19
    y...0578  UC..0578  -82
    y...0579  OBJ       4
    y...0579  UC..0579  -82
    y...0580  OBJ       4
    y...0580  UC..0580  -82
    y...0586  OBJ       13
    y...0586  UC..0586  -82
    y...0589  OBJ       1
    y...0589  UC..0589  -82
    y...0590  OBJ       1
    y...0590  UC..0590  -82
    y...0591  OBJ       9
    y...0591  UC..0591  -82
    y...0595  OBJ       3
    y...0595  UC..0595  -82
    y...0596  OBJ       3
    y...0596  UC..0596  -82
    y...0597  OBJ       8
    y...0597  UC..0597  -82
    y...0598  OBJ       8
    y...0598  UC..0598  -82
    y...0603  OBJ       1
    y...0603  UC..0603  -82
    y...0604  OBJ       1
    y...0604  UC..0604  -82
    y...0609  OBJ       2
    y...0609  UC..0609  -82
    y...0610  OBJ       2
    y...0610  UC..0610  -82
    y...0631  OBJ       6
    y...0631  UC..0631  -82
    y...0632  OBJ       6
    y...0632  UC..0632  -82
    y...0633  OBJ       6
    y...0633  UC..0633  -82
    y...0634  OBJ       6
    y...0634  UC..0634  -82
    y...0643  OBJ       3
    y...0643  UC..0643  -82
    y...0644  OBJ       3
    y...0644  UC..0644  -82
    y...0649  OBJ       6
    y...0649  UC..0649  -82
    y...0651  OBJ       3
    y...0651  UC..0651  -82
    y...0652  OBJ       3
    y...0652  UC..0652  -82
    y...0655  OBJ       13
    y...0655  UC..0655  -82
    y...0656  OBJ       13
    y...0656  UC..0656  -82
    y...0657  OBJ       5
    y...0657  UC..0657  -82
    y...0658  OBJ       5
    y...0658  UC..0658  -82
    y...0662  OBJ       5
    y...0662  UC..0662  -82
    y...0669  OBJ       15
    y...0669  UC..0669  -82
    y...0671  OBJ       9
    y...0671  UC..0671  -82
    y...0674  OBJ       6
    y...0674  UC..0674  -82
    y...0676  OBJ       22
    y...0676  UC..0676  -82
    y...0679  OBJ       3
    y...0679  UC..0679  -82
    y...0680  OBJ       3
    y...0680  UC..0680  -82
    y...0681  OBJ       7
    y...0681  UC..0681  -82
    y...0689  OBJ       3
    y...0689  UC..0689  -82
    y...0690  OBJ       3
    y...0690  UC..0690  -82
    y...0693  OBJ       19
    y...0693  UC..0693  -82
    y...0694  OBJ       19
    y...0694  UC..0694  -82
    y...0695  OBJ       13
    y...0695  UC..0695  -82
    y...0696  OBJ       13
    y...0696  UC..0696  -82
    y...0700  OBJ       11
    y...0700  UC..0700  -82
    y...0715  OBJ       5
    y...0715  UC..0715  -82
    y...0716  OBJ       5
    y...0716  UC..0716  -82
    y...0717  OBJ       10
    y...0717  UC..0717  -82
    y...0718  OBJ       10
    y...0718  UC..0718  -82
    y...0719  OBJ       10
    y...0719  UC..0719  -82
    y...0721  OBJ       1
    y...0721  UC..0721  -82
    y...0722  OBJ       1
    y...0722  UC..0722  -82
    y...0749  OBJ       1
    y...0749  UC..0749  -82
    y...0750  OBJ       1
    y...0750  UC..0750  -82
    y...0753  OBJ       8
    y...0753  UC..0753  -82
    y...0754  OBJ       8
    y...0754  UC..0754  -82
    y...0764  OBJ       11
    y...0764  UC..0764  -82
    y...0783  OBJ       8
    y...0783  UC..0783  -82
    y...0784  OBJ       8
    y...0784  UC..0784  -82
    y...0785  OBJ       10
    y...0785  UC..0785  -82
    y...0786  OBJ       10
    y...0786  UC..0786  -82
    y...0788  OBJ       10
    y...0788  UC..0788  -82
    y...0791  OBJ       8
    y...0791  UC..0791  -82
    y...0792  OBJ       8
    y...0792  UC..0792  -82
    y...0793  OBJ       10
    y...0793  UC..0793  -82
    y...0794  OBJ       10
    y...0794  UC..0794  -82
    y...0799  OBJ       14
    y...0799  UC..0799  -82
    y...0803  OBJ       16
    y...0803  UC..0803  -82
    y...0805  OBJ       1
    y...0805  UC..0805  -82
    y...0806  OBJ       1
    y...0806  UC..0806  -82
    y...0816  OBJ       19
    y...0816  UC..0816  -82
    y...0823  OBJ       9
    y...0823  UC..0823  -82
    y...0824  OBJ       9
    y...0824  UC..0824  -82
    y...0829  OBJ       6
    y...0829  UC..0829  -82
    y...0830  OBJ       6
    y...0830  UC..0830  -82
    y...0837  OBJ       10
    y...0837  UC..0837  -82
    y...0838  OBJ       10
    y...0838  UC..0838  -82
    y...0841  OBJ       1
    y...0841  UC..0841  -82
    y...0842  OBJ       1
    y...0842  UC..0842  -82
    y...0850  OBJ       13
    y...0850  UC..0850  -82
    y...0853  OBJ       9
    y...0853  UC..0853  -82
    y...0854  OBJ       9
    y...0854  UC..0854  -82
    y...0855  OBJ       9
    y...0855  UC..0855  -82
    y...0856  OBJ       9
    y...0856  UC..0856  -82
    y...0869  OBJ       9
    y...0869  UC..0869  -82
    y...0870  OBJ       9
    y...0870  UC..0870  -82
    y...0875  OBJ       16
    y...0875  UC..0875  -82
    y...0876  OBJ       16
    y...0876  UC..0876  -82
    y...0880  OBJ       27
    y...0880  UC..0880  -82
    y...0883  OBJ       5
    y...0883  UC..0883  -82
    y...0887  OBJ       16
    y...0887  UC..0887  -82
    y...0888  OBJ       16
    y...0888  UC..0888  -82
    y...0899  OBJ       10
    y...0899  UC..0899  -82
    y...0900  OBJ       10
    y...0900  UC..0900  -82
    y...0911  OBJ       11
    y...0911  UC..0911  -82
    y...0913  OBJ       9
    y...0913  UC..0913  -82
    y...0914  OBJ       9
    y...0914  UC..0914  -82
    y...0916  OBJ       13
    y...0916  UC..0916  -82
    y...0918  OBJ       12
    y...0918  UC..0918  -82
    y...0920  OBJ       15
    y...0920  UC..0920  -82
    y...0921  OBJ       6
    y...0921  UC..0921  -82
    y...0922  OBJ       6
    y...0922  UC..0922  -82
    y...0925  OBJ       7
    y...0925  UC..0925  -82
    y...0926  OBJ       7
    y...0926  UC..0926  -82
    y...0945  OBJ       6
    y...0945  UC..0945  -82
    y...0946  OBJ       6
    y...0946  UC..0946  -82
    y...0947  OBJ       1
    y...0947  UC..0947  -82
    y...0948  OBJ       1
    y...0948  UC..0948  -82
    y...0953  OBJ       18
    y...0953  UC..0953  -82
    y...0962  OBJ       10
    y...0962  UC..0962  -82
    y...0975  OBJ       19
    y...0975  UC..0975  -82
    y...0980  OBJ       17
    y...0980  UC..0980  -82
    y...0982  OBJ       14
    y...0982  UC..0982  -82
    y...0985  OBJ       13
    y...0985  UC..0985  -82
    y...0986  OBJ       13
    y...0986  UC..0986  -82
    y...0987  OBJ       12
    y...0987  UC..0987  -82
    y...0988  OBJ       12
    y...0988  UC..0988  -82
    y...0992  OBJ       5
    y...0992  UC..0992  -82
    y...0996  OBJ       17
    y...0996  UC..0996  -82
    y...1001  OBJ       10
    y...1001  UC..1001  -82
    y...1002  OBJ       10
    y...1002  UC..1002  -82
    y...1005  OBJ       1
    y...1005  UC..1005  -82
    y...1006  OBJ       1
    y...1006  UC..1006  -82
    y...1008  OBJ       26
    y...1008  UC..1008  -82
    y...1009  OBJ       16
    y...1009  UC..1009  -82
    y...1011  OBJ       10
    y...1011  UC..1011  -82
    y...1016  OBJ       22
    y...1016  UC..1016  -82
    y...1017  OBJ       9
    y...1017  UC..1017  -82
    y...1018  OBJ       9
    y...1018  UC..1018  -82
    y...1021  OBJ       8
    y...1021  UC..1021  -82
    y...1022  OBJ       8
    y...1022  UC..1022  -82
    y...1025  OBJ       19
    y...1025  UC..1025  -82
    y...1027  OBJ       5
    y...1027  UC..1027  -82
    y...1033  OBJ       5
    y...1033  UC..1033  -82
    y...1034  OBJ       5
    y...1034  UC..1034  -82
    y...1035  OBJ       7
    y...1035  UC..1035  -82
    y...1036  OBJ       7
    y...1036  UC..1036  -82
    y...1037  OBJ       3
    y...1037  UC..1037  -82
    y...1038  OBJ       3
    y...1038  UC..1038  -82
    y...1041  OBJ       8
    y...1041  UC..1041  -82
    y...1042  OBJ       8
    y...1042  UC..1042  -82
    y...1043  OBJ       4
    y...1043  UC..1043  -82
    y...1044  OBJ       4
    y...1044  UC..1044  -82
    y...1045  OBJ       18
    y...1045  UC..1045  -82
    y...1050  OBJ       23
    y...1050  UC..1050  -82
    y...1051  OBJ       2
    y...1051  UC..1051  -82
    y...1052  OBJ       2
    y...1052  UC..1052  -82
    y...1054  OBJ       12
    y...1054  UC..1054  -82
    y...1055  OBJ       14
    y...1055  UC..1055  -82
    y...1056  OBJ       14
    y...1056  UC..1056  -82
    y...1058  OBJ       13
    y...1058  UC..1058  -82
    y...1059  OBJ       16
    y...1059  UC..1059  -82
    y...1061  OBJ       7
    y...1061  UC..1061  -82
    y...1062  OBJ       7
    y...1062  UC..1062  -82
    y...1063  OBJ       4
    y...1063  UC..1063  -82
    y...1064  OBJ       4
    y...1064  UC..1064  -82
    y...1065  OBJ       6
    y...1065  UC..1065  -82
    y...1066  OBJ       6
    y...1066  UC..1066  -82
    y...1067  OBJ       7
    y...1067  UC..1067  -82
    y...1068  OBJ       7
    y...1068  UC..1068  -82
    y...1069  OBJ       8
    y...1069  UC..1069  -82
    y...1070  OBJ       8
    y...1070  UC..1070  -82
    y...1073  OBJ       2
    y...1073  UC..1073  -82
    y...1074  OBJ       2
    y...1074  UC..1074  -82
    y...1077  OBJ       12
    y...1077  UC..1077  -82
    y...1079  OBJ       7
    y...1079  UC..1079  -82
    y...1080  OBJ       7
    y...1080  UC..1080  -82
    y...1081  OBJ       10
    y...1081  UC..1081  -82
    y...1082  OBJ       10
    y...1082  UC..1082  -82
    y...1085  OBJ       4
    y...1085  UC..1085  -82
    y...1086  OBJ       4
    y...1086  UC..1086  -82
    y...1087  OBJ       7
    y...1087  UC..1087  -82
    y...1088  OBJ       7
    y...1088  UC..1088  -82
    y...1089  OBJ       10
    y...1089  UC..1089  -82
    y...1090  OBJ       10
    y...1090  UC..1090  -82
    y...1091  OBJ       6
    y...1091  UC..1091  -82
    y...1092  OBJ       6
    y...1092  UC..1092  -82
    y...1093  OBJ       1
    y...1093  UC..1093  -82
    y...1094  OBJ       1
    y...1094  UC..1094  -82
    y...1095  OBJ       6
    y...1095  UC..1095  -82
    y...1096  OBJ       6
    y...1096  UC..1096  -82
    y...1098  OBJ       12
    y...1098  UC..1098  -82
    y...1099  OBJ       7
    y...1099  UC..1099  -82
    y...1100  OBJ       7
    y...1100  UC..1100  -82
    y...1102  OBJ       18
    y...1102  UC..1102  -82
    y...1103  OBJ       3
    y...1103  UC..1103  -82
    y...1104  OBJ       3
    y...1104  UC..1104  -82
    y...1106  OBJ       5
    y...1106  UC..1106  -82
    y...1107  OBJ       4
    y...1107  UC..1107  -82
    y...1108  OBJ       4
    y...1108  UC..1108  -82
    y...1109  OBJ       7
    y...1109  UC..1109  -82
    y...1110  OBJ       7
    y...1110  UC..1110  -82
    y...1112  OBJ       6
    y...1112  UC..1112  -82
    y...1113  OBJ       17
    y...1113  UC..1113  -82
    y...1115  OBJ       4
    y...1115  UC..1115  -82
    y...1116  OBJ       4
    y...1116  UC..1116  -82
    y...1117  OBJ       10
    y...1117  UC..1117  -82
    y...1118  OBJ       10
    y...1118  UC..1118  -82
    y...1120  OBJ       16
    y...1120  UC..1120  -82
    y...1121  OBJ       11
    y...1121  UC..1121  -82
    y...1123  OBJ       2
    y...1123  UC..1123  -82
    y...1124  OBJ       2
    y...1124  UC..1124  -82
    y...1125  OBJ       9
    y...1125  UC..1125  -82
    y...1126  OBJ       9
    y...1126  UC..1126  -82
    y...1128  OBJ       11
    y...1128  UC..1128  -82
    y...1129  OBJ       7
    y...1129  UC..1129  -82
    y...1130  OBJ       7
    y...1130  UC..1130  -82
    y...1135  OBJ       10
    y...1135  UC..1135  -82
    y...1136  OBJ       10
    y...1136  UC..1136  -82
    y...1137  OBJ       3
    y...1137  UC..1137  -82
    y...1138  OBJ       3
    y...1138  UC..1138  -82
    y...1139  OBJ       10
    y...1139  UC..1139  -82
    y...1142  OBJ       19
    y...1142  UC..1142  -82
    y...1143  OBJ       11
    y...1143  UC..1143  -82
    y...1145  OBJ       15
    y...1145  UC..1145  -82
    y...1147  OBJ       2
    y...1147  UC..1147  -82
    y...1148  OBJ       2
    y...1148  UC..1148  -82
    y...1153  OBJ       10
    y...1153  UC..1153  -82
    y...1154  OBJ       10
    y...1154  UC..1154  -82
    y...1155  OBJ       7
    y...1155  UC..1155  -82
    y...1160  OBJ       7
    y...1160  UC..1160  -82
    y...1163  OBJ       10
    y...1163  UC..1163  -82
    y...1164  OBJ       10
    y...1164  UC..1164  -82
    y...1169  OBJ       9
    y...1169  UC..1169  -82
    y...1170  OBJ       9
    y...1170  UC..1170  -82
    y...1171  OBJ       17
    y...1171  UC..1171  -82
    y...1172  OBJ       17
    y...1172  UC..1172  -82
    y...1173  OBJ       5
    y...1173  UC..1173  -82
    y...1175  OBJ       8
    y...1175  UC..1175  -82
    y...1176  OBJ       8
    y...1176  UC..1176  -82
    y...1177  OBJ       10
    y...1177  UC..1177  -82
    y...1178  OBJ       10
    y...1178  UC..1178  -82
    y...1179  OBJ       10
    y...1179  UC..1179  -82
    y...1181  OBJ       5
    y...1181  UC..1181  -82
    y...1182  OBJ       5
    y...1182  UC..1182  -82
    y...1183  OBJ       6
    y...1183  UC..1183  -82
    y...1186  OBJ       14
    y...1186  UC..1186  -82
    y...1187  OBJ       6
    y...1187  UC..1187  -82
    y...1188  OBJ       6
    y...1188  UC..1188  -82
    y...1189  OBJ       3
    y...1189  UC..1189  -82
    y...1190  OBJ       3
    y...1190  UC..1190  -82
    y...1191  OBJ       1
    y...1191  UC..1191  -82
    y...1192  OBJ       1
    y...1192  UC..1192  -82
    y...1193  OBJ       4
    y...1193  UC..1193  -82
    y...1194  OBJ       4
    y...1194  UC..1194  -82
    y...1196  OBJ       10
    y...1196  UC..1196  -82
    y...1197  OBJ       4
    y...1197  UC..1197  -82
    y...1198  OBJ       4
    y...1198  UC..1198  -82
    y...1201  OBJ       13
    y...1201  UC..1201  -82
    y...1202  OBJ       13
    y...1202  UC..1202  -82
    y...1203  OBJ       8
    y...1203  UC..1203  -82
    y...1204  OBJ       8
    y...1204  UC..1204  -82
    y...1205  OBJ       11
    y...1205  UC..1205  -82
    y...1206  OBJ       11
    y...1206  UC..1206  -82
    y...1207  OBJ       4
    y...1207  UC..1207  -82
    y...1208  OBJ       4
    y...1208  UC..1208  -82
    y...1210  OBJ       15
    y...1210  UC..1210  -82
    y...1212  OBJ       11
    y...1212  UC..1212  -82
    y...1214  OBJ       17
    y...1214  UC..1214  -82
    y...1215  OBJ       1
    y...1215  UC..1215  -82
    y...1216  OBJ       1
    y...1216  UC..1216  -82
    y...1217  OBJ       8
    y...1217  UC..1217  -82
    y...1218  OBJ       8
    y...1218  UC..1218  -82
    y...1221  OBJ       19
    y...1221  UC..1221  -82
    y...1223  OBJ       8
    y...1223  UC..1223  -82
    y...1224  OBJ       8
    y...1224  UC..1224  -82
    y...1225  OBJ       10
    y...1225  UC..1225  -82
    y...1227  OBJ       5
    y...1227  UC..1227  -82
    y...1228  OBJ       5
    y...1228  UC..1228  -82
    y...1233  OBJ       5
    y...1233  UC..1233  -82
    y...1236  OBJ       14
    y...1236  UC..1236  -82
    y...1238  OBJ       3
    y...1238  UC..1238  -82
    y...1239  OBJ       5
    y...1239  UC..1239  -82
    y...1240  OBJ       5
    y...1240  UC..1240  -82
    y...1241  OBJ       6
    y...1241  UC..1241  -82
    y...1242  OBJ       6
    y...1242  UC..1242  -82
    y...1243  OBJ       13
    y...1243  UC..1243  -82
    y...1245  OBJ       1
    y...1245  UC..1245  -82
    y...1246  OBJ       1
    y...1246  UC..1246  -82
    y...1247  OBJ       9
    y...1247  UC..1247  -82
    y...1248  OBJ       9
    y...1248  UC..1248  -82
    y...1249  OBJ       9
    y...1249  UC..1249  -82
    y...1250  OBJ       9
    y...1250  UC..1250  -82
    MARKER    'MARKER'                 'INTEND'
RHS
    RHS1      OBJ       -205
    RHS1      CNS..003  1
    RHS1      CNS..009  1
    RHS1      CNS..012  1
    RHS1      CNS..015  1
    RHS1      CNS..016  1
    RHS1      CNS..031  1
    RHS1      CNS..038  1
    RHS1      CNS..043  1
    RHS1      CNS..073  1
    RHS1      CNS..077  1
    RHS1      CNS..083  1
    RHS1      CNS..084  1
    RHS1      CNS..091  1
    RHS1      CNS..098  1
    RHS1      CNS..103  1
    RHS1      CNS..118  1
    RHS1      CNS..123  1
    RHS1      CNS..129  1
    RHS1      CNS..130  1
    RHS1      CNS..132  2
    RHS1      CNS..133  2
    RHS1      CNS..138  1
    RHS1      CNS..146  1
    RHS1      CNS..154  1
    RHS1      CNS..156  1
    RHS1      CNS..174  1
    RHS1      CNS..184  1
    RHS1      CNS..188  1
    RHS1      CNS..190  1
    RHS1      CNS..201  1
    RHS1      CNS..203  1
    RHS1      CNS..204  1
    RHS1      CNS..215  1
    RHS1      CNS..216  1
    RHS1      CNS..217  1
    RHS1      CNS..224  1
    RHS1      CNS..232  2
    RHS1      CNS..238  1
    RHS1      CNS..240  1
    RHS1      CNS..241  1
    RHS1      CNS..246  1
    RHS1      CNS..249  1
    RHS1      CNS..254  1
    RHS1      CNS..264  2
    RHS1      CNS..265  1
    RHS1      CNS..271  2
    RHS1      CNS..272  1
    RHS1      CNS..277  1
    RHS1      CNS..281  1
    RHS1      CNS..284  1
    RHS1      CNS..298  1
    RHS1      CNS..309  1
    RHS1      CNS..311  1
    RHS1      CNS..320  -82
    RHS1      CNS..335  1
    RHS1      CNS..340  1
    RHS1      CNS..342  1
    RHS1      CNS..357  1
    RHS1      CNS..360  1
    RHS1      CNS..363  1
    RHS1      CNS..367  1
    RHS1      CNS..387  1
    RHS1      CNS..400  1
    RHS1      CNS..409  1
    RHS1      CNS..414  1
    RHS1      CNS..425  2
    RHS1      CNS..437  1
    RHS1      CNS..439  1
    RHS1      CNS..448  1
    RHS1      CNS..479  1
    RHS1      CNS..482  1
    RHS1      CNS..489  2
    RHS1      CNS..494  1
    RHS1      CNS..496  1
    RHS1      CNS..498  2
BOUNDS
 UP BND1      x...0001  82
 UP BND1      x...0002  82
 UP BND1      x...0003  82
 UP BND1      x...0004  82
 UP BND1      x...0005  82
 UP BND1      x...0006  82
 UP BND1      x...0007  82
 UP BND1      x...0008  82
 UP BND1      x...0009  82
 UP BND1      x...0010  82
 UP BND1      x...0011  82
 UP BND1      x...0012  82
 UP BND1      x...0013  82
 UP BND1      x...0014  82
 UP BND1      x...0015  82
 UP BND1      x...0016  82
 UP BND1      x...0017  82
 UP BND1      x...0018  82
 UP BND1      x...0019  82
 UP BND1      x...0020  82
 UP BND1      x...0021  82
 UP BND1      x...0022  82
 UP BND1      x...0025  82
 UP BND1      x...0026  82
 UP BND1      x...0028  82
 UP BND1      x...0029  82
 UP BND1      x...0030  82
 UP BND1      x...0031  82
 UP BND1      x...0032  82
 UP BND1      x...0035  82
 UP BND1      x...0036  82
 UP BND1      x...0037  82
 UP BND1      x...0038  82
 UP BND1      x...0039  82
 UP BND1      x...0040  82
 UP BND1      x...0041  82
 UP BND1      x...0042  82
 UP BND1      x...0045  82
 UP BND1      x...0046  82
 UP BND1      x...0047  82
 UP BND1      x...0048  82
 UP BND1      x...0049  82
 UP BND1      x...0050  82
 UP BND1      x...0051  82
 UP BND1      x...0052  82
 UP BND1      x...0053  82
 UP BND1      x...0054  82
 UP BND1      x...0055  82
 UP BND1      x...0056  82
 UP BND1      x...0057  82
 UP BND1      x...0058  82
 UP BND1      x...0059  82
 UP BND1      x...0060  82
 UP BND1      x...0061  82
 UP BND1      x...0062  82
 UP BND1      x...0063  82
 UP BND1      x...0064  82
 UP BND1      x...0065  82
 UP BND1      x...0066  82
 UP BND1      x...0067  82
 UP BND1      x...0068  82
 UP BND1      x...0069  82
 UP BND1      x...0070  82
 UP BND1      x...0071  82
 UP BND1      x...0072  82
 UP BND1      x...0073  82
 UP BND1      x...0074  82
 UP BND1      x...0075  82
 UP BND1      x...0077  82
 UP BND1      x...0078  82
 UP BND1      x...0079  82
 UP BND1      x...0080  82
 UP BND1      x...0081  82
 UP BND1      x...0082  82
 UP BND1      x...0083  82
 UP BND1      x...0084  82
 UP BND1      x...0085  82
 UP BND1      x...0086  82
 UP BND1      x...0087  82
 UP BND1      x...0088  82
 UP BND1      x...0089  82
 UP BND1      x...0090  82
 UP BND1      x...0091  82
 UP BND1      x...0092  82
 UP BND1      x...0093  82
 UP BND1      x...0094  82
 UP BND1      x...0096  82
 UP BND1      x...0097  82
 UP BND1      x...0098  82
 UP BND1      x...0099  82
 UP BND1      x...0100  82
 UP BND1      x...0103  82
 UP BND1      x...0104  82
 UP BND1      x...0105  82
 UP BND1      x...0106  82
 UP BND1      x...0109  82
 UP BND1      x...0110  82
 UP BND1      x...0111  82
 UP BND1      x...0112  82
 UP BND1      x...0113  82
 UP BND1      x...0115  82
 UP BND1      x...0116  82
 UP BND1      x...0117  82
 UP BND1      x...0118  82
 UP BND1      x...0119  82
 UP BND1      x...0120  82
 UP BND1      x...0121  82
 UP BND1      x...0122  82
 UP BND1      x...0123  82
 UP BND1      x...0124  82
 UP BND1      x...0125  82
 UP BND1      x...0126  82
 UP BND1      x...0127  82
 UP BND1      x...0128  82
 UP BND1      x...0129  82
 UP BND1      x...0130  82
 UP BND1      x...0133  82
 UP BND1      x...0135  82
 UP BND1      x...0137  82
 UP BND1      x...0138  82
 UP BND1      x...0139  82
 UP BND1      x...0140  82
 UP BND1      x...0143  82
 UP BND1      x...0144  82
 UP BND1      x...0145  82
 UP BND1      x...0146  82
 UP BND1      x...0147  82
 UP BND1      x...0148  82
 UP BND1      x...0149  82
 UP BND1      x...0150  82
 UP BND1      x...0151  82
 UP BND1      x...0152  82
 UP BND1      x...0156  82
 UP BND1      x...0164  82
 UP BND1      x...0170  82
 UP BND1      x...0171  82
 UP BND1      x...0172  82
 UP BND1      x...0173  82
 UP BND1      x...0175  82
 UP BND1      x...0176  82
 UP BND1      x...0179  82
 UP BND1      x...0180  82
 UP BND1      x...0181  82
 UP BND1      x...0182  82
 UP BND1      x...0185  82
 UP BND1      x...0187  82
 UP BND1      x...0191  82
 UP BND1      x...0193  82
 UP BND1      x...0194  82
 UP BND1      x...0195  82
 UP BND1      x...0196  82
 UP BND1      x...0199  82
 UP BND1      x...0200  82
 UP BND1      x...0201  82
 UP BND1      x...0202  82
 UP BND1      x...0203  82
 UP BND1      x...0204  82
 UP BND1      x...0205  82
 UP BND1      x...0206  82
 UP BND1      x...0207  82
 UP BND1      x...0208  82
 UP BND1      x...0211  82
 UP BND1      x...0212  82
 UP BND1      x...0215  82
 UP BND1      x...0217  82
 UP BND1      x...0218  82
 UP BND1      x...0221  82
 UP BND1      x...0222  82
 UP BND1      x...0223  82
 UP BND1      x...0224  82
 UP BND1      x...0225  82
 UP BND1      x...0226  82
 UP BND1      x...0227  82
 UP BND1      x...0228  82
 UP BND1      x...0231  82
 UP BND1      x...0232  82
 UP BND1      x...0233  82
 UP BND1      x...0234  82
 UP BND1      x...0237  82
 UP BND1      x...0238  82
 UP BND1      x...0243  82
 UP BND1      x...0244  82
 UP BND1      x...0245  82
 UP BND1      x...0246  82
 UP BND1      x...0247  82
 UP BND1      x...0249  82
 UP BND1      x...0250  82
 UP BND1      x...0251  82
 UP BND1      x...0252  82
 UP BND1      x...0253  82
 UP BND1      x...0255  82
 UP BND1      x...0257  82
 UP BND1      x...0258  82
 UP BND1      x...0261  82
 UP BND1      x...0262  82
 UP BND1      x...0264  82
 UP BND1      x...0267  82
 UP BND1      x...0268  82
 UP BND1      x...0269  82
 UP BND1      x...0270  82
 UP BND1      x...0271  82
 UP BND1      x...0273  82
 UP BND1      x...0276  82
 UP BND1      x...0278  82
 UP BND1      x...0281  82
 UP BND1      x...0282  82
 UP BND1      x...0283  82
 UP BND1      x...0286  82
 UP BND1      x...0287  82
 UP BND1      x...0289  82
 UP BND1      x...0295  82
 UP BND1      x...0298  82
 UP BND1      x...0299  82
 UP BND1      x...0300  82
 UP BND1      x...0301  82
 UP BND1      x...0302  82
 UP BND1      x...0303  82
 UP BND1      x...0306  82
 UP BND1      x...0307  82
 UP BND1      x...0308  82
 UP BND1      x...0309  82
 UP BND1      x...0310  82
 UP BND1      x...0311  82
 UP BND1      x...0312  82
 UP BND1      x...0313  82
 UP BND1      x...0314  82
 UP BND1      x...0316  82
 UP BND1      x...0320  82
 UP BND1      x...0321  82
 UP BND1      x...0322  82
 UP BND1      x...0327  82
 UP BND1      x...0328  82
 UP BND1      x...0336  82
 UP BND1      x...0337  82
 UP BND1      x...0339  82
 UP BND1      x...0340  82
 UP BND1      x...0347  82
 UP BND1      x...0349  82
 UP BND1      x...0350  82
 UP BND1      x...0357  82
 UP BND1      x...0359  82
 UP BND1      x...0360  82
 UP BND1      x...0361  82
 UP BND1      x...0362  82
 UP BND1      x...0365  82
 UP BND1      x...0366  82
 UP BND1      x...0367  82
 UP BND1      x...0368  82
 UP BND1      x...0370  82
 UP BND1      x...0371  82
 UP BND1      x...0373  82
 UP BND1      x...0374  82
 UP BND1      x...0377  82
 UP BND1      x...0380  82
 UP BND1      x...0384  82
 UP BND1      x...0385  82
 UP BND1      x...0388  82
 UP BND1      x...0393  82
 UP BND1      x...0394  82
 UP BND1      x...0395  82
 UP BND1      x...0396  82
 UP BND1      x...0397  82
 UP BND1      x...0400  82
 UP BND1      x...0405  82
 UP BND1      x...0406  82
 UP BND1      x...0407  82
 UP BND1      x...0408  82
 UP BND1      x...0409  82
 UP BND1      x...0413  82
 UP BND1      x...0417  82
 UP BND1      x...0419  82
 UP BND1      x...0420  82
 UP BND1      x...0421  82
 UP BND1      x...0422  82
 UP BND1      x...0423  82
 UP BND1      x...0429  82
 UP BND1      x...0433  82
 UP BND1      x...0434  82
 UP BND1      x...0437  82
 UP BND1      x...0438  82
 UP BND1      x...0441  82
 UP BND1      x...0445  82
 UP BND1      x...0446  82
 UP BND1      x...0447  82
 UP BND1      x...0448  82
 UP BND1      x...0451  82
 UP BND1      x...0452  82
 UP BND1      x...0455  82
 UP BND1      x...0457  82
 UP BND1      x...0461  82
 UP BND1      x...0463  82
 UP BND1      x...0464  82
 UP BND1      x...0469  82
 UP BND1      x...0475  82
 UP BND1      x...0476  82
 UP BND1      x...0477  82
 UP BND1      x...0478  82
 UP BND1      x...0479  82
 UP BND1      x...0483  82
 UP BND1      x...0485  82
 UP BND1      x...0495  82
 UP BND1      x...0497  82
 UP BND1      x...0498  82
 UP BND1      x...0502  82
 UP BND1      x...0503  82
 UP BND1      x...0504  82
 UP BND1      x...0507  82
 UP BND1      x...0508  82
 UP BND1      x...0513  82
 UP BND1      x...0514  82
 UP BND1      x...0521  82
 UP BND1      x...0522  82
 UP BND1      x...0525  82
 UP BND1      x...0526  82
 UP BND1      x...0528  82
 UP BND1      x...0529  82
 UP BND1      x...0533  82
 UP BND1      x...0534  82
 UP BND1      x...0547  82
 UP BND1      x...0551  82
 UP BND1      x...0552  82
 UP BND1      x...0553  82
 UP BND1      x...0563  82
 UP BND1      x...0564  82
 UP BND1      x...0565  82
 UP BND1      x...0566  82
 UP BND1      x...0570  82
 UP BND1      x...0572  82
 UP BND1      x...0579  82
 UP BND1      x...0580  82
 UP BND1      x...0583  82
 UP BND1      x...0586  82
 UP BND1      x...0589  82
 UP BND1      x...0590  82
 UP BND1      x...0591  82
 UP BND1      x...0594  82
 UP BND1      x...0595  82
 UP BND1      x...0596  82
 UP BND1      x...0597  82
 UP BND1      x...0598  82
 UP BND1      x...0599  82
 UP BND1      x...0602  82
 UP BND1      x...0603  82
 UP BND1      x...0604  82
 UP BND1      x...0609  82
 UP BND1      x...0610  82
 UP BND1      x...0611  82
 UP BND1      x...0631  82
 UP BND1      x...0632  82
 UP BND1      x...0633  82
 UP BND1      x...0634  82
 UP BND1      x...0643  82
 UP BND1      x...0644  82
 UP BND1      x...0647  82
 UP BND1      x...0649  82
 UP BND1      x...0651  82
 UP BND1      x...0652  82
 UP BND1      x...0655  82
 UP BND1      x...0657  82
 UP BND1      x...0658  82
 UP BND1      x...0661  82
 UP BND1      x...0665  82
 UP BND1      x...0667  82
 UP BND1      x...0670  82
 UP BND1      x...0674  82
 UP BND1      x...0676  82
 UP BND1      x...0679  82
 UP BND1      x...0680  82
 UP BND1      x...0682  82
 UP BND1      x...0689  82
 UP BND1      x...0690  82
 UP BND1      x...0696  82
 UP BND1      x...0699  82
 UP BND1      x...0707  82
 UP BND1      x...0715  82
 UP BND1      x...0717  82
 UP BND1      x...0718  82
 UP BND1      x...0721  82
 UP BND1      x...0722  82
 UP BND1      x...0725  82
 UP BND1      x...0749  82
 UP BND1      x...0750  82
 UP BND1      x...0753  82
 UP BND1      x...0754  82
 UP BND1      x...0764  82
 UP BND1      x...0773  82
 UP BND1      x...0783  82
 UP BND1      x...0784  82
 UP BND1      x...0785  82
 UP BND1      x...0786  82
 UP BND1      x...0787  82
 UP BND1      x...0791  82
 UP BND1      x...0792  82
 UP BND1      x...0793  82
 UP BND1      x...0794  82
 UP BND1      x...0800  82
 UP BND1      x...0802  82
 UP BND1      x...0804  82
 UP BND1      x...0805  82
 UP BND1      x...0806  82
 UP BND1      x...0823  82
 UP BND1      x...0824  82
 UP BND1      x...0830  82
 UP BND1      x...0837  82
 UP BND1      x...0841  82
 UP BND1      x...0842  82
 UP BND1      x...0849  82
 UP BND1      x...0853  82
 UP BND1      x...0854  82
 UP BND1      x...0855  82
 UP BND1      x...0856  82
 UP BND1      x...0858  82
 UP BND1      x...0869  82
 UP BND1      x...0876  82
 UP BND1      x...0879  82
 UP BND1      x...0883  82
 UP BND1      x...0886  82
 UP BND1      x...0887  82
 UP BND1      x...0899  82
 UP BND1      x...0900  82
 UP BND1      x...0901  82
 UP BND1      x...0911  82
 UP BND1      x...0913  82
 UP BND1      x...0914  82
 UP BND1      x...0916  82
 UP BND1      x...0918  82
 UP BND1      x...0921  82
 UP BND1      x...0922  82
 UP BND1      x...0924  82
 UP BND1      x...0925  82
 UP BND1      x...0945  82
 UP BND1      x...0946  82
 UP BND1      x...0947  82
 UP BND1      x...0948  82
 UP BND1      x...0961  82
 UP BND1      x...0975  82
 UP BND1      x...0982  82
 UP BND1      x...0985  82
 UP BND1      x...0987  82
 UP BND1      x...0991  82
 UP BND1      x...1001  82
 UP BND1      x...1002  82
 UP BND1      x...1003  82
 UP BND1      x...1005  82
 UP BND1      x...1006  82
 UP BND1      x...1008  82
 UP BND1      x...1010  82
 UP BND1      x...1011  82
 UP BND1      x...1016  82
 UP BND1      x...1017  82
 UP BND1      x...1018  82
 UP BND1      x...1019  82
 UP BND1      x...1021  82
 UP BND1      x...1023  82
 UP BND1      x...1025  82
 UP BND1      x...1027  82
 UP BND1      x...1029  82
 UP BND1      x...1033  82
 UP BND1      x...1034  82
 UP BND1      x...1035  82
 UP BND1      x...1036  82
 UP BND1      x...1037  82
 UP BND1      x...1038  82
 UP BND1      x...1040  82
 UP BND1      x...1041  82
 UP BND1      x...1042  82
 UP BND1      x...1043  82
 UP BND1      x...1046  82
 UP BND1      x...1047  82
 UP BND1      x...1051  82
 UP BND1      x...1052  82
 UP BND1      x...1055  82
 UP BND1      x...1057  82
 UP BND1      x...1060  82
 UP BND1      x...1061  82
 UP BND1      x...1062  82
 UP BND1      x...1063  82
 UP BND1      x...1064  82
 UP BND1      x...1065  82
 UP BND1      x...1066  82
 UP BND1      x...1067  82
 UP BND1      x...1068  82
 UP BND1      x...1069  82
 UP BND1      x...1070  82
 UP BND1      x...1073  82
 UP BND1      x...1074  82
 UP BND1      x...1075  82
 UP BND1      x...1077  82
 UP BND1      x...1079  82
 UP BND1      x...1080  82
 UP BND1      x...1081  82
 UP BND1      x...1082  82
 UP BND1      x...1083  82
 UP BND1      x...1085  82
 UP BND1      x...1087  82
 UP BND1      x...1088  82
 UP BND1      x...1089  82
 UP BND1      x...1090  82
 UP BND1      x...1091  82
 UP BND1      x...1092  82
 UP BND1      x...1093  82
 UP BND1      x...1094  82
 UP BND1      x...1095  82
 UP BND1      x...1096  82
 UP BND1      x...1098  82
 UP BND1      x...1099  82
 UP BND1      x...1100  82
 UP BND1      x...1102  82
 UP BND1      x...1103  82
 UP BND1      x...1104  82
 UP BND1      x...1105  82
 UP BND1      x...1107  82
 UP BND1      x...1108  82
 UP BND1      x...1109  82
 UP BND1      x...1110  82
 UP BND1      x...1112  82
 UP BND1      x...1113  82
 UP BND1      x...1115  82
 UP BND1      x...1116  82
 UP BND1      x...1118  82
 UP BND1      x...1119  82
 UP BND1      x...1123  82
 UP BND1      x...1124  82
 UP BND1      x...1125  82
 UP BND1      x...1126  82
 UP BND1      x...1128  82
 UP BND1      x...1129  82
 UP BND1      x...1130  82
 UP BND1      x...1132  82
 UP BND1      x...1134  82
 UP BND1      x...1135  82
 UP BND1      x...1136  82
 UP BND1      x...1137  82
 UP BND1      x...1138  82
 UP BND1      x...1140  82
 UP BND1      x...1142  82
 UP BND1      x...1143  82
 UP BND1      x...1146  82
 UP BND1      x...1147  82
 UP BND1      x...1148  82
 UP BND1      x...1150  82
 UP BND1      x...1151  82
 UP BND1      x...1153  82
 UP BND1      x...1154  82
 UP BND1      x...1156  82
 UP BND1      x...1157  82
 UP BND1      x...1159  82
 UP BND1      x...1162  82
 UP BND1      x...1163  82
 UP BND1      x...1164  82
 UP BND1      x...1165  82
 UP BND1      x...1168  82
 UP BND1      x...1169  82
 UP BND1      x...1170  82
 UP BND1      x...1172  82
 UP BND1      x...1174  82
 UP BND1      x...1175  82
 UP BND1      x...1176  82
 UP BND1      x...1177  82
 UP BND1      x...1180  82
 UP BND1      x...1181  82
 UP BND1      x...1182  82
 UP BND1      x...1184  82
 UP BND1      x...1185  82
 UP BND1      x...1187  82
 UP BND1      x...1188  82
 UP BND1      x...1189  82
 UP BND1      x...1190  82
 UP BND1      x...1191  82
 UP BND1      x...1192  82
 UP BND1      x...1193  82
 UP BND1      x...1194  82
 UP BND1      x...1196  82
 UP BND1      x...1197  82
 UP BND1      x...1198  82
 UP BND1      x...1199  82
 UP BND1      x...1202  82
 UP BND1      x...1203  82
 UP BND1      x...1204  82
 UP BND1      x...1206  82
 UP BND1      x...1207  82
 UP BND1      x...1208  82
 UP BND1      x...1212  82
 UP BND1      x...1213  82
 UP BND1      x...1215  82
 UP BND1      x...1216  82
 UP BND1      x...1217  82
 UP BND1      x...1218  82
 UP BND1      x...1220  82
 UP BND1      x...1221  82
 UP BND1      x...1223  82
 UP BND1      x...1224  82
 UP BND1      x...1226  82
 UP BND1      x...1227  82
 UP BND1      x...1228  82
 UP BND1      x...1229  82
 UP BND1      x...1231  82
 UP BND1      x...1233  82
 UP BND1      x...1236  82
 UP BND1      x...1237  82
 UP BND1      x...1239  82
 UP BND1      x...1240  82
 UP BND1      x...1241  82
 UP BND1      x...1242  82
 UP BND1      x...1243  82
 UP BND1      x...1245  82
 UP BND1      x...1246  82
 UP BND1      x...1247  82
 UP BND1      x...1248  82
 UP BND1      x...1249  82
 BV BND1      y...0001
 BV BND1      y...0002
 BV BND1      y...0003
 BV BND1      y...0004
 BV BND1      y...0005
 BV BND1      y...0006
 BV BND1      y...0007
 BV BND1      y...0008
 BV BND1      y...0009
 BV BND1      y...0010
 BV BND1      y...0011
 BV BND1      y...0012
 BV BND1      y...0013
 BV BND1      y...0014
 BV BND1      y...0015
 BV BND1      y...0016
 BV BND1      y...0017
 BV BND1      y...0018
 BV BND1      y...0019
 BV BND1      y...0020
 BV BND1      y...0021
 BV BND1      y...0022
 BV BND1      y...0025
 BV BND1      y...0026
 BV BND1      y...0029
 BV BND1      y...0030
 BV BND1      y...0031
 BV BND1      y...0032
 BV BND1      y...0035
 BV BND1      y...0036
 BV BND1      y...0037
 BV BND1      y...0038
 BV BND1      y...0039
 BV BND1      y...0040
 BV BND1      y...0041
 BV BND1      y...0042
 BV BND1      y...0045
 BV BND1      y...0046
 BV BND1      y...0047
 BV BND1      y...0048
 BV BND1      y...0049
 BV BND1      y...0050
 BV BND1      y...0051
 BV BND1      y...0052
 BV BND1      y...0053
 BV BND1      y...0054
 BV BND1      y...0055
 BV BND1      y...0056
 BV BND1      y...0057
 BV BND1      y...0058
 BV BND1      y...0059
 BV BND1      y...0060
 BV BND1      y...0061
 BV BND1      y...0062
 BV BND1      y...0063
 BV BND1      y...0064
 BV BND1      y...0065
 BV BND1      y...0066
 BV BND1      y...0067
 BV BND1      y...0068
 BV BND1      y...0069
 BV BND1      y...0070
 BV BND1      y...0071
 BV BND1      y...0072
 BV BND1      y...0073
 BV BND1      y...0074
 BV BND1      y...0075
 BV BND1      y...0077
 BV BND1      y...0078
 BV BND1      y...0079
 BV BND1      y...0080
 BV BND1      y...0081
 BV BND1      y...0082
 BV BND1      y...0083
 BV BND1      y...0084
 BV BND1      y...0085
 BV BND1      y...0086
 BV BND1      y...0087
 BV BND1      y...0088
 BV BND1      y...0089
 BV BND1      y...0090
 BV BND1      y...0091
 BV BND1      y...0092
 BV BND1      y...0093
 BV BND1      y...0094
 BV BND1      y...0095
 BV BND1      y...0097
 BV BND1      y...0098
 BV BND1      y...0099
 BV BND1      y...0100
 BV BND1      y...0103
 BV BND1      y...0104
 BV BND1      y...0105
 BV BND1      y...0106
 BV BND1      y...0109
 BV BND1      y...0110
 BV BND1      y...0111
 BV BND1      y...0112
 BV BND1      y...0113
 BV BND1      y...0115
 BV BND1      y...0116
 BV BND1      y...0117
 BV BND1      y...0118
 BV BND1      y...0119
 BV BND1      y...0120
 BV BND1      y...0121
 BV BND1      y...0122
 BV BND1      y...0123
 BV BND1      y...0124
 BV BND1      y...0125
 BV BND1      y...0126
 BV BND1      y...0127
 BV BND1      y...0128
 BV BND1      y...0129
 BV BND1      y...0130
 BV BND1      y...0132
 BV BND1      y...0133
 BV BND1      y...0135
 BV BND1      y...0137
 BV BND1      y...0138
 BV BND1      y...0139
 BV BND1      y...0140
 BV BND1      y...0143
 BV BND1      y...0144
 BV BND1      y...0145
 BV BND1      y...0146
 BV BND1      y...0147
 BV BND1      y...0148
 BV BND1      y...0149
 BV BND1      y...0150
 BV BND1      y...0151
 BV BND1      y...0152
 BV BND1      y...0156
 BV BND1      y...0163
 BV BND1      y...0170
 BV BND1      y...0171
 BV BND1      y...0172
 BV BND1      y...0174
 BV BND1      y...0175
 BV BND1      y...0176
 BV BND1      y...0179
 BV BND1      y...0180
 BV BND1      y...0181
 BV BND1      y...0182
 BV BND1      y...0185
 BV BND1      y...0187
 BV BND1      y...0191
 BV BND1      y...0192
 BV BND1      y...0193
 BV BND1      y...0194
 BV BND1      y...0195
 BV BND1      y...0196
 BV BND1      y...0197
 BV BND1      y...0199
 BV BND1      y...0200
 BV BND1      y...0201
 BV BND1      y...0202
 BV BND1      y...0203
 BV BND1      y...0204
 BV BND1      y...0205
 BV BND1      y...0206
 BV BND1      y...0207
 BV BND1      y...0208
 BV BND1      y...0211
 BV BND1      y...0212
 BV BND1      y...0215
 BV BND1      y...0217
 BV BND1      y...0218
 BV BND1      y...0221
 BV BND1      y...0222
 BV BND1      y...0223
 BV BND1      y...0224
 BV BND1      y...0225
 BV BND1      y...0226
 BV BND1      y...0227
 BV BND1      y...0228
 BV BND1      y...0231
 BV BND1      y...0232
 BV BND1      y...0233
 BV BND1      y...0234
 BV BND1      y...0237
 BV BND1      y...0238
 BV BND1      y...0243
 BV BND1      y...0244
 BV BND1      y...0245
 BV BND1      y...0246
 BV BND1      y...0248
 BV BND1      y...0249
 BV BND1      y...0250
 BV BND1      y...0251
 BV BND1      y...0252
 BV BND1      y...0253
 BV BND1      y...0254
 BV BND1      y...0256
 BV BND1      y...0257
 BV BND1      y...0258
 BV BND1      y...0260
 BV BND1      y...0261
 BV BND1      y...0262
 BV BND1      y...0264
 BV BND1      y...0267
 BV BND1      y...0268
 BV BND1      y...0269
 BV BND1      y...0270
 BV BND1      y...0271
 BV BND1      y...0272
 BV BND1      y...0274
 BV BND1      y...0275
 BV BND1      y...0276
 BV BND1      y...0281
 BV BND1      y...0282
 BV BND1      y...0285
 BV BND1      y...0289
 BV BND1      y...0299
 BV BND1      y...0300
 BV BND1      y...0301
 BV BND1      y...0302
 BV BND1      y...0303
 BV BND1      y...0306
 BV BND1      y...0307
 BV BND1      y...0308
 BV BND1      y...0309
 BV BND1      y...0310
 BV BND1      y...0311
 BV BND1      y...0312
 BV BND1      y...0313
 BV BND1      y...0314
 BV BND1      y...0320
 BV BND1      y...0321
 BV BND1      y...0322
 BV BND1      y...0327
 BV BND1      y...0328
 BV BND1      y...0335
 BV BND1      y...0339
 BV BND1      y...0340
 BV BND1      y...0347
 BV BND1      y...0348
 BV BND1      y...0349
 BV BND1      y...0350
 BV BND1      y...0358
 BV BND1      y...0359
 BV BND1      y...0360
 BV BND1      y...0361
 BV BND1      y...0362
 BV BND1      y...0365
 BV BND1      y...0366
 BV BND1      y...0367
 BV BND1      y...0368
 BV BND1      y...0369
 BV BND1      y...0372
 BV BND1      y...0373
 BV BND1      y...0374
 BV BND1      y...0379
 BV BND1      y...0383
 BV BND1      y...0384
 BV BND1      y...0386
 BV BND1      y...0393
 BV BND1      y...0394
 BV BND1      y...0395
 BV BND1      y...0396
 BV BND1      y...0398
 BV BND1      y...0399
 BV BND1      y...0400
 BV BND1      y...0405
 BV BND1      y...0406
 BV BND1      y...0407
 BV BND1      y...0408
 BV BND1      y...0409
 BV BND1      y...0410
 BV BND1      y...0413
 BV BND1      y...0419
 BV BND1      y...0420
 BV BND1      y...0421
 BV BND1      y...0422
 BV BND1      y...0424
 BV BND1      y...0429
 BV BND1      y...0433
 BV BND1      y...0434
 BV BND1      y...0437
 BV BND1      y...0438
 BV BND1      y...0441
 BV BND1      y...0445
 BV BND1      y...0446
 BV BND1      y...0447
 BV BND1      y...0448
 BV BND1      y...0451
 BV BND1      y...0452
 BV BND1      y...0455
 BV BND1      y...0456
 BV BND1      y...0463
 BV BND1      y...0464
 BV BND1      y...0468
 BV BND1      y...0470
 BV BND1      y...0475
 BV BND1      y...0476
 BV BND1      y...0477
 BV BND1      y...0478
 BV BND1      y...0480
 BV BND1      y...0483
 BV BND1      y...0495
 BV BND1      y...0496
 BV BND1      y...0497
 BV BND1      y...0498
 BV BND1      y...0501
 BV BND1      y...0503
 BV BND1      y...0504
 BV BND1      y...0507
 BV BND1      y...0508
 BV BND1      y...0512
 BV BND1      y...0513
 BV BND1      y...0514
 BV BND1      y...0521
 BV BND1      y...0522
 BV BND1      y...0525
 BV BND1      y...0526
 BV BND1      y...0529
 BV BND1      y...0530
 BV BND1      y...0533
 BV BND1      y...0534
 BV BND1      y...0544
 BV BND1      y...0547
 BV BND1      y...0551
 BV BND1      y...0552
 BV BND1      y...0553
 BV BND1      y...0563
 BV BND1      y...0564
 BV BND1      y...0565
 BV BND1      y...0566
 BV BND1      y...0570
 BV BND1      y...0578
 BV BND1      y...0579
 BV BND1      y...0580
 BV BND1      y...0586
 BV BND1      y...0589
 BV BND1      y...0590
 BV BND1      y...0591
 BV BND1      y...0595
 BV BND1      y...0596
 BV BND1      y...0597
 BV BND1      y...0598
 BV BND1      y...0603
 BV BND1      y...0604
 BV BND1      y...0609
 BV BND1      y...0610
 BV BND1      y...0631
 BV BND1      y...0632
 BV BND1      y...0633
 BV BND1      y...0634
 BV BND1      y...0643
 BV BND1      y...0644
 BV BND1      y...0649
 BV BND1      y...0651
 BV BND1      y...0652
 BV BND1      y...0655
 BV BND1      y...0656
 BV BND1      y...0657
 BV BND1      y...0658
 BV BND1      y...0662
 BV BND1      y...0669
 BV BND1      y...0671
 BV BND1      y...0674
 BV BND1      y...0676
 BV BND1      y...0679
 BV BND1      y...0680
 BV BND1      y...0681
 BV BND1      y...0689
 BV BND1      y...0690
 BV BND1      y...0693
 BV BND1      y...0694
 BV BND1      y...0695
 BV BND1      y...0696
 BV BND1      y...0700
 BV BND1      y...0715
 BV BND1      y...0716
 BV BND1      y...0717
 BV BND1      y...0718
 BV BND1      y...0719
 BV BND1      y...0721
 BV BND1      y...0722
 BV BND1      y...0749
 BV BND1      y...0750
 BV BND1      y...0753
 BV BND1      y...0754
 BV BND1      y...0764
 BV BND1      y...0783
 BV BND1      y...0784
 BV BND1      y...0785
 BV BND1      y...0786
 BV BND1      y...0788
 BV BND1      y...0791
 BV BND1      y...0792
 BV BND1      y...0793
 BV BND1      y...0794
 BV BND1      y...0799
 BV BND1      y...0803
 BV BND1      y...0805
 BV BND1      y...0806
 BV BND1      y...0816
 BV BND1      y...0823
 BV BND1      y...0824
 BV BND1      y...0829
 BV BND1      y...0830
 BV BND1      y...0837
 BV BND1      y...0838
 BV BND1      y...0841
 BV BND1      y...0842
 BV BND1      y...0850
 BV BND1      y...0853
 BV BND1      y...0854
 BV BND1      y...0855
 BV BND1      y...0856
 BV BND1      y...0869
 BV BND1      y...0870
 BV BND1      y...0875
 BV BND1      y...0876
 BV BND1      y...0880
 BV BND1      y...0883
 BV BND1      y...0887
 BV BND1      y...0888
 BV BND1      y...0899
 BV BND1      y...0900
 BV BND1      y...0911
 BV BND1      y...0913
 BV BND1      y...0914
 BV BND1      y...0916
 BV BND1      y...0918
 BV BND1      y...0920
 BV BND1      y...0921
 BV BND1      y...0922
 BV BND1      y...0925
 BV BND1      y...0926
 BV BND1      y...0945
 BV BND1      y...0946
 BV BND1      y...0947
 BV BND1      y...0948
 BV BND1      y...0953
 BV BND1      y...0962
 BV BND1      y...0975
 BV BND1      y...0980
 BV BND1      y...0982
 BV BND1      y...0985
 BV BND1      y...0986
 BV BND1      y...0987
 BV BND1      y...0988
 BV BND1      y...0992
 BV BND1      y...0996
 BV BND1      y...1001
 BV BND1      y...1002
 BV BND1      y...1005
 BV BND1      y...1006
 BV BND1      y...1008
 BV BND1      y...1009
 BV BND1      y...1011
 BV BND1      y...1016
 BV BND1      y...1017
 BV BND1      y...1018
 BV BND1      y...1021
 BV BND1      y...1022
 BV BND1      y...1025
 BV BND1      y...1027
 BV BND1      y...1033
 BV BND1      y...1034
 BV BND1      y...1035
 BV BND1      y...1036
 BV BND1      y...1037
 BV BND1      y...1038
 BV BND1      y...1041
 BV BND1      y...1042
 BV BND1      y...1043
 BV BND1      y...1044
 BV BND1      y...1045
 BV BND1      y...1050
 BV BND1      y...1051
 BV BND1      y...1052
 BV BND1      y...1054
 BV BND1      y...1055
 BV BND1      y...1056
 BV BND1      y...1058
 BV BND1      y...1059
 BV BND1      y...1061
 BV BND1      y...1062
 BV BND1      y...1063
 BV BND1      y...1064
 BV BND1      y...1065
 BV BND1      y...1066
 BV BND1      y...1067
 BV BND1      y...1068
 BV BND1      y...1069
 BV BND1      y...1070
 BV BND1      y...1073
 BV BND1      y...1074
 BV BND1      y...1077
 BV BND1      y...1079
 BV BND1      y...1080
 BV BND1      y...1081
 BV BND1      y...1082
 BV BND1      y...1085
 BV BND1      y...1086
 BV BND1      y...1087
 BV BND1      y...1088
 BV BND1      y...1089
 BV BND1      y...1090
 BV BND1      y...1091
 BV BND1      y...1092
 BV BND1      y...1093
 BV BND1      y...1094
 BV BND1      y...1095
 BV BND1      y...1096
 BV BND1      y...1098
 BV BND1      y...1099
 BV BND1      y...1100
 BV BND1      y...1102
 BV BND1      y...1103
 BV BND1      y...1104
 BV BND1      y...1106
 BV BND1      y...1107
 BV BND1      y...1108
 BV BND1      y...1109
 BV BND1      y...1110
 BV BND1      y...1112
 BV BND1      y...1113
 BV BND1      y...1115
 BV BND1      y...1116
 BV BND1      y...1117
 BV BND1      y...1118
 BV BND1      y...1120
 BV BND1      y...1121
 BV BND1      y...1123
 BV BND1      y...1124
 BV BND1      y...1125
 BV BND1      y...1126
 BV BND1      y...1128
 BV BND1      y...1129
 BV BND1      y...1130
 BV BND1      y...1135
 BV BND1      y...1136
 BV BND1      y...1137
 BV BND1      y...1138
 BV BND1      y...1139
 BV BND1      y...1142
 BV BND1      y...1143
 BV BND1      y...1145
 BV BND1      y...1147
 BV BND1      y...1148
 BV BND1      y...1153
 BV BND1      y...1154
 BV BND1      y...1155
 BV BND1      y...1160
 BV BND1      y...1163
 BV BND1      y...1164
 BV BND1      y...1169
 BV BND1      y...1170
 BV BND1      y...1171
 BV BND1      y...1172
 BV BND1      y...1173
 BV BND1      y...1175
 BV BND1      y...1176
 BV BND1      y...1177
 BV BND1      y...1178
 BV BND1      y...1179
 BV BND1      y...1181
 BV BND1      y...1182
 BV BND1      y...1183
 BV BND1      y...1186
 BV BND1      y...1187
 BV BND1      y...1188
 BV BND1      y...1189
 BV BND1      y...1190
 BV BND1      y...1191
 BV BND1      y...1192
 BV BND1      y...1193
 BV BND1      y...1194
 BV BND1      y...1196
 BV BND1      y...1197
 BV BND1      y...1198
 BV BND1      y...1201
 BV BND1      y...1202
 BV BND1      y...1203
 BV BND1      y...1204
 BV BND1      y...1205
 BV BND1      y...1206
 BV BND1      y...1207
 BV BND1      y...1208
 BV BND1      y...1210
 BV BND1      y...1212
 BV BND1      y...1214
 BV BND1      y...1215
 BV BND1      y...1216
 BV BND1      y...1217
 BV BND1      y...1218
 BV BND1      y...1221
 BV BND1      y...1223
 BV BND1      y...1224
 BV BND1      y...1225
 BV BND1      y...1227
 BV BND1      y...1228
 BV BND1      y...1233
 BV BND1      y...1236
 BV BND1      y...1238
 BV BND1      y...1239
 BV BND1      y...1240
 BV BND1      y...1241
 BV BND1      y...1242
 BV BND1      y...1243
 BV BND1      y...1245
 BV BND1      y...1246
 BV BND1      y...1247
 BV BND1      y...1248
 BV BND1      y...1249
 BV BND1      y...1250
ENDATA
