NAME csched010_pre
ROWS
 N  OBJ
 E  c01_1   
 E  c01_12  
 E  c01_13  
 E  c01_14  
 E  c01_15  
 E  c01_16  
 E  c01_17  
 E  c01_18  
 E  c01_19  
 E  c01_20  
 E  c01_21  
 E  c01_22  
 E  c01_23  
 E  c01_24  
 E  c01_25  
 E  c01_26  
 E  c01_27  
 E  c01_28  
 E  c01_29  
 E  c01_30  
 E  c01_31  
 E  c01_32  
 E  c01_33  
 E  c01_34  
 E  c01_35  
 E  c01_36  
 E  c01_37  
 E  c01_38  
 E  c01_39  
 E  c01_40  
 E  c01_41  
 E  c01_42  
 E  c01_43  
 E  c01_44  
 E  c01_45  
 E  c01_46  
 E  c01_47  
 E  c01_48  
 E  c01_49  
 E  c01_50  
 E  c01_51  
 E  c01_52  
 E  c01_53  
 E  c01_54  
 E  c01_55  
 E  c01_56  
 E  c01_57  
 E  c01_58  
 E  c01_59  
 E  c01_60  
 E  c01_61  
 E  c01_62  
 E  c01_63  
 E  c01_64  
 E  c01_65  
 E  c01_66  
 E  c01_67  
 E  c01_68  
 E  c01_69  
 E  c01_70  
 E  c01_71  
 E  c01_72  
 E  c01_73  
 E  c01_74  
 E  c01_75  
 E  c01_76  
 E  c01_77  
 E  c01_78  
 E  c01_79  
 E  c01_80  
 E  c01_81  
 E  c01_82  
 E  c01_83  
 E  c01_84  
 E  c01_85  
 E  c01_86  
 E  c01_87  
 E  c01_88  
 E  c01_89  
 E  c01_90  
 E  c01_91  
 E  c01_92  
 E  c01_93  
 E  c01_94  
 E  c01_95  
 E  c01_96  
 E  c01_97  
 E  c01_98  
 E  c01_99  
 E  c01_100 
 E  c01_101 
 E  c01_102 
 E  c01_103 
 E  c01_104 
 E  c01_105 
 E  c01_106 
 E  c01_107 
 E  c01_108 
 E  c01_109 
 E  c01_110 
 E  c01_111 
 E  c01_112 
 E  c01_113 
 E  c01_114 
 E  c01_115 
 E  c01_116 
 E  c01_117 
 E  c01_118 
 E  c01_119 
 E  c01_120 
 E  c01_121 
 E  c01_122 
 E  c01_123 
 E  c01_124 
 E  c01_125 
 E  c01_126 
 E  c01_127 
 E  c01_128 
 E  c01_129 
 E  c01_130 
 E  c01_131 
 E  c01_132 
 E  c01_133 
 E  c01_134 
 E  c01_135 
 E  c01_136 
 E  c01_137 
 E  c01_138 
 E  c01_139 
 E  c01_140 
 E  c01_141 
 E  c01_142 
 E  c01_143 
 E  c01_144 
 E  c01_145 
 E  c01_146 
 E  c01_147 
 E  c01_148 
 E  c01_149 
 E  c01_150 
 E  c01_151 
 E  c01_152 
 E  c01_153 
 E  c01_154 
 E  c01_155 
 E  c01_156 
 E  c01_157 
 E  c01_158 
 E  c01_159 
 E  c01_160 
 E  c01_161 
 E  c01_162 
 E  c01_163 
 E  c01_164 
 E  c01_165 
 E  c01_166 
 E  c01_167 
 E  c01_168 
 E  c01_169 
 E  c01_170 
 E  c01_171 
 E  c01_172 
 E  c01_173 
 E  c01_174 
 E  c01_175 
 E  c01_176 
 E  c01_177 
 E  c01_178 
 E  c01_179 
 E  c01_180 
 L  c01_198 
 E  c02_1   
 E  c02_2   
 E  c02_3   
 E  c02_4   
 E  c02_5   
 E  c02_6   
 E  c02_7   
 E  c02_8   
 E  c02_9   
 E  c02_10  
 E  c02_11  
 E  c02_12  
 E  c02_13  
 E  c02_14  
 E  c02_15  
 E  c02_16  
 E  c02_17  
 E  c02_18  
 E  c02_19  
 E  c02_20  
 E  c02_21  
 E  c02_22  
 E  c02_23  
 E  c02_24  
 E  c02_26  
 E  c02_27  
 E  c02_28  
 E  c02_29  
 E  c02_30  
 E  c02_31  
 E  c02_32  
 E  c02_33  
 E  c02_34  
 E  c02_35  
 E  c02_36  
 E  c02_37  
 E  c02_38  
 E  c02_39  
 E  c02_40  
 E  c02_41  
 E  c02_42  
 E  c02_43  
 E  c02_44  
 E  c02_45  
 E  c02_46  
 E  c02_47  
 E  c02_48  
 E  c02_49  
 E  c02_50  
 E  c04_1   
 E  c04_2   
 E  c04_3   
 E  c04_4   
 E  c04_5   
 E  c04_6   
 E  c04_7   
 E  c04_8   
 E  c04_9   
 E  c04_10  
 E  c04_11  
 E  c04_12  
 E  c04_13  
 E  c04_14  
 E  c04_15  
 E  c04_16  
 E  c04_17  
 E  c04_18  
 E  c04_19  
 E  c04_20  
 E  c04_21  
 E  c04_22  
 E  c04_23  
 E  c04_24  
 E  c04_25  
 E  c04_26  
 E  c04_27  
 E  c04_28  
 E  c04_29  
 E  c04_30  
 E  c04_31  
 E  c04_32  
 E  c04_33  
 E  c04_34  
 E  c04_35  
 E  c04_36  
 E  c04_37  
 E  c04_38  
 E  c04_39  
 E  c04_40  
 E  c04_41  
 E  c04_42  
 E  c04_43  
 E  c04_44  
 E  c04_45  
 E  c04_46  
 E  c04_47  
 E  c04_48  
 E  c04_49  
 E  c04_50  
COLUMNS
    MARKER    'MARKER'                 'INTORG'
    x#47#0    c01_1     -5
    x#47#0    c01_33    5
    x#47#0    c04_47    1
    x#20#0    c01_1     -3
    x#20#0    c01_12    3
    x#20#0    c04_20    1
    x#7#0     c01_1     -4
    x#7#0     c01_32    4
    x#7#0     c04_7     1
    x#47#1    c01_1     -5
    x#47#1    c01_34    5
    x#47#1    c02_47    -1
    x#47#1    c04_47    1
    x#20#1    c01_1     -3
    x#20#1    c01_13    3
    x#20#1    c02_20    -1
    x#20#1    c04_20    1
    x#7#1     c01_1     -4
    x#7#1     c01_33    4
    x#7#1     c02_7     -1
    x#7#1     c04_7     1
    x#47#2    c01_1     -5
    x#47#2    c01_35    5
    x#47#2    c02_47    -2
    x#47#2    c04_47    1
    x#20#2    c01_1     -3
    x#20#2    c01_14    3
    x#20#2    c02_20    -2
    x#20#2    c04_20    1
    x#7#2     c01_1     -4
    x#7#2     c01_34    4
    x#7#2     c02_7     -2
    x#7#2     c04_7     1
    x#47#3    c01_1     -5
    x#47#3    c01_36    5
    x#47#3    c02_47    -3
    x#47#3    c04_47    1
    x#20#3    c01_1     -3
    x#20#3    c01_15    3
    x#20#3    c02_20    -3
    x#20#3    c04_20    1
    x#7#3     c01_1     -4
    x#7#3     c01_35    4
    x#7#3     c02_7     -3
    x#7#3     c04_7     1
    x#47#4    c01_1     -5
    x#47#4    c01_37    5
    x#47#4    c02_47    -4
    x#47#4    c04_47    1
    x#20#4    c01_1     -3
    x#20#4    c01_16    3
    x#20#4    c02_20    -4
    x#20#4    c04_20    1
    x#7#4     c01_1     -4
    x#7#4     c01_36    4
    x#7#4     c02_7     -4
    x#7#4     c04_7     1
    x#47#5    c01_1     -5
    x#47#5    c01_38    5
    x#47#5    c02_47    -5
    x#47#5    c04_47    1
    x#20#5    c01_1     -3
    x#20#5    c01_17    3
    x#20#5    c02_20    -5
    x#20#5    c04_20    1
    x#7#5     c01_1     -4
    x#7#5     c01_37    4
    x#7#5     c02_7     -5
    x#7#5     c04_7     1
    x#47#6    c01_1     -5
    x#47#6    c01_39    5
    x#47#6    c02_47    -6
    x#47#6    c04_47    1
    x#20#6    c01_1     -3
    x#20#6    c01_18    3
    x#20#6    c02_20    -6
    x#20#6    c04_20    1
    x#7#6     c01_1     -4
    x#7#6     c01_38    4
    x#7#6     c02_7     -6
    x#7#6     c04_7     1
    x#47#7    c01_1     -5
    x#47#7    c01_40    5
    x#47#7    c02_47    -7
    x#47#7    c04_47    1
    x#45#7    c01_1     -3
    x#45#7    c01_23    3
    x#45#7    c04_45    1
    x#20#7    c01_1     -3
    x#20#7    c01_19    3
    x#20#7    c02_20    -7
    x#20#7    c04_20    1
    x#7#7     c01_1     -4
    x#7#7     c01_39    4
    x#7#7     c02_7     -7
    x#7#7     c04_7     1
    x#47#8    c01_1     -5
    x#47#8    c01_41    5
    x#47#8    c02_47    -8
    x#47#8    c04_47    1
    x#45#8    c01_1     -3
    x#45#8    c01_24    3
    x#45#8    c02_45    -1
    x#45#8    c04_45    1
    x#20#8    c01_1     -3
    x#20#8    c01_20    3
    x#20#8    c02_20    -8
    x#20#8    c04_20    1
    x#7#8     c01_1     -4
    x#7#8     c01_40    4
    x#7#8     c02_7     -8
    x#7#8     c04_7     1
    x#47#9    c01_1     -5
    x#47#9    c01_42    5
    x#47#9    c02_47    -9
    x#47#9    c04_47    1
    x#45#9    c01_1     -3
    x#45#9    c01_25    3
    x#45#9    c02_45    -2
    x#45#9    c04_45    1
    x#20#9    c01_1     -3
    x#20#9    c01_21    3
    x#20#9    c02_20    -9
    x#20#9    c04_20    1
    x#7#9     c01_1     -4
    x#7#9     c01_41    4
    x#7#9     c02_7     -9
    x#7#9     c04_7     1
    x#47#10   c01_1     -5
    x#47#10   c01_43    5
    x#47#10   c02_47    -10
    x#47#10   c04_47    1
    x#45#10   c01_1     -3
    x#45#10   c01_26    3
    x#45#10   c02_45    -3
    x#45#10   c04_45    1
    x#20#10   c01_1     -3
    x#20#10   c01_22    3
    x#20#10   c02_20    -10
    x#20#10   c04_20    1
    x#7#10    c01_1     -4
    x#7#10    c01_42    4
    x#7#10    c02_7     -10
    x#7#10    c04_7     1
    x#47#11   c01_1     -5
    x#47#11   c01_44    5
    x#47#11   c02_47    -11
    x#47#11   c04_47    1
    x#45#11   c01_1     -3
    x#45#11   c01_27    3
    x#45#11   c02_45    -4
    x#45#11   c04_45    1
    x#20#11   c01_1     -3
    x#20#11   c01_23    3
    x#20#11   c02_20    -11
    x#20#11   c04_20    1
    x#7#11    c01_1     -4
    x#7#11    c01_43    4
    x#7#11    c02_7     -11
    x#7#11    c04_7     1
    z#11      c01_1     1
    z#11      c01_12    -1
    x#47#12   c01_12    -5
    x#47#12   c01_45    5
    x#47#12   c02_47    -12
    x#47#12   c04_47    1
    x#45#12   c01_12    -3
    x#45#12   c01_28    3
    x#45#12   c02_45    -5
    x#45#12   c04_45    1
    x#20#12   c01_12    -3
    x#20#12   c01_24    3
    x#20#12   c02_20    -12
    x#20#12   c04_20    1
    x#7#12    c01_12    -4
    x#7#12    c01_44    4
    x#7#12    c02_7     -12
    x#7#12    c04_7     1
    z#12      c01_12    1
    z#12      c01_13    -1
    x#47#13   c01_13    -5
    x#47#13   c01_46    5
    x#47#13   c02_47    -13
    x#47#13   c04_47    1
    x#45#13   c01_13    -3
    x#45#13   c01_29    3
    x#45#13   c02_45    -6
    x#45#13   c04_45    1
    x#20#13   c01_13    -3
    x#20#13   c01_25    3
    x#20#13   c02_20    -13
    x#20#13   c04_20    1
    x#7#13    c01_13    -4
    x#7#13    c01_45    4
    x#7#13    c02_7     -13
    x#7#13    c04_7     1
    z#13      c01_13    1
    z#13      c01_14    -1
    x#47#14   c01_14    -5
    x#47#14   c01_47    5
    x#47#14   c02_47    -14
    x#47#14   c04_47    1
    x#45#14   c01_14    -3
    x#45#14   c01_30    3
    x#45#14   c02_45    -7
    x#45#14   c04_45    1
    x#20#14   c01_14    -3
    x#20#14   c01_26    3
    x#20#14   c02_20    -14
    x#20#14   c04_20    1
    x#7#14    c01_14    -4
    x#7#14    c01_46    4
    x#7#14    c02_7     -14
    x#7#14    c04_7     1
    z#14      c01_14    1
    z#14      c01_15    -1
    x#47#15   c01_15    -5
    x#47#15   c01_48    5
    x#47#15   c02_47    -15
    x#47#15   c04_47    1
    x#45#15   c01_15    -3
    x#45#15   c01_31    3
    x#45#15   c02_45    -8
    x#45#15   c04_45    1
    x#20#15   c01_15    -3
    x#20#15   c01_27    3
    x#20#15   c02_20    -15
    x#20#15   c04_20    1
    x#7#15    c01_15    -4
    x#7#15    c01_47    4
    x#7#15    c02_7     -15
    x#7#15    c04_7     1
    z#15      c01_15    1
    z#15      c01_16    -1
    x#47#16   c01_16    -5
    x#47#16   c01_49    5
    x#47#16   c02_47    -16
    x#47#16   c04_47    1
    x#45#16   c01_16    -3
    x#45#16   c01_32    3
    x#45#16   c02_45    -9
    x#45#16   c04_45    1
    x#20#16   c01_16    -3
    x#20#16   c01_28    3
    x#20#16   c02_20    -16
    x#20#16   c04_20    1
    x#9#16    c01_16    -3
    x#9#16    c01_64    3
    x#9#16    c04_9     1
    x#7#16    c01_16    -4
    x#7#16    c01_48    4
    x#7#16    c02_7     -16
    x#7#16    c04_7     1
    z#16      c01_16    1
    z#16      c01_17    -1
    x#47#17   c01_17    -5
    x#47#17   c01_50    5
    x#47#17   c02_47    -17
    x#47#17   c04_47    1
    x#45#17   c01_17    -3
    x#45#17   c01_33    3
    x#45#17   c02_45    -10
    x#45#17   c04_45    1
    x#20#17   c01_17    -3
    x#20#17   c01_29    3
    x#20#17   c02_20    -17
    x#20#17   c04_20    1
    x#9#17    c01_17    -3
    x#9#17    c01_65    3
    x#9#17    c02_9     -1
    x#9#17    c04_9     1
    x#7#17    c01_17    -4
    x#7#17    c01_49    4
    x#7#17    c02_7     -17
    x#7#17    c04_7     1
    x#4#17    c01_17    -1
    x#4#17    c01_40    1
    x#4#17    c04_4     1
    z#17      c01_17    1
    z#17      c01_18    -1
    x#47#18   c01_18    -5
    x#47#18   c01_51    5
    x#47#18   c02_47    -18
    x#47#18   c04_47    1
    x#45#18   c01_18    -3
    x#45#18   c01_34    3
    x#45#18   c02_45    -11
    x#45#18   c04_45    1
    x#20#18   c01_18    -3
    x#20#18   c01_30    3
    x#20#18   c02_20    -18
    x#20#18   c04_20    1
    x#17#18   c01_18    -5
    x#17#18   c01_37    5
    x#17#18   c04_17    1
    x#9#18    c01_18    -3
    x#9#18    c01_66    3
    x#9#18    c02_9     -2
    x#9#18    c04_9     1
    x#7#18    c01_18    -4
    x#7#18    c01_50    4
    x#7#18    c02_7     -18
    x#7#18    c04_7     1
    x#4#18    c01_18    -1
    x#4#18    c01_41    1
    x#4#18    c02_4     -1
    x#4#18    c04_4     1
    z#18      c01_18    1
    z#18      c01_19    -1
    x#47#19   c01_19    -5
    x#47#19   c01_52    5
    x#47#19   c02_47    -19
    x#47#19   c04_47    1
    x#45#19   c01_19    -3
    x#45#19   c01_35    3
    x#45#19   c02_45    -12
    x#45#19   c04_45    1
    x#23#19   c01_19    -2
    x#23#19   c01_33    2
    x#23#19   c04_23    1
    x#20#19   c01_19    -3
    x#20#19   c01_31    3
    x#20#19   c02_20    -19
    x#20#19   c04_20    1
    x#17#19   c01_19    -5
    x#17#19   c01_38    5
    x#17#19   c02_17    -1
    x#17#19   c04_17    1
    x#9#19    c01_19    -3
    x#9#19    c01_67    3
    x#9#19    c02_9     -3
    x#9#19    c04_9     1
    x#7#19    c01_19    -4
    x#7#19    c01_51    4
    x#7#19    c02_7     -19
    x#7#19    c04_7     1
    x#4#19    c01_19    -1
    x#4#19    c01_42    1
    x#4#19    c02_4     -2
    x#4#19    c04_4     1
    z#19      c01_19    1
    z#19      c01_20    -1
    x#47#20   c01_20    -5
    x#47#20   c01_53    5
    x#47#20   c02_47    -20
    x#47#20   c04_47    1
    x#45#20   c01_20    -3
    x#45#20   c01_36    3
    x#45#20   c02_45    -13
    x#45#20   c04_45    1
    x#23#20   c01_20    -2
    x#23#20   c01_34    2
    x#23#20   c02_23    -1
    x#23#20   c04_23    1
    x#20#20   c01_20    -3
    x#20#20   c01_32    3
    x#20#20   c02_20    -20
    x#20#20   c04_20    1
    x#17#20   c01_20    -5
    x#17#20   c01_39    5
    x#17#20   c02_17    -2
    x#17#20   c04_17    1
    x#9#20    c01_20    -3
    x#9#20    c01_68    3
    x#9#20    c02_9     -4
    x#9#20    c04_9     1
    x#7#20    c01_20    -4
    x#7#20    c01_52    4
    x#7#20    c02_7     -20
    x#7#20    c04_7     1
    x#4#20    c01_20    -1
    x#4#20    c01_43    1
    x#4#20    c02_4     -3
    x#4#20    c04_4     1
    z#20      c01_20    1
    z#20      c01_21    -1
    x#47#21   c01_21    -5
    x#47#21   c01_54    5
    x#47#21   c02_47    -21
    x#47#21   c04_47    1
    x#45#21   c01_21    -3
    x#45#21   c01_37    3
    x#45#21   c02_45    -14
    x#45#21   c04_45    1
    x#23#21   c01_21    -2
    x#23#21   c01_35    2
    x#23#21   c02_23    -2
    x#23#21   c04_23    1
    x#20#21   c01_21    -3
    x#20#21   c01_33    3
    x#20#21   c02_20    -21
    x#20#21   c04_20    1
    x#17#21   c01_21    -5
    x#17#21   c01_40    5
    x#17#21   c02_17    -3
    x#17#21   c04_17    1
    x#9#21    c01_21    -3
    x#9#21    c01_69    3
    x#9#21    c02_9     -5
    x#9#21    c04_9     1
    x#4#21    c01_21    -1
    x#4#21    c01_44    1
    x#4#21    c02_4     -4
    x#4#21    c04_4     1
    z#21      c01_21    1
    z#21      c01_22    -1
    x#47#22   c01_22    -5
    x#47#22   c01_55    5
    x#47#22   c02_47    -22
    x#47#22   c04_47    1
    x#45#22   c01_22    -3
    x#45#22   c01_38    3
    x#45#22   c02_45    -15
    x#45#22   c04_45    1
    x#30#22   c01_22    -5
    x#30#22   c01_39    5
    x#30#22   c04_30    1
    x#23#22   c01_22    -2
    x#23#22   c01_36    2
    x#23#22   c02_23    -3
    x#23#22   c04_23    1
    x#20#22   c01_22    -3
    x#20#22   c01_34    3
    x#20#22   c02_20    -22
    x#20#22   c04_20    1
    x#17#22   c01_22    -5
    x#17#22   c01_41    5
    x#17#22   c02_17    -4
    x#17#22   c04_17    1
    x#9#22    c01_22    -3
    x#9#22    c01_70    3
    x#9#22    c02_9     -6
    x#9#22    c04_9     1
    x#4#22    c01_22    -1
    x#4#22    c01_45    1
    x#4#22    c02_4     -5
    x#4#22    c04_4     1
    x#3#22    c01_22    -2
    x#3#22    c01_36    2
    x#3#22    c04_3     1
    z#22      c01_22    1
    z#22      c01_23    -1
    x#47#23   c01_23    -5
    x#47#23   c01_56    5
    x#47#23   c02_47    -23
    x#47#23   c04_47    1
    x#45#23   c01_23    -3
    x#45#23   c01_39    3
    x#45#23   c02_45    -16
    x#45#23   c04_45    1
    x#35#23   c01_23    -4
    x#35#23   c01_47    4
    x#35#23   c04_35    1
    x#30#23   c01_23    -5
    x#30#23   c01_40    5
    x#30#23   c02_30    -1
    x#30#23   c04_30    1
    x#23#23   c01_23    -2
    x#23#23   c01_37    2
    x#23#23   c02_23    -4
    x#23#23   c04_23    1
    x#20#23   c01_23    -3
    x#20#23   c01_35    3
    x#20#23   c02_20    -23
    x#20#23   c04_20    1
    x#17#23   c01_23    -5
    x#17#23   c01_42    5
    x#17#23   c02_17    -5
    x#17#23   c04_17    1
    x#9#23    c01_23    -3
    x#9#23    c01_71    3
    x#9#23    c02_9     -7
    x#9#23    c04_9     1
    x#4#23    c01_23    -1
    x#4#23    c01_46    1
    x#4#23    c02_4     -6
    x#4#23    c04_4     1
    x#3#23    c01_23    -2
    x#3#23    c01_37    2
    x#3#23    c02_3     -1
    x#3#23    c04_3     1
    z#23      c01_23    1
    z#23      c01_24    -1
    x#47#24   c01_24    -5
    x#47#24   c01_57    5
    x#47#24   c02_47    -24
    x#47#24   c04_47    1
    x#45#24   c01_24    -3
    x#45#24   c01_40    3
    x#45#24   c02_45    -17
    x#45#24   c04_45    1
    x#35#24   c01_24    -4
    x#35#24   c01_48    4
    x#35#24   c02_35    -1
    x#35#24   c04_35    1
    x#30#24   c01_24    -5
    x#30#24   c01_41    5
    x#30#24   c02_30    -2
    x#30#24   c04_30    1
    x#26#24   c01_24    -4
    x#26#24   c01_53    4
    x#26#24   c04_26    1
    x#23#24   c01_24    -2
    x#23#24   c01_38    2
    x#23#24   c02_23    -5
    x#23#24   c04_23    1
    x#22#24   c01_24    -1
    x#22#24   c01_61    1
    x#22#24   c04_22    1
    x#20#24   c01_24    -3
    x#20#24   c01_36    3
    x#20#24   c02_20    -24
    x#20#24   c04_20    1
    x#17#24   c01_24    -5
    x#17#24   c01_43    5
    x#17#24   c02_17    -6
    x#17#24   c04_17    1
    x#9#24    c01_24    -3
    x#9#24    c01_72    3
    x#9#24    c02_9     -8
    x#9#24    c04_9     1
    x#6#24    c01_24    -5
    x#6#24    c01_69    5
    x#6#24    c04_6     1
    x#4#24    c01_24    -1
    x#4#24    c01_47    1
    x#4#24    c02_4     -7
    x#4#24    c04_4     1
    x#3#24    c01_24    -2
    x#3#24    c01_38    2
    x#3#24    c02_3     -2
    x#3#24    c04_3     1
    z#24      c01_24    1
    z#24      c01_25    -1
    x#47#25   c01_25    -5
    x#47#25   c01_58    5
    x#47#25   c02_47    -25
    x#47#25   c04_47    1
    x#45#25   c01_25    -3
    x#45#25   c01_41    3
    x#45#25   c02_45    -18
    x#45#25   c04_45    1
    x#35#25   c01_25    -4
    x#35#25   c01_49    4
    x#35#25   c02_35    -2
    x#35#25   c04_35    1
    x#30#25   c01_25    -5
    x#30#25   c01_42    5
    x#30#25   c02_30    -3
    x#30#25   c04_30    1
    x#26#25   c01_25    -4
    x#26#25   c01_54    4
    x#26#25   c02_26    -1
    x#26#25   c04_26    1
    x#23#25   c01_25    -2
    x#23#25   c01_39    2
    x#23#25   c02_23    -6
    x#23#25   c04_23    1
    x#22#25   c01_25    -1
    x#22#25   c01_62    1
    x#22#25   c02_22    -1
    x#22#25   c04_22    1
    x#20#25   c01_25    -3
    x#20#25   c01_37    3
    x#20#25   c02_20    -25
    x#20#25   c04_20    1
    x#17#25   c01_25    -5
    x#17#25   c01_44    5
    x#17#25   c02_17    -7
    x#17#25   c04_17    1
    x#9#25    c01_25    -3
    x#9#25    c01_73    3
    x#9#25    c02_9     -9
    x#9#25    c04_9     1
    x#6#25    c01_25    -5
    x#6#25    c01_70    5
    x#6#25    c02_6     -1
    x#6#25    c04_6     1
    x#4#25    c01_25    -1
    x#4#25    c01_48    1
    x#4#25    c02_4     -8
    x#4#25    c04_4     1
    x#3#25    c01_25    -2
    x#3#25    c01_39    2
    x#3#25    c02_3     -3
    x#3#25    c04_3     1
    z#25      c01_25    1
    z#25      c01_26    -1
    x#47#26   c01_26    -5
    x#47#26   c01_59    5
    x#47#26   c02_47    -26
    x#47#26   c04_47    1
    x#45#26   c01_26    -3
    x#45#26   c01_42    3
    x#45#26   c02_45    -19
    x#45#26   c04_45    1
    x#35#26   c01_26    -4
    x#35#26   c01_50    4
    x#35#26   c02_35    -3
    x#35#26   c04_35    1
    x#30#26   c01_26    -5
    x#30#26   c01_43    5
    x#30#26   c02_30    -4
    x#30#26   c04_30    1
    x#26#26   c01_26    -4
    x#26#26   c01_55    4
    x#26#26   c02_26    -2
    x#26#26   c04_26    1
    x#23#26   c01_26    -2
    x#23#26   c01_40    2
    x#23#26   c02_23    -7
    x#23#26   c04_23    1
    x#22#26   c01_26    -1
    x#22#26   c01_63    1
    x#22#26   c02_22    -2
    x#22#26   c04_22    1
    x#20#26   c01_26    -3
    x#20#26   c01_38    3
    x#20#26   c02_20    -26
    x#20#26   c04_20    1
    x#17#26   c01_26    -5
    x#17#26   c01_45    5
    x#17#26   c02_17    -8
    x#17#26   c04_17    1
    x#9#26    c01_26    -3
    x#9#26    c01_74    3
    x#9#26    c02_9     -10
    x#9#26    c04_9     1
    x#6#26    c01_26    -5
    x#6#26    c01_71    5
    x#6#26    c02_6     -2
    x#6#26    c04_6     1
    x#4#26    c01_26    -1
    x#4#26    c01_49    1
    x#4#26    c02_4     -9
    x#4#26    c04_4     1
    x#3#26    c01_26    -2
    x#3#26    c01_40    2
    x#3#26    c02_3     -4
    x#3#26    c04_3     1
    z#26      c01_26    1
    z#26      c01_27    -1
    x#47#27   c01_27    -5
    x#47#27   c01_60    5
    x#47#27   c02_47    -27
    x#47#27   c04_47    1
    x#45#27   c01_27    -3
    x#45#27   c01_43    3
    x#45#27   c02_45    -20
    x#45#27   c04_45    1
    x#35#27   c01_27    -4
    x#35#27   c01_51    4
    x#35#27   c02_35    -4
    x#35#27   c04_35    1
    x#30#27   c01_27    -5
    x#30#27   c01_44    5
    x#30#27   c02_30    -5
    x#30#27   c04_30    1
    x#26#27   c01_27    -4
    x#26#27   c01_56    4
    x#26#27   c02_26    -3
    x#26#27   c04_26    1
    x#23#27   c01_27    -2
    x#23#27   c01_41    2
    x#23#27   c02_23    -8
    x#23#27   c04_23    1
    x#22#27   c01_27    -1
    x#22#27   c01_64    1
    x#22#27   c02_22    -3
    x#22#27   c04_22    1
    x#20#27   c01_27    -3
    x#20#27   c01_39    3
    x#20#27   c02_20    -27
    x#20#27   c04_20    1
    x#17#27   c01_27    -5
    x#17#27   c01_46    5
    x#17#27   c02_17    -9
    x#17#27   c04_17    1
    x#11#27   c01_27    -3
    x#11#27   c01_59    3
    x#11#27   c04_11    1
    x#9#27    c01_27    -3
    x#9#27    c01_75    3
    x#9#27    c02_9     -11
    x#9#27    c04_9     1
    x#6#27    c01_27    -5
    x#6#27    c01_72    5
    x#6#27    c02_6     -3
    x#6#27    c04_6     1
    x#4#27    c01_27    -1
    x#4#27    c01_50    1
    x#4#27    c02_4     -10
    x#4#27    c04_4     1
    x#3#27    c01_27    -2
    x#3#27    c01_41    2
    x#3#27    c02_3     -5
    x#3#27    c04_3     1
    z#27      c01_27    1
    z#27      c01_28    -1
    x#47#28   c01_28    -5
    x#47#28   c01_61    5
    x#47#28   c02_47    -28
    x#47#28   c04_47    1
    x#45#28   c01_28    -3
    x#45#28   c01_44    3
    x#45#28   c02_45    -21
    x#45#28   c04_45    1
    x#35#28   c01_28    -4
    x#35#28   c01_52    4
    x#35#28   c02_35    -5
    x#35#28   c04_35    1
    x#30#28   c01_28    -5
    x#30#28   c01_45    5
    x#30#28   c02_30    -6
    x#30#28   c04_30    1
    x#28#28   c01_28    -5
    x#28#28   c01_44    5
    x#28#28   c04_28    1
    x#26#28   c01_28    -4
    x#26#28   c01_57    4
    x#26#28   c02_26    -4
    x#26#28   c04_26    1
    x#23#28   c01_28    -2
    x#23#28   c01_42    2
    x#23#28   c02_23    -9
    x#23#28   c04_23    1
    x#22#28   c01_28    -1
    x#22#28   c01_65    1
    x#22#28   c02_22    -4
    x#22#28   c04_22    1
    x#20#28   c01_28    -3
    x#20#28   c01_40    3
    x#20#28   c02_20    -28
    x#20#28   c04_20    1
    x#17#28   c01_28    -5
    x#17#28   c01_47    5
    x#17#28   c02_17    -10
    x#17#28   c04_17    1
    x#11#28   c01_28    -3
    x#11#28   c01_60    3
    x#11#28   c02_11    -1
    x#11#28   c04_11    1
    x#9#28    c01_28    -3
    x#9#28    c01_76    3
    x#9#28    c02_9     -12
    x#9#28    c04_9     1
    x#6#28    c01_28    -5
    x#6#28    c01_73    5
    x#6#28    c02_6     -4
    x#6#28    c04_6     1
    x#4#28    c01_28    -1
    x#4#28    c01_51    1
    x#4#28    c02_4     -11
    x#4#28    c04_4     1
    x#3#28    c01_28    -2
    x#3#28    c01_42    2
    x#3#28    c02_3     -6
    x#3#28    c04_3     1
    z#28      c01_28    1
    z#28      c01_29    -1
    x#47#29   c01_29    -5
    x#47#29   c01_62    5
    x#47#29   c02_47    -29
    x#47#29   c04_47    1
    x#45#29   c01_29    -3
    x#45#29   c01_45    3
    x#45#29   c02_45    -22
    x#45#29   c04_45    1
    x#35#29   c01_29    -4
    x#35#29   c01_53    4
    x#35#29   c02_35    -6
    x#35#29   c04_35    1
    x#30#29   c01_29    -5
    x#30#29   c01_46    5
    x#30#29   c02_30    -7
    x#30#29   c04_30    1
    x#28#29   c01_29    -5
    x#28#29   c01_45    5
    x#28#29   c02_28    -1
    x#28#29   c04_28    1
    x#26#29   c01_29    -4
    x#26#29   c01_58    4
    x#26#29   c02_26    -5
    x#26#29   c04_26    1
    x#23#29   c01_29    -2
    x#23#29   c01_43    2
    x#23#29   c02_23    -10
    x#23#29   c04_23    1
    x#22#29   c01_29    -1
    x#22#29   c01_66    1
    x#22#29   c02_22    -5
    x#22#29   c04_22    1
    x#20#29   c01_29    -3
    x#20#29   c01_41    3
    x#20#29   c02_20    -29
    x#20#29   c04_20    1
    x#17#29   c01_29    -5
    x#17#29   c01_48    5
    x#17#29   c02_17    -11
    x#17#29   c04_17    1
    x#11#29   c01_29    -3
    x#11#29   c01_61    3
    x#11#29   c02_11    -2
    x#11#29   c04_11    1
    x#9#29    c01_29    -3
    x#9#29    c01_77    3
    x#9#29    c02_9     -13
    x#9#29    c04_9     1
    x#6#29    c01_29    -5
    x#6#29    c01_74    5
    x#6#29    c02_6     -5
    x#6#29    c04_6     1
    x#4#29    c01_29    -1
    x#4#29    c01_52    1
    x#4#29    c02_4     -12
    x#4#29    c04_4     1
    x#3#29    c01_29    -2
    x#3#29    c01_43    2
    x#3#29    c02_3     -7
    x#3#29    c04_3     1
    z#29      c01_29    1
    z#29      c01_30    -1
    x#47#30   c01_30    -5
    x#47#30   c01_63    5
    x#47#30   c02_47    -30
    x#47#30   c04_47    1
    x#45#30   c01_30    -3
    x#45#30   c01_46    3
    x#45#30   c02_45    -23
    x#45#30   c04_45    1
    x#35#30   c01_30    -4
    x#35#30   c01_54    4
    x#35#30   c02_35    -7
    x#35#30   c04_35    1
    x#30#30   c01_30    -5
    x#30#30   c01_47    5
    x#30#30   c02_30    -8
    x#30#30   c04_30    1
    x#28#30   c01_30    -5
    x#28#30   c01_46    5
    x#28#30   c02_28    -2
    x#28#30   c04_28    1
    x#26#30   c01_30    -4
    x#26#30   c01_59    4
    x#26#30   c02_26    -6
    x#26#30   c04_26    1
    x#23#30   c01_30    -2
    x#23#30   c01_44    2
    x#23#30   c02_23    -11
    x#23#30   c04_23    1
    x#22#30   c01_30    -1
    x#22#30   c01_67    1
    x#22#30   c02_22    -6
    x#22#30   c04_22    1
    x#20#30   c01_30    -3
    x#20#30   c01_42    3
    x#20#30   c02_20    -30
    x#20#30   c04_20    1
    x#17#30   c01_30    -5
    x#17#30   c01_49    5
    x#17#30   c02_17    -12
    x#17#30   c04_17    1
    x#11#30   c01_30    -3
    x#11#30   c01_62    3
    x#11#30   c02_11    -3
    x#11#30   c04_11    1
    x#9#30    c01_30    -3
    x#9#30    c01_78    3
    x#9#30    c02_9     -14
    x#9#30    c04_9     1
    x#6#30    c01_30    -5
    x#6#30    c01_75    5
    x#6#30    c02_6     -6
    x#6#30    c04_6     1
    x#4#30    c01_30    -1
    x#4#30    c01_53    1
    x#4#30    c02_4     -13
    x#4#30    c04_4     1
    x#3#30    c01_30    -2
    x#3#30    c01_44    2
    x#3#30    c02_3     -8
    x#3#30    c04_3     1
    x#1#30    c01_30    -5
    x#1#30    c01_35    5
    x#1#30    c04_1     1
    z#30      c01_30    1
    z#30      c01_31    -1
    x#47#31   c01_31    -5
    x#47#31   c01_64    5
    x#47#31   c02_47    -31
    x#47#31   c04_47    1
    x#45#31   c01_31    -3
    x#45#31   c01_47    3
    x#45#31   c02_45    -24
    x#45#31   c04_45    1
    x#35#31   c01_31    -4
    x#35#31   c01_55    4
    x#35#31   c02_35    -8
    x#35#31   c04_35    1
    x#30#31   c01_31    -5
    x#30#31   c01_48    5
    x#30#31   c02_30    -9
    x#30#31   c04_30    1
    x#28#31   c01_31    -5
    x#28#31   c01_47    5
    x#28#31   c02_28    -3
    x#28#31   c04_28    1
    x#26#31   c01_31    -4
    x#26#31   c01_60    4
    x#26#31   c02_26    -7
    x#26#31   c04_26    1
    x#23#31   c01_31    -2
    x#23#31   c01_45    2
    x#23#31   c02_23    -12
    x#23#31   c04_23    1
    x#22#31   c01_31    -1
    x#22#31   c01_68    1
    x#22#31   c02_22    -7
    x#22#31   c04_22    1
    x#20#31   c01_31    -3
    x#20#31   c01_43    3
    x#20#31   c02_20    -31
    x#20#31   c04_20    1
    x#17#31   c01_31    -5
    x#17#31   c01_50    5
    x#17#31   c02_17    -13
    x#17#31   c04_17    1
    x#11#31   c01_31    -3
    x#11#31   c01_63    3
    x#11#31   c02_11    -4
    x#11#31   c04_11    1
    x#9#31    c01_31    -3
    x#9#31    c01_79    3
    x#9#31    c02_9     -15
    x#9#31    c04_9     1
    x#6#31    c01_31    -5
    x#6#31    c01_76    5
    x#6#31    c02_6     -7
    x#6#31    c04_6     1
    x#4#31    c01_31    -1
    x#4#31    c01_54    1
    x#4#31    c02_4     -14
    x#4#31    c04_4     1
    x#3#31    c01_31    -2
    x#3#31    c01_45    2
    x#3#31    c02_3     -9
    x#3#31    c04_3     1
    x#1#31    c01_31    -5
    x#1#31    c01_36    5
    x#1#31    c02_1     -1
    x#1#31    c04_1     1
    z#31      c01_31    1
    z#31      c01_32    -1
    x#47#32   c01_32    -5
    x#47#32   c01_65    5
    x#47#32   c02_47    -32
    x#47#32   c04_47    1
    x#45#32   c01_32    -3
    x#45#32   c01_48    3
    x#45#32   c02_45    -25
    x#45#32   c04_45    1
    x#35#32   c01_32    -4
    x#35#32   c01_56    4
    x#35#32   c02_35    -9
    x#35#32   c04_35    1
    x#30#32   c01_32    -5
    x#30#32   c01_49    5
    x#30#32   c02_30    -10
    x#30#32   c04_30    1
    x#28#32   c01_32    -5
    x#28#32   c01_48    5
    x#28#32   c02_28    -4
    x#28#32   c04_28    1
    x#26#32   c01_32    -4
    x#26#32   c01_61    4
    x#26#32   c02_26    -8
    x#26#32   c04_26    1
    x#23#32   c01_32    -2
    x#23#32   c01_46    2
    x#23#32   c02_23    -13
    x#23#32   c04_23    1
    x#22#32   c01_32    -1
    x#22#32   c01_69    1
    x#22#32   c02_22    -8
    x#22#32   c04_22    1
    x#17#32   c01_32    -5
    x#17#32   c01_51    5
    x#17#32   c02_17    -14
    x#17#32   c04_17    1
    x#11#32   c01_32    -3
    x#11#32   c01_64    3
    x#11#32   c02_11    -5
    x#11#32   c04_11    1
    x#9#32    c01_32    -3
    x#9#32    c01_80    3
    x#9#32    c02_9     -16
    x#9#32    c04_9     1
    x#6#32    c01_32    -5
    x#6#32    c01_77    5
    x#6#32    c02_6     -8
    x#6#32    c04_6     1
    x#4#32    c01_32    -1
    x#4#32    c01_55    1
    x#4#32    c02_4     -15
    x#4#32    c04_4     1
    x#3#32    c01_32    -2
    x#3#32    c01_46    2
    x#3#32    c02_3     -10
    x#3#32    c04_3     1
    x#1#32    c01_32    -5
    x#1#32    c01_37    5
    x#1#32    c02_1     -2
    x#1#32    c04_1     1
    z#32      c01_32    1
    z#32      c01_33    -1
    x#47#33   c01_33    -5
    x#47#33   c01_66    5
    x#47#33   c02_47    -33
    x#47#33   c04_47    1
    x#45#33   c01_33    -3
    x#45#33   c01_49    3
    x#45#33   c02_45    -26
    x#45#33   c04_45    1
    x#35#33   c01_33    -4
    x#35#33   c01_57    4
    x#35#33   c02_35    -10
    x#35#33   c04_35    1
    x#30#33   c01_33    -5
    x#30#33   c01_50    5
    x#30#33   c02_30    -11
    x#30#33   c04_30    1
    x#28#33   c01_33    -5
    x#28#33   c01_49    5
    x#28#33   c02_28    -5
    x#28#33   c04_28    1
    x#26#33   c01_33    -4
    x#26#33   c01_62    4
    x#26#33   c02_26    -9
    x#26#33   c04_26    1
    x#23#33   c01_33    -2
    x#23#33   c01_47    2
    x#23#33   c02_23    -14
    x#23#33   c04_23    1
    x#22#33   c01_33    -1
    x#22#33   c01_70    1
    x#22#33   c02_22    -9
    x#22#33   c04_22    1
    x#17#33   c01_33    -5
    x#17#33   c01_52    5
    x#17#33   c02_17    -15
    x#17#33   c04_17    1
    x#11#33   c01_33    -3
    x#11#33   c01_65    3
    x#11#33   c02_11    -6
    x#11#33   c04_11    1
    x#9#33    c01_33    -3
    x#9#33    c01_81    3
    x#9#33    c02_9     -17
    x#9#33    c04_9     1
    x#6#33    c01_33    -5
    x#6#33    c01_78    5
    x#6#33    c02_6     -9
    x#6#33    c04_6     1
    x#4#33    c01_33    -1
    x#4#33    c01_56    1
    x#4#33    c02_4     -16
    x#4#33    c04_4     1
    x#3#33    c01_33    -2
    x#3#33    c01_47    2
    x#3#33    c02_3     -11
    x#3#33    c04_3     1
    x#1#33    c01_33    -5
    x#1#33    c01_38    5
    x#1#33    c02_1     -3
    x#1#33    c04_1     1
    z#33      c01_33    1
    z#33      c01_34    -1
    x#47#34   c01_34    -5
    x#47#34   c01_67    5
    x#47#34   c02_47    -34
    x#47#34   c04_47    1
    x#45#34   c01_34    -3
    x#45#34   c01_50    3
    x#45#34   c02_45    -27
    x#45#34   c04_45    1
    x#35#34   c01_34    -4
    x#35#34   c01_58    4
    x#35#34   c02_35    -11
    x#35#34   c04_35    1
    x#30#34   c01_34    -5
    x#30#34   c01_51    5
    x#30#34   c02_30    -12
    x#30#34   c04_30    1
    x#28#34   c01_34    -5
    x#28#34   c01_50    5
    x#28#34   c02_28    -6
    x#28#34   c04_28    1
    x#26#34   c01_34    -4
    x#26#34   c01_63    4
    x#26#34   c02_26    -10
    x#26#34   c04_26    1
    x#23#34   c01_34    -2
    x#23#34   c01_48    2
    x#23#34   c02_23    -15
    x#23#34   c04_23    1
    x#22#34   c01_34    -1
    x#22#34   c01_71    1
    x#22#34   c02_22    -10
    x#22#34   c04_22    1
    x#17#34   c01_34    -5
    x#17#34   c01_53    5
    x#17#34   c02_17    -16
    x#17#34   c04_17    1
    x#11#34   c01_34    -3
    x#11#34   c01_66    3
    x#11#34   c02_11    -7
    x#11#34   c04_11    1
    x#9#34    c01_34    -3
    x#9#34    c01_82    3
    x#9#34    c02_9     -18
    x#9#34    c04_9     1
    x#6#34    c01_34    -5
    x#6#34    c01_79    5
    x#6#34    c02_6     -10
    x#6#34    c04_6     1
    x#4#34    c01_34    -1
    x#4#34    c01_57    1
    x#4#34    c02_4     -17
    x#4#34    c04_4     1
    x#3#34    c01_34    -2
    x#3#34    c01_48    2
    x#3#34    c02_3     -12
    x#3#34    c04_3     1
    x#1#34    c01_34    -5
    x#1#34    c01_39    5
    x#1#34    c02_1     -4
    x#1#34    c04_1     1
    z#34      c01_34    1
    z#34      c01_35    -1
    x#47#35   c01_35    -5
    x#47#35   c01_68    5
    x#47#35   c02_47    -35
    x#47#35   c04_47    1
    x#45#35   c01_35    -3
    x#45#35   c01_51    3
    x#45#35   c02_45    -28
    x#45#35   c04_45    1
    x#35#35   c01_35    -4
    x#35#35   c01_59    4
    x#35#35   c02_35    -12
    x#35#35   c04_35    1
    x#30#35   c01_35    -5
    x#30#35   c01_52    5
    x#30#35   c02_30    -13
    x#30#35   c04_30    1
    x#28#35   c01_35    -5
    x#28#35   c01_51    5
    x#28#35   c02_28    -7
    x#28#35   c04_28    1
    x#26#35   c01_35    -4
    x#26#35   c01_64    4
    x#26#35   c02_26    -11
    x#26#35   c04_26    1
    x#23#35   c01_35    -2
    x#23#35   c01_49    2
    x#23#35   c02_23    -16
    x#23#35   c04_23    1
    x#22#35   c01_35    -1
    x#22#35   c01_72    1
    x#22#35   c02_22    -11
    x#22#35   c04_22    1
    x#17#35   c01_35    -5
    x#17#35   c01_54    5
    x#17#35   c02_17    -17
    x#17#35   c04_17    1
    x#11#35   c01_35    -3
    x#11#35   c01_67    3
    x#11#35   c02_11    -8
    x#11#35   c04_11    1
    x#6#35    c01_35    -5
    x#6#35    c01_80    5
    x#6#35    c02_6     -11
    x#6#35    c04_6     1
    x#4#35    c01_35    -1
    x#4#35    c01_58    1
    x#4#35    c02_4     -18
    x#4#35    c04_4     1
    x#3#35    c01_35    -2
    x#3#35    c01_49    2
    x#3#35    c02_3     -13
    x#3#35    c04_3     1
    x#1#35    c01_35    -5
    x#1#35    c01_40    5
    x#1#35    c02_1     -5
    x#1#35    c04_1     1
    z#35      c01_35    1
    z#35      c01_36    -1
    x#47#36   c01_36    -5
    x#47#36   c01_69    5
    x#47#36   c02_47    -36
    x#47#36   c04_47    1
    x#45#36   c01_36    -3
    x#45#36   c01_52    3
    x#45#36   c02_45    -29
    x#45#36   c04_45    1
    x#35#36   c01_36    -4
    x#35#36   c01_60    4
    x#35#36   c02_35    -13
    x#35#36   c04_35    1
    x#30#36   c01_36    -5
    x#30#36   c01_53    5
    x#30#36   c02_30    -14
    x#30#36   c04_30    1
    x#28#36   c01_36    -5
    x#28#36   c01_52    5
    x#28#36   c02_28    -8
    x#28#36   c04_28    1
    x#26#36   c01_36    -4
    x#26#36   c01_65    4
    x#26#36   c02_26    -12
    x#26#36   c04_26    1
    x#23#36   c01_36    -2
    x#23#36   c01_50    2
    x#23#36   c02_23    -17
    x#23#36   c04_23    1
    x#22#36   c01_36    -1
    x#22#36   c01_73    1
    x#22#36   c02_22    -12
    x#22#36   c04_22    1
    x#17#36   c01_36    -5
    x#17#36   c01_55    5
    x#17#36   c02_17    -18
    x#17#36   c04_17    1
    x#11#36   c01_36    -3
    x#11#36   c01_68    3
    x#11#36   c02_11    -9
    x#11#36   c04_11    1
    x#6#36    c01_36    -5
    x#6#36    c01_81    5
    x#6#36    c02_6     -12
    x#6#36    c04_6     1
    x#4#36    c01_36    -1
    x#4#36    c01_59    1
    x#4#36    c02_4     -19
    x#4#36    c04_4     1
    x#3#36    c01_36    -2
    x#3#36    c01_50    2
    x#3#36    c02_3     -14
    x#3#36    c04_3     1
    x#1#36    c01_36    -5
    x#1#36    c01_41    5
    x#1#36    c02_1     -6
    x#1#36    c04_1     1
    z#36      c01_36    1
    z#36      c01_37    -1
    x#47#37   c01_37    -5
    x#47#37   c01_70    5
    x#47#37   c02_47    -37
    x#47#37   c04_47    1
    x#45#37   c01_37    -3
    x#45#37   c01_53    3
    x#45#37   c02_45    -30
    x#45#37   c04_45    1
    x#35#37   c01_37    -4
    x#35#37   c01_61    4
    x#35#37   c02_35    -14
    x#35#37   c04_35    1
    x#30#37   c01_37    -5
    x#30#37   c01_54    5
    x#30#37   c02_30    -15
    x#30#37   c04_30    1
    x#28#37   c01_37    -5
    x#28#37   c01_53    5
    x#28#37   c02_28    -9
    x#28#37   c04_28    1
    x#26#37   c01_37    -4
    x#26#37   c01_66    4
    x#26#37   c02_26    -13
    x#26#37   c04_26    1
    x#23#37   c01_37    -2
    x#23#37   c01_51    2
    x#23#37   c02_23    -18
    x#23#37   c04_23    1
    x#22#37   c01_37    -1
    x#22#37   c01_74    1
    x#22#37   c02_22    -13
    x#22#37   c04_22    1
    x#17#37   c01_37    -5
    x#17#37   c01_56    5
    x#17#37   c02_17    -19
    x#17#37   c04_17    1
    x#11#37   c01_37    -3
    x#11#37   c01_69    3
    x#11#37   c02_11    -10
    x#11#37   c04_11    1
    x#6#37    c01_37    -5
    x#6#37    c01_82    5
    x#6#37    c02_6     -13
    x#6#37    c04_6     1
    x#4#37    c01_37    -1
    x#4#37    c01_60    1
    x#4#37    c02_4     -20
    x#4#37    c04_4     1
    x#3#37    c01_37    -2
    x#3#37    c01_51    2
    x#3#37    c02_3     -15
    x#3#37    c04_3     1
    x#1#37    c01_37    -5
    x#1#37    c01_42    5
    x#1#37    c02_1     -7
    x#1#37    c04_1     1
    z#37      c01_37    1
    z#37      c01_38    -1
    x#47#38   c01_38    -5
    x#47#38   c01_71    5
    x#47#38   c02_47    -38
    x#47#38   c04_47    1
    x#45#38   c01_38    -3
    x#45#38   c01_54    3
    x#45#38   c02_45    -31
    x#45#38   c04_45    1
    x#35#38   c01_38    -4
    x#35#38   c01_62    4
    x#35#38   c02_35    -15
    x#35#38   c04_35    1
    x#30#38   c01_38    -5
    x#30#38   c01_55    5
    x#30#38   c02_30    -16
    x#30#38   c04_30    1
    x#28#38   c01_38    -5
    x#28#38   c01_54    5
    x#28#38   c02_28    -10
    x#28#38   c04_28    1
    x#26#38   c01_38    -4
    x#26#38   c01_67    4
    x#26#38   c02_26    -14
    x#26#38   c04_26    1
    x#23#38   c01_38    -2
    x#23#38   c01_52    2
    x#23#38   c02_23    -19
    x#23#38   c04_23    1
    x#22#38   c01_38    -1
    x#22#38   c01_75    1
    x#22#38   c02_22    -14
    x#22#38   c04_22    1
    x#17#38   c01_38    -5
    x#17#38   c01_57    5
    x#17#38   c02_17    -20
    x#17#38   c04_17    1
    x#11#38   c01_38    -3
    x#11#38   c01_70    3
    x#11#38   c02_11    -11
    x#11#38   c04_11    1
    x#6#38    c01_38    -5
    x#6#38    c01_83    5
    x#6#38    c02_6     -14
    x#6#38    c04_6     1
    x#4#38    c01_38    -1
    x#4#38    c01_61    1
    x#4#38    c02_4     -21
    x#4#38    c04_4     1
    x#3#38    c01_38    -2
    x#3#38    c01_52    2
    x#3#38    c02_3     -16
    x#3#38    c04_3     1
    x#1#38    c01_38    -5
    x#1#38    c01_43    5
    x#1#38    c02_1     -8
    x#1#38    c04_1     1
    z#38      c01_38    1
    z#38      c01_39    -1
    x#48#39   c01_39    -5
    x#48#39   c01_53    5
    x#48#39   c04_48    1
    x#47#39   c01_39    -5
    x#47#39   c01_72    5
    x#47#39   c02_47    -39
    x#47#39   c04_47    1
    x#45#39   c01_39    -3
    x#45#39   c01_55    3
    x#45#39   c02_45    -32
    x#45#39   c04_45    1
    x#35#39   c01_39    -4
    x#35#39   c01_63    4
    x#35#39   c02_35    -16
    x#35#39   c04_35    1
    x#30#39   c01_39    -5
    x#30#39   c01_56    5
    x#30#39   c02_30    -17
    x#30#39   c04_30    1
    x#28#39   c01_39    -5
    x#28#39   c01_55    5
    x#28#39   c02_28    -11
    x#28#39   c04_28    1
    x#26#39   c01_39    -4
    x#26#39   c01_68    4
    x#26#39   c02_26    -15
    x#26#39   c04_26    1
    x#23#39   c01_39    -2
    x#23#39   c01_53    2
    x#23#39   c02_23    -20
    x#23#39   c04_23    1
    x#22#39   c01_39    -1
    x#22#39   c01_76    1
    x#22#39   c02_22    -15
    x#22#39   c04_22    1
    x#17#39   c01_39    -5
    x#17#39   c01_58    5
    x#17#39   c02_17    -21
    x#17#39   c04_17    1
    x#11#39   c01_39    -3
    x#11#39   c01_71    3
    x#11#39   c02_11    -12
    x#11#39   c04_11    1
    x#6#39    c01_39    -5
    x#6#39    c01_84    5
    x#6#39    c02_6     -15
    x#6#39    c04_6     1
    x#4#39    c01_39    -1
    x#4#39    c01_62    1
    x#4#39    c02_4     -22
    x#4#39    c04_4     1
    x#3#39    c01_39    -2
    x#3#39    c01_53    2
    x#3#39    c02_3     -17
    x#3#39    c04_3     1
    x#1#39    c01_39    -5
    x#1#39    c01_44    5
    x#1#39    c02_1     -9
    x#1#39    c04_1     1
    z#39      c01_39    1
    z#39      c01_40    -1
    x#48#40   c01_40    -5
    x#48#40   c01_54    5
    x#48#40   c02_48    -1
    x#48#40   c04_48    1
    x#47#40   c01_40    -5
    x#47#40   c01_73    5
    x#47#40   c02_47    -40
    x#47#40   c04_47    1
    x#45#40   c01_40    -3
    x#45#40   c01_56    3
    x#45#40   c02_45    -33
    x#45#40   c04_45    1
    x#35#40   c01_40    -4
    x#35#40   c01_64    4
    x#35#40   c02_35    -17
    x#35#40   c04_35    1
    x#28#40   c01_40    -5
    x#28#40   c01_56    5
    x#28#40   c02_28    -12
    x#28#40   c04_28    1
    x#26#40   c01_40    -4
    x#26#40   c01_69    4
    x#26#40   c02_26    -16
    x#26#40   c04_26    1
    x#23#40   c01_40    -2
    x#23#40   c01_54    2
    x#23#40   c02_23    -21
    x#23#40   c04_23    1
    x#22#40   c01_40    -1
    x#22#40   c01_77    1
    x#22#40   c02_22    -16
    x#22#40   c04_22    1
    x#17#40   c01_40    -5
    x#17#40   c01_59    5
    x#17#40   c02_17    -22
    x#17#40   c04_17    1
    x#11#40   c01_40    -3
    x#11#40   c01_72    3
    x#11#40   c02_11    -13
    x#11#40   c04_11    1
    x#8#40    c01_40    -5
    x#8#40    c01_55    5
    x#8#40    c04_8     1
    x#6#40    c01_40    -5
    x#6#40    c01_85    5
    x#6#40    c02_6     -16
    x#6#40    c04_6     1
    x#4#40    c01_40    -1
    x#4#40    c01_63    1
    x#4#40    c02_4     -23
    x#4#40    c04_4     1
    x#3#40    c01_40    -2
    x#3#40    c01_54    2
    x#3#40    c02_3     -18
    x#3#40    c04_3     1
    x#1#40    c01_40    -5
    x#1#40    c01_45    5
    x#1#40    c02_1     -10
    x#1#40    c04_1     1
    z#40      c01_40    1
    z#40      c01_41    -1
    x#48#41   c01_41    -5
    x#48#41   c01_55    5
    x#48#41   c02_48    -2
    x#48#41   c04_48    1
    x#45#41   c01_41    -3
    x#45#41   c01_57    3
    x#45#41   c02_45    -34
    x#45#41   c04_45    1
    x#35#41   c01_41    -4
    x#35#41   c01_65    4
    x#35#41   c02_35    -18
    x#35#41   c04_35    1
    x#28#41   c01_41    -5
    x#28#41   c01_57    5
    x#28#41   c02_28    -13
    x#28#41   c04_28    1
    x#26#41   c01_41    -4
    x#26#41   c01_70    4
    x#26#41   c02_26    -17
    x#26#41   c04_26    1
    x#23#41   c01_41    -2
    x#23#41   c01_55    2
    x#23#41   c02_23    -22
    x#23#41   c04_23    1
    x#22#41   c01_41    -1
    x#22#41   c01_78    1
    x#22#41   c02_22    -17
    x#22#41   c04_22    1
    x#17#41   c01_41    -5
    x#17#41   c01_60    5
    x#17#41   c02_17    -23
    x#17#41   c04_17    1
    x#11#41   c01_41    -3
    x#11#41   c01_73    3
    x#11#41   c02_11    -14
    x#11#41   c04_11    1
    x#8#41    c01_41    -5
    x#8#41    c01_56    5
    x#8#41    c02_8     -1
    x#8#41    c04_8     1
    x#6#41    c01_41    -5
    x#6#41    c01_86    5
    x#6#41    c02_6     -17
    x#6#41    c04_6     1
    x#4#41    c01_41    -1
    x#4#41    c01_64    1
    x#4#41    c02_4     -24
    x#4#41    c04_4     1
    x#3#41    c01_41    -2
    x#3#41    c01_55    2
    x#3#41    c02_3     -19
    x#3#41    c04_3     1
    x#1#41    c01_41    -5
    x#1#41    c01_46    5
    x#1#41    c02_1     -11
    x#1#41    c04_1     1
    z#41      c01_41    1
    z#41      c01_42    -1
    x#48#42   c01_42    -5
    x#48#42   c01_56    5
    x#48#42   c02_48    -3
    x#48#42   c04_48    1
    x#45#42   c01_42    -3
    x#45#42   c01_58    3
    x#45#42   c02_45    -35
    x#45#42   c04_45    1
    x#35#42   c01_42    -4
    x#35#42   c01_66    4
    x#35#42   c02_35    -19
    x#35#42   c04_35    1
    x#28#42   c01_42    -5
    x#28#42   c01_58    5
    x#28#42   c02_28    -14
    x#28#42   c04_28    1
    x#26#42   c01_42    -4
    x#26#42   c01_71    4
    x#26#42   c02_26    -18
    x#26#42   c04_26    1
    x#23#42   c01_42    -2
    x#23#42   c01_56    2
    x#23#42   c02_23    -23
    x#23#42   c04_23    1
    x#22#42   c01_42    -1
    x#22#42   c01_79    1
    x#22#42   c02_22    -18
    x#22#42   c04_22    1
    x#17#42   c01_42    -5
    x#17#42   c01_61    5
    x#17#42   c02_17    -24
    x#17#42   c04_17    1
    x#11#42   c01_42    -3
    x#11#42   c01_74    3
    x#11#42   c02_11    -15
    x#11#42   c04_11    1
    x#8#42    c01_42    -5
    x#8#42    c01_57    5
    x#8#42    c02_8     -2
    x#8#42    c04_8     1
    x#6#42    c01_42    -5
    x#6#42    c01_87    5
    x#6#42    c02_6     -18
    x#6#42    c04_6     1
    x#4#42    c01_42    -1
    x#4#42    c01_65    1
    x#4#42    c02_4     -25
    x#4#42    c04_4     1
    x#3#42    c01_42    -2
    x#3#42    c01_56    2
    x#3#42    c02_3     -20
    x#3#42    c04_3     1
    x#1#42    c01_42    -5
    x#1#42    c01_47    5
    x#1#42    c02_1     -12
    x#1#42    c04_1     1
    z#42      c01_42    1
    z#42      c01_43    -1
    x#48#43   c01_43    -5
    x#48#43   c01_57    5
    x#48#43   c02_48    -4
    x#48#43   c04_48    1
    x#45#43   c01_43    -3
    x#45#43   c01_59    3
    x#45#43   c02_45    -36
    x#45#43   c04_45    1
    x#35#43   c01_43    -4
    x#35#43   c01_67    4
    x#35#43   c02_35    -20
    x#35#43   c04_35    1
    x#28#43   c01_43    -5
    x#28#43   c01_59    5
    x#28#43   c02_28    -15
    x#28#43   c04_28    1
    x#26#43   c01_43    -4
    x#26#43   c01_72    4
    x#26#43   c02_26    -19
    x#26#43   c04_26    1
    x#23#43   c01_43    -2
    x#23#43   c01_57    2
    x#23#43   c02_23    -24
    x#23#43   c04_23    1
    x#22#43   c01_43    -1
    x#22#43   c01_80    1
    x#22#43   c02_22    -19
    x#22#43   c04_22    1
    x#17#43   c01_43    -5
    x#17#43   c01_62    5
    x#17#43   c02_17    -25
    x#17#43   c04_17    1
    x#11#43   c01_43    -3
    x#11#43   c01_75    3
    x#11#43   c02_11    -16
    x#11#43   c04_11    1
    x#8#43    c01_43    -5
    x#8#43    c01_58    5
    x#8#43    c02_8     -3
    x#8#43    c04_8     1
    x#6#43    c01_43    -5
    x#6#43    c01_88    5
    x#6#43    c02_6     -19
    x#6#43    c04_6     1
    x#3#43    c01_43    -2
    x#3#43    c01_57    2
    x#3#43    c02_3     -21
    x#3#43    c04_3     1
    x#1#43    c01_43    -5
    x#1#43    c01_48    5
    x#1#43    c02_1     -13
    x#1#43    c04_1     1
    z#43      c01_43    1
    z#43      c01_44    -1
    x#48#44   c01_44    -5
    x#48#44   c01_58    5
    x#48#44   c02_48    -5
    x#48#44   c04_48    1
    x#45#44   c01_44    -3
    x#45#44   c01_60    3
    x#45#44   c02_45    -37
    x#45#44   c04_45    1
    x#35#44   c01_44    -4
    x#35#44   c01_68    4
    x#35#44   c02_35    -21
    x#35#44   c04_35    1
    x#28#44   c01_44    -5
    x#28#44   c01_60    5
    x#28#44   c02_28    -16
    x#28#44   c04_28    1
    x#26#44   c01_44    -4
    x#26#44   c01_73    4
    x#26#44   c02_26    -20
    x#26#44   c04_26    1
    x#23#44   c01_44    -2
    x#23#44   c01_58    2
    x#23#44   c02_23    -25
    x#23#44   c04_23    1
    x#22#44   c01_44    -1
    x#22#44   c01_81    1
    x#22#44   c02_22    -20
    x#22#44   c04_22    1
    x#17#44   c01_44    -5
    x#17#44   c01_63    5
    x#17#44   c02_17    -26
    x#17#44   c04_17    1
    x#11#44   c01_44    -3
    x#11#44   c01_76    3
    x#11#44   c02_11    -17
    x#11#44   c04_11    1
    x#8#44    c01_44    -5
    x#8#44    c01_59    5
    x#8#44    c02_8     -4
    x#8#44    c04_8     1
    x#6#44    c01_44    -5
    x#6#44    c01_89    5
    x#6#44    c02_6     -20
    x#6#44    c04_6     1
    x#3#44    c01_44    -2
    x#3#44    c01_58    2
    x#3#44    c02_3     -22
    x#3#44    c04_3     1
    x#1#44    c01_44    -5
    x#1#44    c01_49    5
    x#1#44    c02_1     -14
    x#1#44    c04_1     1
    z#44      c01_44    1
    z#44      c01_45    -1
    x#48#45   c01_45    -5
    x#48#45   c01_59    5
    x#48#45   c02_48    -6
    x#48#45   c04_48    1
    x#45#45   c01_45    -3
    x#45#45   c01_61    3
    x#45#45   c02_45    -38
    x#45#45   c04_45    1
    x#35#45   c01_45    -4
    x#35#45   c01_69    4
    x#35#45   c02_35    -22
    x#35#45   c04_35    1
    x#28#45   c01_45    -5
    x#28#45   c01_61    5
    x#28#45   c02_28    -17
    x#28#45   c04_28    1
    x#26#45   c01_45    -4
    x#26#45   c01_74    4
    x#26#45   c02_26    -21
    x#26#45   c04_26    1
    x#23#45   c01_45    -2
    x#23#45   c01_59    2
    x#23#45   c02_23    -26
    x#23#45   c04_23    1
    x#22#45   c01_45    -1
    x#22#45   c01_82    1
    x#22#45   c02_22    -21
    x#22#45   c04_22    1
    x#17#45   c01_45    -5
    x#17#45   c01_64    5
    x#17#45   c02_17    -27
    x#17#45   c04_17    1
    x#11#45   c01_45    -3
    x#11#45   c01_77    3
    x#11#45   c02_11    -18
    x#11#45   c04_11    1
    x#8#45    c01_45    -5
    x#8#45    c01_60    5
    x#8#45    c02_8     -5
    x#8#45    c04_8     1
    x#6#45    c01_45    -5
    x#6#45    c01_90    5
    x#6#45    c02_6     -21
    x#6#45    c04_6     1
    x#3#45    c01_45    -2
    x#3#45    c01_59    2
    x#3#45    c02_3     -23
    x#3#45    c04_3     1
    x#1#45    c01_45    -5
    x#1#45    c01_50    5
    x#1#45    c02_1     -15
    x#1#45    c04_1     1
    z#45      c01_45    1
    z#45      c01_46    -1
    x#48#46   c01_46    -5
    x#48#46   c01_60    5
    x#48#46   c02_48    -7
    x#48#46   c04_48    1
    x#45#46   c01_46    -3
    x#45#46   c01_62    3
    x#45#46   c02_45    -39
    x#45#46   c04_45    1
    x#35#46   c01_46    -4
    x#35#46   c01_70    4
    x#35#46   c02_35    -23
    x#35#46   c04_35    1
    x#28#46   c01_46    -5
    x#28#46   c01_62    5
    x#28#46   c02_28    -18
    x#28#46   c04_28    1
    x#26#46   c01_46    -4
    x#26#46   c01_75    4
    x#26#46   c02_26    -22
    x#26#46   c04_26    1
    x#23#46   c01_46    -2
    x#23#46   c01_60    2
    x#23#46   c02_23    -27
    x#23#46   c04_23    1
    x#22#46   c01_46    -1
    x#22#46   c01_83    1
    x#22#46   c02_22    -22
    x#22#46   c04_22    1
    x#17#46   c01_46    -5
    x#17#46   c01_65    5
    x#17#46   c02_17    -28
    x#17#46   c04_17    1
    x#11#46   c01_46    -3
    x#11#46   c01_78    3
    x#11#46   c02_11    -19
    x#11#46   c04_11    1
    x#8#46    c01_46    -5
    x#8#46    c01_61    5
    x#8#46    c02_8     -6
    x#8#46    c04_8     1
    x#6#46    c01_46    -5
    x#6#46    c01_91    5
    x#6#46    c02_6     -22
    x#6#46    c04_6     1
    x#3#46    c01_46    -2
    x#3#46    c01_60    2
    x#3#46    c02_3     -24
    x#3#46    c04_3     1
    x#1#46    c01_46    -5
    x#1#46    c01_51    5
    x#1#46    c02_1     -16
    x#1#46    c04_1     1
    z#46      c01_46    1
    z#46      c01_47    -1
    x#48#47   c01_47    -5
    x#48#47   c01_61    5
    x#48#47   c02_48    -8
    x#48#47   c04_48    1
    x#45#47   c01_47    -3
    x#45#47   c01_63    3
    x#45#47   c02_45    -40
    x#45#47   c04_45    1
    x#35#47   c01_47    -4
    x#35#47   c01_71    4
    x#35#47   c02_35    -24
    x#35#47   c04_35    1
    x#28#47   c01_47    -5
    x#28#47   c01_63    5
    x#28#47   c02_28    -19
    x#28#47   c04_28    1
    x#26#47   c01_47    -4
    x#26#47   c01_76    4
    x#26#47   c02_26    -23
    x#26#47   c04_26    1
    x#23#47   c01_47    -2
    x#23#47   c01_61    2
    x#23#47   c02_23    -28
    x#23#47   c04_23    1
    x#22#47   c01_47    -1
    x#22#47   c01_84    1
    x#22#47   c02_22    -23
    x#22#47   c04_22    1
    x#17#47   c01_47    -5
    x#17#47   c01_66    5
    x#17#47   c02_17    -29
    x#17#47   c04_17    1
    x#11#47   c01_47    -3
    x#11#47   c01_79    3
    x#11#47   c02_11    -20
    x#11#47   c04_11    1
    x#8#47    c01_47    -5
    x#8#47    c01_62    5
    x#8#47    c02_8     -7
    x#8#47    c04_8     1
    x#3#47    c01_47    -2
    x#3#47    c01_61    2
    x#3#47    c02_3     -25
    x#3#47    c04_3     1
    x#1#47    c01_47    -5
    x#1#47    c01_52    5
    x#1#47    c02_1     -17
    x#1#47    c04_1     1
    z#47      c01_47    1
    z#47      c01_48    -1
    x#48#48   c01_48    -5
    x#48#48   c01_62    5
    x#48#48   c02_48    -9
    x#48#48   c04_48    1
    x#45#48   c01_48    -3
    x#45#48   c01_64    3
    x#45#48   c02_45    -41
    x#45#48   c04_45    1
    x#35#48   c01_48    -4
    x#35#48   c01_72    4
    x#35#48   c02_35    -25
    x#35#48   c04_35    1
    x#28#48   c01_48    -5
    x#28#48   c01_64    5
    x#28#48   c02_28    -20
    x#28#48   c04_28    1
    x#26#48   c01_48    -4
    x#26#48   c01_77    4
    x#26#48   c02_26    -24
    x#26#48   c04_26    1
    x#22#48   c01_48    -1
    x#22#48   c01_85    1
    x#22#48   c02_22    -24
    x#22#48   c04_22    1
    x#17#48   c01_48    -5
    x#17#48   c01_67    5
    x#17#48   c02_17    -30
    x#17#48   c04_17    1
    x#11#48   c01_48    -3
    x#11#48   c01_80    3
    x#11#48   c02_11    -21
    x#11#48   c04_11    1
    x#8#48    c01_48    -5
    x#8#48    c01_63    5
    x#8#48    c02_8     -8
    x#8#48    c04_8     1
    x#3#48    c01_48    -2
    x#3#48    c01_62    2
    x#3#48    c02_3     -26
    x#3#48    c04_3     1
    x#1#48    c01_48    -5
    x#1#48    c01_53    5
    x#1#48    c02_1     -18
    x#1#48    c04_1     1
    z#48      c01_48    1
    z#48      c01_49    -1
    x#48#49   c01_49    -5
    x#48#49   c01_63    5
    x#48#49   c02_48    -10
    x#48#49   c04_48    1
    x#45#49   c01_49    -3
    x#45#49   c01_65    3
    x#45#49   c02_45    -42
    x#45#49   c04_45    1
    x#35#49   c01_49    -4
    x#35#49   c01_73    4
    x#35#49   c02_35    -26
    x#35#49   c04_35    1
    x#28#49   c01_49    -5
    x#28#49   c01_65    5
    x#28#49   c02_28    -21
    x#28#49   c04_28    1
    x#26#49   c01_49    -4
    x#26#49   c01_78    4
    x#26#49   c02_26    -25
    x#26#49   c04_26    1
    x#22#49   c01_49    -1
    x#22#49   c01_86    1
    x#22#49   c02_22    -25
    x#22#49   c04_22    1
    x#17#49   c01_49    -5
    x#17#49   c01_68    5
    x#17#49   c02_17    -31
    x#17#49   c04_17    1
    x#11#49   c01_49    -3
    x#11#49   c01_81    3
    x#11#49   c02_11    -22
    x#11#49   c04_11    1
    x#8#49    c01_49    -5
    x#8#49    c01_64    5
    x#8#49    c02_8     -9
    x#8#49    c04_8     1
    x#3#49    c01_49    -2
    x#3#49    c01_63    2
    x#3#49    c02_3     -27
    x#3#49    c04_3     1
    x#1#49    c01_49    -5
    x#1#49    c01_54    5
    x#1#49    c02_1     -19
    x#1#49    c04_1     1
    z#49      c01_49    1
    z#49      c01_50    -1
    x#48#50   c01_50    -5
    x#48#50   c01_64    5
    x#48#50   c02_48    -11
    x#48#50   c04_48    1
    x#45#50   c01_50    -3
    x#45#50   c01_66    3
    x#45#50   c02_45    -43
    x#45#50   c04_45    1
    x#35#50   c01_50    -4
    x#35#50   c01_74    4
    x#35#50   c02_35    -27
    x#35#50   c04_35    1
    x#28#50   c01_50    -5
    x#28#50   c01_66    5
    x#28#50   c02_28    -22
    x#28#50   c04_28    1
    x#26#50   c01_50    -4
    x#26#50   c01_79    4
    x#26#50   c02_26    -26
    x#26#50   c04_26    1
    x#22#50   c01_50    -1
    x#22#50   c01_87    1
    x#22#50   c02_22    -26
    x#22#50   c04_22    1
    x#17#50   c01_50    -5
    x#17#50   c01_69    5
    x#17#50   c02_17    -32
    x#17#50   c04_17    1
    x#8#50    c01_50    -5
    x#8#50    c01_65    5
    x#8#50    c02_8     -10
    x#8#50    c04_8     1
    x#3#50    c01_50    -2
    x#3#50    c01_64    2
    x#3#50    c02_3     -28
    x#3#50    c04_3     1
    x#1#50    c01_50    -5
    x#1#50    c01_55    5
    x#1#50    c02_1     -20
    x#1#50    c04_1     1
    z#50      c01_50    1
    z#50      c01_51    -1
    x#48#51   c01_51    -5
    x#48#51   c01_65    5
    x#48#51   c02_48    -12
    x#48#51   c04_48    1
    x#45#51   c01_51    -3
    x#45#51   c01_67    3
    x#45#51   c02_45    -44
    x#45#51   c04_45    1
    x#35#51   c01_51    -4
    x#35#51   c01_75    4
    x#35#51   c02_35    -28
    x#35#51   c04_35    1
    x#28#51   c01_51    -5
    x#28#51   c01_67    5
    x#28#51   c02_28    -23
    x#28#51   c04_28    1
    x#26#51   c01_51    -4
    x#26#51   c01_80    4
    x#26#51   c02_26    -27
    x#26#51   c04_26    1
    x#22#51   c01_51    -1
    x#22#51   c01_88    1
    x#22#51   c02_22    -27
    x#22#51   c04_22    1
    x#17#51   c01_51    -5
    x#17#51   c01_70    5
    x#17#51   c02_17    -33
    x#17#51   c04_17    1
    x#8#51    c01_51    -5
    x#8#51    c01_66    5
    x#8#51    c02_8     -11
    x#8#51    c04_8     1
    x#3#51    c01_51    -2
    x#3#51    c01_65    2
    x#3#51    c02_3     -29
    x#3#51    c04_3     1
    x#1#51    c01_51    -5
    x#1#51    c01_56    5
    x#1#51    c02_1     -21
    x#1#51    c04_1     1
    z#51      c01_51    1
    z#51      c01_52    -1
    x#48#52   c01_52    -5
    x#48#52   c01_66    5
    x#48#52   c02_48    -13
    x#48#52   c04_48    1
    x#45#52   c01_52    -3
    x#45#52   c01_68    3
    x#45#52   c02_45    -45
    x#45#52   c04_45    1
    x#35#52   c01_52    -4
    x#35#52   c01_76    4
    x#35#52   c02_35    -29
    x#35#52   c04_35    1
    x#28#52   c01_52    -5
    x#28#52   c01_68    5
    x#28#52   c02_28    -24
    x#28#52   c04_28    1
    x#26#52   c01_52    -4
    x#26#52   c01_81    4
    x#26#52   c02_26    -28
    x#26#52   c04_26    1
    x#22#52   c01_52    -1
    x#22#52   c01_89    1
    x#22#52   c02_22    -28
    x#22#52   c04_22    1
    x#17#52   c01_52    -5
    x#17#52   c01_71    5
    x#17#52   c02_17    -34
    x#17#52   c04_17    1
    x#8#52    c01_52    -5
    x#8#52    c01_67    5
    x#8#52    c02_8     -12
    x#8#52    c04_8     1
    x#3#52    c01_52    -2
    x#3#52    c01_66    2
    x#3#52    c02_3     -30
    x#3#52    c04_3     1
    z#52      c01_52    1
    z#52      c01_53    -1
    x#48#53   c01_53    -5
    x#48#53   c01_67    5
    x#48#53   c02_48    -14
    x#48#53   c04_48    1
    x#45#53   c01_53    -3
    x#45#53   c01_69    3
    x#45#53   c02_45    -46
    x#45#53   c04_45    1
    x#35#53   c01_53    -4
    x#35#53   c01_77    4
    x#35#53   c02_35    -30
    x#35#53   c04_35    1
    x#28#53   c01_53    -5
    x#28#53   c01_69    5
    x#28#53   c02_28    -25
    x#28#53   c04_28    1
    x#26#53   c01_53    -4
    x#26#53   c01_82    4
    x#26#53   c02_26    -29
    x#26#53   c04_26    1
    x#22#53   c01_53    -1
    x#22#53   c01_90    1
    x#22#53   c02_22    -29
    x#22#53   c04_22    1
    x#17#53   c01_53    -5
    x#17#53   c01_72    5
    x#17#53   c02_17    -35
    x#17#53   c04_17    1
    x#8#53    c01_53    -5
    x#8#53    c01_68    5
    x#8#53    c02_8     -13
    x#8#53    c04_8     1
    x#3#53    c01_53    -2
    x#3#53    c01_67    2
    x#3#53    c02_3     -31
    x#3#53    c04_3     1
    z#53      c01_53    1
    z#53      c01_54    -1
    x#48#54   c01_54    -5
    x#48#54   c01_68    5
    x#48#54   c02_48    -15
    x#48#54   c04_48    1
    x#45#54   c01_54    -3
    x#45#54   c01_70    3
    x#45#54   c02_45    -47
    x#45#54   c04_45    1
    x#35#54   c01_54    -4
    x#35#54   c01_78    4
    x#35#54   c02_35    -31
    x#35#54   c04_35    1
    x#28#54   c01_54    -5
    x#28#54   c01_70    5
    x#28#54   c02_28    -26
    x#28#54   c04_28    1
    x#26#54   c01_54    -4
    x#26#54   c01_83    4
    x#26#54   c02_26    -30
    x#26#54   c04_26    1
    x#22#54   c01_54    -1
    x#22#54   c01_91    1
    x#22#54   c02_22    -30
    x#22#54   c04_22    1
    x#17#54   c01_54    -5
    x#17#54   c01_73    5
    x#17#54   c02_17    -36
    x#17#54   c04_17    1
    x#14#54   c01_54    -2
    x#14#54   c01_85    2
    x#14#54   c04_14    1
    x#8#54    c01_54    -5
    x#8#54    c01_69    5
    x#8#54    c02_8     -14
    x#8#54    c04_8     1
    x#3#54    c01_54    -2
    x#3#54    c01_68    2
    x#3#54    c02_3     -32
    x#3#54    c04_3     1
    z#54      c01_54    1
    z#54      c01_55    -1
    x#48#55   c01_55    -5
    x#48#55   c01_69    5
    x#48#55   c02_48    -16
    x#48#55   c04_48    1
    x#45#55   c01_55    -3
    x#45#55   c01_71    3
    x#45#55   c02_45    -48
    x#45#55   c04_45    1
    x#35#55   c01_55    -4
    x#35#55   c01_79    4
    x#35#55   c02_35    -32
    x#35#55   c04_35    1
    x#28#55   c01_55    -5
    x#28#55   c01_71    5
    x#28#55   c02_28    -27
    x#28#55   c04_28    1
    x#22#55   c01_55    -1
    x#22#55   c01_92    1
    x#22#55   c02_22    -31
    x#22#55   c04_22    1
    x#17#55   c01_55    -5
    x#17#55   c01_74    5
    x#17#55   c02_17    -37
    x#17#55   c04_17    1
    x#14#55   c01_55    -2
    x#14#55   c01_86    2
    x#14#55   c02_14    -1
    x#14#55   c04_14    1
    x#8#55    c01_55    -5
    x#8#55    c01_70    5
    x#8#55    c02_8     -15
    x#8#55    c04_8     1
    x#3#55    c01_55    -2
    x#3#55    c01_69    2
    x#3#55    c02_3     -33
    x#3#55    c04_3     1
    z#55      c01_55    1
    z#55      c01_56    -1
    x#48#56   c01_56    -5
    x#48#56   c01_70    5
    x#48#56   c02_48    -17
    x#48#56   c04_48    1
    x#45#56   c01_56    -3
    x#45#56   c01_72    3
    x#45#56   c02_45    -49
    x#45#56   c04_45    1
    x#35#56   c01_56    -4
    x#35#56   c01_80    4
    x#35#56   c02_35    -33
    x#35#56   c04_35    1
    x#28#56   c01_56    -5
    x#28#56   c01_72    5
    x#28#56   c02_28    -28
    x#28#56   c04_28    1
    x#22#56   c01_56    -1
    x#22#56   c01_93    1
    x#22#56   c02_22    -32
    x#22#56   c04_22    1
    x#17#56   c01_56    -5
    x#17#56   c01_75    5
    x#17#56   c02_17    -38
    x#17#56   c04_17    1
    x#14#56   c01_56    -2
    x#14#56   c01_87    2
    x#14#56   c02_14    -2
    x#14#56   c04_14    1
    x#8#56    c01_56    -5
    x#8#56    c01_71    5
    x#8#56    c02_8     -16
    x#8#56    c04_8     1
    x#3#56    c01_56    -2
    x#3#56    c01_70    2
    x#3#56    c02_3     -34
    x#3#56    c04_3     1
    z#56      c01_56    1
    z#56      c01_57    -1
    x#48#57   c01_57    -5
    x#48#57   c01_71    5
    x#48#57   c02_48    -18
    x#48#57   c04_48    1
    x#45#57   c01_57    -3
    x#45#57   c01_73    3
    x#45#57   c02_45    -50
    x#45#57   c04_45    1
    x#35#57   c01_57    -4
    x#35#57   c01_81    4
    x#35#57   c02_35    -34
    x#35#57   c04_35    1
    x#33#57   c01_57    -5
    x#33#57   c01_95    5
    x#33#57   c04_33    1
    x#28#57   c01_57    -5
    x#28#57   c01_73    5
    x#28#57   c02_28    -29
    x#28#57   c04_28    1
    x#27#57   c01_57    -1
    x#27#57   c01_95    1
    x#27#57   c04_27    1
    x#22#57   c01_57    -1
    x#22#57   c01_94    1
    x#22#57   c02_22    -33
    x#22#57   c04_22    1
    x#17#57   c01_57    -5
    x#17#57   c01_76    5
    x#17#57   c02_17    -39
    x#17#57   c04_17    1
    x#14#57   c01_57    -2
    x#14#57   c01_88    2
    x#14#57   c02_14    -3
    x#14#57   c04_14    1
    x#8#57    c01_57    -5
    x#8#57    c01_72    5
    x#8#57    c02_8     -17
    x#8#57    c04_8     1
    x#3#57    c01_57    -2
    x#3#57    c01_71    2
    x#3#57    c02_3     -35
    x#3#57    c04_3     1
    z#57      c01_57    1
    z#57      c01_58    -1
    x#48#58   c01_58    -5
    x#48#58   c01_72    5
    x#48#58   c02_48    -19
    x#48#58   c04_48    1
    x#45#58   c01_58    -3
    x#45#58   c01_74    3
    x#45#58   c02_45    -51
    x#45#58   c04_45    1
    x#35#58   c01_58    -4
    x#35#58   c01_82    4
    x#35#58   c02_35    -35
    x#35#58   c04_35    1
    x#33#58   c01_58    -5
    x#33#58   c01_96    5
    x#33#58   c02_33    -1
    x#33#58   c04_33    1
    x#28#58   c01_58    -5
    x#28#58   c01_74    5
    x#28#58   c02_28    -30
    x#28#58   c04_28    1
    x#27#58   c01_58    -1
    x#27#58   c01_96    1
    x#27#58   c02_27    -1
    x#27#58   c04_27    1
    x#22#58   c01_58    -1
    x#22#58   c01_95    1
    x#22#58   c02_22    -34
    x#22#58   c04_22    1
    x#17#58   c01_58    -5
    x#17#58   c01_77    5
    x#17#58   c02_17    -40
    x#17#58   c04_17    1
    x#14#58   c01_58    -2
    x#14#58   c01_89    2
    x#14#58   c02_14    -4
    x#14#58   c04_14    1
    x#8#58    c01_58    -5
    x#8#58    c01_73    5
    x#8#58    c02_8     -18
    x#8#58    c04_8     1
    x#3#58    c01_58    -2
    x#3#58    c01_72    2
    x#3#58    c02_3     -36
    x#3#58    c04_3     1
    z#58      c01_58    1
    z#58      c01_59    -1
    x#48#59   c01_59    -5
    x#48#59   c01_73    5
    x#48#59   c02_48    -20
    x#48#59   c04_48    1
    x#45#59   c01_59    -3
    x#45#59   c01_75    3
    x#45#59   c02_45    -52
    x#45#59   c04_45    1
    x#35#59   c01_59    -4
    x#35#59   c01_83    4
    x#35#59   c02_35    -36
    x#35#59   c04_35    1
    x#33#59   c01_59    -5
    x#33#59   c01_97    5
    x#33#59   c02_33    -2
    x#33#59   c04_33    1
    x#28#59   c01_59    -5
    x#28#59   c01_75    5
    x#28#59   c02_28    -31
    x#28#59   c04_28    1
    x#27#59   c01_59    -1
    x#27#59   c01_97    1
    x#27#59   c02_27    -2
    x#27#59   c04_27    1
    x#22#59   c01_59    -1
    x#22#59   c01_96    1
    x#22#59   c02_22    -35
    x#22#59   c04_22    1
    x#17#59   c01_59    -5
    x#17#59   c01_78    5
    x#17#59   c02_17    -41
    x#17#59   c04_17    1
    x#14#59   c01_59    -2
    x#14#59   c01_90    2
    x#14#59   c02_14    -5
    x#14#59   c04_14    1
    x#8#59    c01_59    -5
    x#8#59    c01_74    5
    x#8#59    c02_8     -19
    x#8#59    c04_8     1
    x#3#59    c01_59    -2
    x#3#59    c01_73    2
    x#3#59    c02_3     -37
    x#3#59    c04_3     1
    z#59      c01_59    1
    z#59      c01_60    -1
    x#48#60   c01_60    -5
    x#48#60   c01_74    5
    x#48#60   c02_48    -21
    x#48#60   c04_48    1
    x#45#60   c01_60    -3
    x#45#60   c01_76    3
    x#45#60   c02_45    -53
    x#45#60   c04_45    1
    x#35#60   c01_60    -4
    x#35#60   c01_84    4
    x#35#60   c02_35    -37
    x#35#60   c04_35    1
    x#33#60   c01_60    -5
    x#33#60   c01_98    5
    x#33#60   c02_33    -3
    x#33#60   c04_33    1
    x#28#60   c01_60    -5
    x#28#60   c01_76    5
    x#28#60   c02_28    -32
    x#28#60   c04_28    1
    x#27#60   c01_60    -1
    x#27#60   c01_98    1
    x#27#60   c02_27    -3
    x#27#60   c04_27    1
    x#22#60   c01_60    -1
    x#22#60   c01_97    1
    x#22#60   c02_22    -36
    x#22#60   c04_22    1
    x#17#60   c01_60    -5
    x#17#60   c01_79    5
    x#17#60   c02_17    -42
    x#17#60   c04_17    1
    x#15#60   c01_60    -2
    x#15#60   c01_79    2
    x#15#60   c04_15    1
    x#14#60   c01_60    -2
    x#14#60   c01_91    2
    x#14#60   c02_14    -6
    x#14#60   c04_14    1
    x#8#60    c01_60    -5
    x#8#60    c01_75    5
    x#8#60    c02_8     -20
    x#8#60    c04_8     1
    x#3#60    c01_60    -2
    x#3#60    c01_74    2
    x#3#60    c02_3     -38
    x#3#60    c04_3     1
    z#60      c01_60    1
    z#60      c01_61    -1
    x#48#61   c01_61    -5
    x#48#61   c01_75    5
    x#48#61   c02_48    -22
    x#48#61   c04_48    1
    x#45#61   c01_61    -3
    x#45#61   c01_77    3
    x#45#61   c02_45    -54
    x#45#61   c04_45    1
    x#35#61   c01_61    -4
    x#35#61   c01_85    4
    x#35#61   c02_35    -38
    x#35#61   c04_35    1
    x#33#61   c01_61    -5
    x#33#61   c01_99    5
    x#33#61   c02_33    -4
    x#33#61   c04_33    1
    x#28#61   c01_61    -5
    x#28#61   c01_77    5
    x#28#61   c02_28    -33
    x#28#61   c04_28    1
    x#27#61   c01_61    -1
    x#27#61   c01_99    1
    x#27#61   c02_27    -4
    x#27#61   c04_27    1
    x#17#61   c01_61    -5
    x#17#61   c01_80    5
    x#17#61   c02_17    -43
    x#17#61   c04_17    1
    x#15#61   c01_61    -2
    x#15#61   c01_80    2
    x#15#61   c02_15    -1
    x#15#61   c04_15    1
    x#14#61   c01_61    -2
    x#14#61   c01_92    2
    x#14#61   c02_14    -7
    x#14#61   c04_14    1
    x#8#61    c01_61    -5
    x#8#61    c01_76    5
    x#8#61    c02_8     -21
    x#8#61    c04_8     1
    x#3#61    c01_61    -2
    x#3#61    c01_75    2
    x#3#61    c02_3     -39
    x#3#61    c04_3     1
    z#61      c01_61    1
    z#61      c01_62    -1
    x#48#62   c01_62    -5
    x#48#62   c01_76    5
    x#48#62   c02_48    -23
    x#48#62   c04_48    1
    x#45#62   c01_62    -3
    x#45#62   c01_78    3
    x#45#62   c02_45    -55
    x#45#62   c04_45    1
    x#41#62   c01_62    -3
    x#41#62   c01_74    3
    x#41#62   c04_41    1
    x#35#62   c01_62    -4
    x#35#62   c01_86    4
    x#35#62   c02_35    -39
    x#35#62   c04_35    1
    x#33#62   c01_62    -5
    x#33#62   c01_100   5
    x#33#62   c02_33    -5
    x#33#62   c04_33    1
    x#28#62   c01_62    -5
    x#28#62   c01_78    5
    x#28#62   c02_28    -34
    x#28#62   c04_28    1
    x#27#62   c01_62    -1
    x#27#62   c01_100   1
    x#27#62   c02_27    -5
    x#27#62   c04_27    1
    x#17#62   c01_62    -5
    x#17#62   c01_81    5
    x#17#62   c02_17    -44
    x#17#62   c04_17    1
    x#15#62   c01_62    -2
    x#15#62   c01_81    2
    x#15#62   c02_15    -2
    x#15#62   c04_15    1
    x#14#62   c01_62    -2
    x#14#62   c01_93    2
    x#14#62   c02_14    -8
    x#14#62   c04_14    1
    x#8#62    c01_62    -5
    x#8#62    c01_77    5
    x#8#62    c02_8     -22
    x#8#62    c04_8     1
    x#3#62    c01_62    -2
    x#3#62    c01_76    2
    x#3#62    c02_3     -40
    x#3#62    c04_3     1
    z#62      c01_62    1
    z#62      c01_63    -1
    x#48#63   c01_63    -5
    x#48#63   c01_77    5
    x#48#63   c02_48    -24
    x#48#63   c04_48    1
    x#45#63   c01_63    -3
    x#45#63   c01_79    3
    x#45#63   c02_45    -56
    x#45#63   c04_45    1
    x#41#63   c01_63    -3
    x#41#63   c01_75    3
    x#41#63   c02_41    -1
    x#41#63   c04_41    1
    x#35#63   c01_63    -4
    x#35#63   c01_87    4
    x#35#63   c02_35    -40
    x#35#63   c04_35    1
    x#33#63   c01_63    -5
    x#33#63   c01_101   5
    x#33#63   c02_33    -6
    x#33#63   c04_33    1
    x#28#63   c01_63    -5
    x#28#63   c01_79    5
    x#28#63   c02_28    -35
    x#28#63   c04_28    1
    x#27#63   c01_63    -1
    x#27#63   c01_101   1
    x#27#63   c02_27    -6
    x#27#63   c04_27    1
    x#15#63   c01_63    -2
    x#15#63   c01_82    2
    x#15#63   c02_15    -3
    x#15#63   c04_15    1
    x#14#63   c01_63    -2
    x#14#63   c01_94    2
    x#14#63   c02_14    -9
    x#14#63   c04_14    1
    x#8#63    c01_63    -5
    x#8#63    c01_78    5
    x#8#63    c02_8     -23
    x#8#63    c04_8     1
    x#3#63    c01_63    -2
    x#3#63    c01_77    2
    x#3#63    c02_3     -41
    x#3#63    c04_3     1
    z#63      c01_63    1
    z#63      c01_64    -1
    x#48#64   c01_64    -5
    x#48#64   c01_78    5
    x#48#64   c02_48    -25
    x#48#64   c04_48    1
    x#41#64   c01_64    -3
    x#41#64   c01_76    3
    x#41#64   c02_41    -2
    x#41#64   c04_41    1
    x#35#64   c01_64    -4
    x#35#64   c01_88    4
    x#35#64   c02_35    -41
    x#35#64   c04_35    1
    x#34#64   c01_64    -4
    x#34#64   c01_74    4
    x#34#64   c04_34    1
    x#33#64   c01_64    -5
    x#33#64   c01_102   5
    x#33#64   c02_33    -7
    x#33#64   c04_33    1
    x#28#64   c01_64    -5
    x#28#64   c01_80    5
    x#28#64   c02_28    -36
    x#28#64   c04_28    1
    x#27#64   c01_64    -1
    x#27#64   c01_102   1
    x#27#64   c02_27    -7
    x#27#64   c04_27    1
    x#15#64   c01_64    -2
    x#15#64   c01_83    2
    x#15#64   c02_15    -4
    x#15#64   c04_15    1
    x#14#64   c01_64    -2
    x#14#64   c01_95    2
    x#14#64   c02_14    -10
    x#14#64   c04_14    1
    x#8#64    c01_64    -5
    x#8#64    c01_79    5
    x#8#64    c02_8     -24
    x#8#64    c04_8     1
    x#3#64    c01_64    -2
    x#3#64    c01_78    2
    x#3#64    c02_3     -42
    x#3#64    c04_3     1
    z#64      c01_64    1
    z#64      c01_65    -1
    x#50#65   c01_65    -2
    x#50#65   c01_92    2
    x#50#65   c04_50    1
    x#48#65   c01_65    -5
    x#48#65   c01_79    5
    x#48#65   c02_48    -26
    x#48#65   c04_48    1
    x#41#65   c01_65    -3
    x#41#65   c01_77    3
    x#41#65   c02_41    -3
    x#41#65   c04_41    1
    x#35#65   c01_65    -4
    x#35#65   c01_89    4
    x#35#65   c02_35    -42
    x#35#65   c04_35    1
    x#34#65   c01_65    -4
    x#34#65   c01_75    4
    x#34#65   c02_34    -1
    x#34#65   c04_34    1
    x#33#65   c01_65    -5
    x#33#65   c01_103   5
    x#33#65   c02_33    -8
    x#33#65   c04_33    1
    x#28#65   c01_65    -5
    x#28#65   c01_81    5
    x#28#65   c02_28    -37
    x#28#65   c04_28    1
    x#27#65   c01_65    -1
    x#27#65   c01_103   1
    x#27#65   c02_27    -8
    x#27#65   c04_27    1
    x#15#65   c01_65    -2
    x#15#65   c01_84    2
    x#15#65   c02_15    -5
    x#15#65   c04_15    1
    x#14#65   c01_65    -2
    x#14#65   c01_96    2
    x#14#65   c02_14    -11
    x#14#65   c04_14    1
    x#8#65    c01_65    -5
    x#8#65    c01_80    5
    x#8#65    c02_8     -25
    x#8#65    c04_8     1
    x#3#65    c01_65    -2
    x#3#65    c01_79    2
    x#3#65    c02_3     -43
    x#3#65    c04_3     1
    z#65      c01_65    1
    z#65      c01_66    -1
    x#50#66   c01_66    -2
    x#50#66   c01_93    2
    x#50#66   c02_50    -1
    x#50#66   c04_50    1
    x#48#66   c01_66    -5
    x#48#66   c01_80    5
    x#48#66   c02_48    -27
    x#48#66   c04_48    1
    x#41#66   c01_66    -3
    x#41#66   c01_78    3
    x#41#66   c02_41    -4
    x#41#66   c04_41    1
    x#35#66   c01_66    -4
    x#35#66   c01_90    4
    x#35#66   c02_35    -43
    x#35#66   c04_35    1
    x#34#66   c01_66    -4
    x#34#66   c01_76    4
    x#34#66   c02_34    -2
    x#34#66   c04_34    1
    x#33#66   c01_66    -5
    x#33#66   c01_104   5
    x#33#66   c02_33    -9
    x#33#66   c04_33    1
    x#28#66   c01_66    -5
    x#28#66   c01_82    5
    x#28#66   c02_28    -38
    x#28#66   c04_28    1
    x#27#66   c01_66    -1
    x#27#66   c01_104   1
    x#27#66   c02_27    -9
    x#27#66   c04_27    1
    x#15#66   c01_66    -2
    x#15#66   c01_85    2
    x#15#66   c02_15    -6
    x#15#66   c04_15    1
    x#14#66   c01_66    -2
    x#14#66   c01_97    2
    x#14#66   c02_14    -12
    x#14#66   c04_14    1
    x#8#66    c01_66    -5
    x#8#66    c01_81    5
    x#8#66    c02_8     -26
    x#8#66    c04_8     1
    x#3#66    c01_66    -2
    x#3#66    c01_80    2
    x#3#66    c02_3     -44
    x#3#66    c04_3     1
    z#66      c01_66    1
    z#66      c01_67    -1
    x#50#67   c01_67    -2
    x#50#67   c01_94    2
    x#50#67   c02_50    -2
    x#50#67   c04_50    1
    x#49#67   c01_67    -3
    x#49#67   c01_72    3
    x#49#67   c04_49    1
    x#48#67   c01_67    -5
    x#48#67   c01_81    5
    x#48#67   c02_48    -28
    x#48#67   c04_48    1
    x#41#67   c01_67    -3
    x#41#67   c01_79    3
    x#41#67   c02_41    -5
    x#41#67   c04_41    1
    x#35#67   c01_67    -4
    x#35#67   c01_91    4
    x#35#67   c02_35    -44
    x#35#67   c04_35    1
    x#34#67   c01_67    -4
    x#34#67   c01_77    4
    x#34#67   c02_34    -3
    x#34#67   c04_34    1
    x#33#67   c01_67    -5
    x#33#67   c01_105   5
    x#33#67   c02_33    -10
    x#33#67   c04_33    1
    x#28#67   c01_67    -5
    x#28#67   c01_83    5
    x#28#67   c02_28    -39
    x#28#67   c04_28    1
    x#27#67   c01_67    -1
    x#27#67   c01_105   1
    x#27#67   c02_27    -10
    x#27#67   c04_27    1
    x#15#67   c01_67    -2
    x#15#67   c01_86    2
    x#15#67   c02_15    -7
    x#15#67   c04_15    1
    x#14#67   c01_67    -2
    x#14#67   c01_98    2
    x#14#67   c02_14    -13
    x#14#67   c04_14    1
    x#8#67    c01_67    -5
    x#8#67    c01_82    5
    x#8#67    c02_8     -27
    x#8#67    c04_8     1
    x#3#67    c01_67    -2
    x#3#67    c01_81    2
    x#3#67    c02_3     -45
    x#3#67    c04_3     1
    z#67      c01_67    1
    z#67      c01_68    -1
    x#50#68   c01_68    -2
    x#50#68   c01_95    2
    x#50#68   c02_50    -3
    x#50#68   c04_50    1
    x#49#68   c01_68    -3
    x#49#68   c01_73    3
    x#49#68   c02_49    -1
    x#49#68   c04_49    1
    x#48#68   c01_68    -5
    x#48#68   c01_82    5
    x#48#68   c02_48    -29
    x#48#68   c04_48    1
    x#41#68   c01_68    -3
    x#41#68   c01_80    3
    x#41#68   c02_41    -6
    x#41#68   c04_41    1
    x#35#68   c01_68    -4
    x#35#68   c01_92    4
    x#35#68   c02_35    -45
    x#35#68   c04_35    1
    x#34#68   c01_68    -4
    x#34#68   c01_78    4
    x#34#68   c02_34    -4
    x#34#68   c04_34    1
    x#33#68   c01_68    -5
    x#33#68   c01_106   5
    x#33#68   c02_33    -11
    x#33#68   c04_33    1
    x#28#68   c01_68    -5
    x#28#68   c01_84    5
    x#28#68   c02_28    -40
    x#28#68   c04_28    1
    x#27#68   c01_68    -1
    x#27#68   c01_106   1
    x#27#68   c02_27    -11
    x#27#68   c04_27    1
    x#15#68   c01_68    -2
    x#15#68   c01_87    2
    x#15#68   c02_15    -8
    x#15#68   c04_15    1
    x#14#68   c01_68    -2
    x#14#68   c01_99    2
    x#14#68   c02_14    -14
    x#14#68   c04_14    1
    x#10#68   c01_68    -4
    x#10#68   c01_78    4
    x#10#68   c04_10    1
    x#8#68    c01_68    -5
    x#8#68    c01_83    5
    x#8#68    c02_8     -28
    x#8#68    c04_8     1
    z#68      c01_68    1
    z#68      c01_69    -1
    x#50#69   c01_69    -2
    x#50#69   c01_96    2
    x#50#69   c02_50    -4
    x#50#69   c04_50    1
    x#49#69   c01_69    -3
    x#49#69   c01_74    3
    x#49#69   c02_49    -2
    x#49#69   c04_49    1
    x#48#69   c01_69    -5
    x#48#69   c01_83    5
    x#48#69   c02_48    -30
    x#48#69   c04_48    1
    x#41#69   c01_69    -3
    x#41#69   c01_81    3
    x#41#69   c02_41    -7
    x#41#69   c04_41    1
    x#35#69   c01_69    -4
    x#35#69   c01_93    4
    x#35#69   c02_35    -46
    x#35#69   c04_35    1
    x#34#69   c01_69    -4
    x#34#69   c01_79    4
    x#34#69   c02_34    -5
    x#34#69   c04_34    1
    x#33#69   c01_69    -5
    x#33#69   c01_107   5
    x#33#69   c02_33    -12
    x#33#69   c04_33    1
    x#28#69   c01_69    -5
    x#28#69   c01_85    5
    x#28#69   c02_28    -41
    x#28#69   c04_28    1
    x#27#69   c01_69    -1
    x#27#69   c01_107   1
    x#27#69   c02_27    -12
    x#27#69   c04_27    1
    x#15#69   c01_69    -2
    x#15#69   c01_88    2
    x#15#69   c02_15    -9
    x#15#69   c04_15    1
    x#14#69   c01_69    -2
    x#14#69   c01_100   2
    x#14#69   c02_14    -15
    x#14#69   c04_14    1
    x#12#69   c01_69    -5
    x#12#69   c01_89    5
    x#12#69   c04_12    1
    x#10#69   c01_69    -4
    x#10#69   c01_79    4
    x#10#69   c02_10    -1
    x#10#69   c04_10    1
    x#8#69    c01_69    -5
    x#8#69    c01_84    5
    x#8#69    c02_8     -29
    x#8#69    c04_8     1
    z#69      c01_69    1
    z#69      c01_70    -1
    x#50#70   c01_70    -2
    x#50#70   c01_97    2
    x#50#70   c02_50    -5
    x#50#70   c04_50    1
    x#49#70   c01_70    -3
    x#49#70   c01_75    3
    x#49#70   c02_49    -3
    x#49#70   c04_49    1
    x#48#70   c01_70    -5
    x#48#70   c01_84    5
    x#48#70   c02_48    -31
    x#48#70   c04_48    1
    x#41#70   c01_70    -3
    x#41#70   c01_82    3
    x#41#70   c02_41    -8
    x#41#70   c04_41    1
    x#35#70   c01_70    -4
    x#35#70   c01_94    4
    x#35#70   c02_35    -47
    x#35#70   c04_35    1
    x#34#70   c01_70    -4
    x#34#70   c01_80    4
    x#34#70   c02_34    -6
    x#34#70   c04_34    1
    x#33#70   c01_70    -5
    x#33#70   c01_108   5
    x#33#70   c02_33    -13
    x#33#70   c04_33    1
    x#28#70   c01_70    -5
    x#28#70   c01_86    5
    x#28#70   c02_28    -42
    x#28#70   c04_28    1
    x#27#70   c01_70    -1
    x#27#70   c01_108   1
    x#27#70   c02_27    -13
    x#27#70   c04_27    1
    x#15#70   c01_70    -2
    x#15#70   c01_89    2
    x#15#70   c02_15    -10
    x#15#70   c04_15    1
    x#14#70   c01_70    -2
    x#14#70   c01_101   2
    x#14#70   c02_14    -16
    x#14#70   c04_14    1
    x#12#70   c01_70    -5
    x#12#70   c01_90    5
    x#12#70   c02_12    -1
    x#12#70   c04_12    1
    x#10#70   c01_70    -4
    x#10#70   c01_80    4
    x#10#70   c02_10    -2
    x#10#70   c04_10    1
    x#8#70    c01_70    -5
    x#8#70    c01_85    5
    x#8#70    c02_8     -30
    x#8#70    c04_8     1
    z#70      c01_70    1
    z#70      c01_71    -1
    x#50#71   c01_71    -2
    x#50#71   c01_98    2
    x#50#71   c02_50    -6
    x#50#71   c04_50    1
    x#49#71   c01_71    -3
    x#49#71   c01_76    3
    x#49#71   c02_49    -4
    x#49#71   c04_49    1
    x#48#71   c01_71    -5
    x#48#71   c01_85    5
    x#48#71   c02_48    -32
    x#48#71   c04_48    1
    x#41#71   c01_71    -3
    x#41#71   c01_83    3
    x#41#71   c02_41    -9
    x#41#71   c04_41    1
    x#40#71   c01_71    -4
    x#40#71   c01_94    4
    x#40#71   c04_40    1
    x#38#71   c01_71    -1
    x#38#71   c01_94    1
    x#38#71   c04_38    1
    x#35#71   c01_71    -4
    x#35#71   c01_95    4
    x#35#71   c02_35    -48
    x#35#71   c04_35    1
    x#34#71   c01_71    -4
    x#34#71   c01_81    4
    x#34#71   c02_34    -7
    x#34#71   c04_34    1
    x#33#71   c01_71    -5
    x#33#71   c01_109   5
    x#33#71   c02_33    -14
    x#33#71   c04_33    1
    x#28#71   c01_71    -5
    x#28#71   c01_87    5
    x#28#71   c02_28    -43
    x#28#71   c04_28    1
    x#15#71   c01_71    -2
    x#15#71   c01_90    2
    x#15#71   c02_15    -11
    x#15#71   c04_15    1
    x#14#71   c01_71    -2
    x#14#71   c01_102   2
    x#14#71   c02_14    -17
    x#14#71   c04_14    1
    x#12#71   c01_71    -5
    x#12#71   c01_91    5
    x#12#71   c02_12    -2
    x#12#71   c04_12    1
    x#10#71   c01_71    -4
    x#10#71   c01_81    4
    x#10#71   c02_10    -3
    x#10#71   c04_10    1
    x#8#71    c01_71    -5
    x#8#71    c01_86    5
    x#8#71    c02_8     -31
    x#8#71    c04_8     1
    x#2#71    c01_71    -1
    x#2#71    c01_99    1
    x#2#71    c04_2     1
    z#71      c01_71    1
    z#71      c01_72    -1
    x#50#72   c01_72    -2
    x#50#72   c01_99    2
    x#50#72   c02_50    -7
    x#50#72   c04_50    1
    x#49#72   c01_72    -3
    x#49#72   c01_77    3
    x#49#72   c02_49    -5
    x#49#72   c04_49    1
    x#48#72   c01_72    -5
    x#48#72   c01_86    5
    x#48#72   c02_48    -33
    x#48#72   c04_48    1
    x#41#72   c01_72    -3
    x#41#72   c01_84    3
    x#41#72   c02_41    -10
    x#41#72   c04_41    1
    x#40#72   c01_72    -4
    x#40#72   c01_95    4
    x#40#72   c02_40    -1
    x#40#72   c04_40    1
    x#38#72   c01_72    -1
    x#38#72   c01_95    1
    x#38#72   c02_38    -1
    x#38#72   c04_38    1
    x#35#72   c01_72    -4
    x#35#72   c01_96    4
    x#35#72   c02_35    -49
    x#35#72   c04_35    1
    x#34#72   c01_72    -4
    x#34#72   c01_82    4
    x#34#72   c02_34    -8
    x#34#72   c04_34    1
    x#28#72   c01_72    -5
    x#28#72   c01_88    5
    x#28#72   c02_28    -44
    x#28#72   c04_28    1
    x#15#72   c01_72    -2
    x#15#72   c01_91    2
    x#15#72   c02_15    -12
    x#15#72   c04_15    1
    x#14#72   c01_72    -2
    x#14#72   c01_103   2
    x#14#72   c02_14    -18
    x#14#72   c04_14    1
    x#12#72   c01_72    -5
    x#12#72   c01_92    5
    x#12#72   c02_12    -3
    x#12#72   c04_12    1
    x#10#72   c01_72    -4
    x#10#72   c01_82    4
    x#10#72   c02_10    -4
    x#10#72   c04_10    1
    x#8#72    c01_72    -5
    x#8#72    c01_87    5
    x#8#72    c02_8     -32
    x#8#72    c04_8     1
    x#2#72    c01_72    -1
    x#2#72    c01_100   1
    x#2#72    c02_2     -1
    x#2#72    c04_2     1
    z#72      c01_72    1
    z#72      c01_73    -1
    x#50#73   c01_73    -2
    x#50#73   c01_100   2
    x#50#73   c02_50    -8
    x#50#73   c04_50    1
    x#49#73   c01_73    -3
    x#49#73   c01_78    3
    x#49#73   c02_49    -6
    x#49#73   c04_49    1
    x#48#73   c01_73    -5
    x#48#73   c01_87    5
    x#48#73   c02_48    -34
    x#48#73   c04_48    1
    x#41#73   c01_73    -3
    x#41#73   c01_85    3
    x#41#73   c02_41    -11
    x#41#73   c04_41    1
    x#40#73   c01_73    -4
    x#40#73   c01_96    4
    x#40#73   c02_40    -2
    x#40#73   c04_40    1
    x#38#73   c01_73    -1
    x#38#73   c01_96    1
    x#38#73   c02_38    -2
    x#38#73   c04_38    1
    x#35#73   c01_73    -4
    x#35#73   c01_97    4
    x#35#73   c02_35    -50
    x#35#73   c04_35    1
    x#34#73   c01_73    -4
    x#34#73   c01_83    4
    x#34#73   c02_34    -9
    x#34#73   c04_34    1
    x#28#73   c01_73    -5
    x#28#73   c01_89    5
    x#28#73   c02_28    -45
    x#28#73   c04_28    1
    x#15#73   c01_73    -2
    x#15#73   c01_92    2
    x#15#73   c02_15    -13
    x#15#73   c04_15    1
    x#12#73   c01_73    -5
    x#12#73   c01_93    5
    x#12#73   c02_12    -4
    x#12#73   c04_12    1
    x#10#73   c01_73    -4
    x#10#73   c01_83    4
    x#10#73   c02_10    -5
    x#10#73   c04_10    1
    x#8#73    c01_73    -5
    x#8#73    c01_88    5
    x#8#73    c02_8     -33
    x#8#73    c04_8     1
    x#2#73    c01_73    -1
    x#2#73    c01_101   1
    x#2#73    c02_2     -2
    x#2#73    c04_2     1
    z#73      c01_73    1
    z#73      c01_74    -1
    x#50#74   c01_74    -2
    x#50#74   c01_101   2
    x#50#74   c02_50    -9
    x#50#74   c04_50    1
    x#49#74   c01_74    -3
    x#49#74   c01_79    3
    x#49#74   c02_49    -7
    x#49#74   c04_49    1
    x#48#74   c01_74    -5
    x#48#74   c01_88    5
    x#48#74   c02_48    -35
    x#48#74   c04_48    1
    x#43#74   c01_74    -5
    x#43#74   c01_112   5
    x#43#74   c04_43    1
    x#41#74   c01_74    -3
    x#41#74   c01_86    3
    x#41#74   c02_41    -12
    x#41#74   c04_41    1
    x#40#74   c01_74    -4
    x#40#74   c01_97    4
    x#40#74   c02_40    -3
    x#40#74   c04_40    1
    x#38#74   c01_74    -1
    x#38#74   c01_97    1
    x#38#74   c02_38    -3
    x#38#74   c04_38    1
    x#35#74   c01_74    -4
    x#35#74   c01_98    4
    x#35#74   c02_35    -51
    x#35#74   c04_35    1
    x#34#74   c01_74    -4
    x#34#74   c01_84    4
    x#34#74   c02_34    -10
    x#34#74   c04_34    1
    x#28#74   c01_74    -5
    x#28#74   c01_90    5
    x#28#74   c02_28    -46
    x#28#74   c04_28    1
    x#15#74   c01_74    -2
    x#15#74   c01_93    2
    x#15#74   c02_15    -14
    x#15#74   c04_15    1
    x#12#74   c01_74    -5
    x#12#74   c01_94    5
    x#12#74   c02_12    -5
    x#12#74   c04_12    1
    x#10#74   c01_74    -4
    x#10#74   c01_84    4
    x#10#74   c02_10    -6
    x#10#74   c04_10    1
    x#8#74    c01_74    -5
    x#8#74    c01_89    5
    x#8#74    c02_8     -34
    x#8#74    c04_8     1
    x#2#74    c01_74    -1
    x#2#74    c01_102   1
    x#2#74    c02_2     -3
    x#2#74    c04_2     1
    z#74      c01_74    1
    z#74      c01_75    -1
    x#50#75   c01_75    -2
    x#50#75   c01_102   2
    x#50#75   c02_50    -10
    x#50#75   c04_50    1
    x#49#75   c01_75    -3
    x#49#75   c01_80    3
    x#49#75   c02_49    -8
    x#49#75   c04_49    1
    x#48#75   c01_75    -5
    x#48#75   c01_89    5
    x#48#75   c02_48    -36
    x#48#75   c04_48    1
    x#43#75   c01_75    -5
    x#43#75   c01_113   5
    x#43#75   c02_43    -1
    x#43#75   c04_43    1
    x#41#75   c01_75    -3
    x#41#75   c01_87    3
    x#41#75   c02_41    -13
    x#41#75   c04_41    1
    x#40#75   c01_75    -4
    x#40#75   c01_98    4
    x#40#75   c02_40    -4
    x#40#75   c04_40    1
    x#38#75   c01_75    -1
    x#38#75   c01_98    1
    x#38#75   c02_38    -4
    x#38#75   c04_38    1
    x#35#75   c01_75    -4
    x#35#75   c01_99    4
    x#35#75   c02_35    -52
    x#35#75   c04_35    1
    x#34#75   c01_75    -4
    x#34#75   c01_85    4
    x#34#75   c02_34    -11
    x#34#75   c04_34    1
    x#28#75   c01_75    -5
    x#28#75   c01_91    5
    x#28#75   c02_28    -47
    x#28#75   c04_28    1
    x#15#75   c01_75    -2
    x#15#75   c01_94    2
    x#15#75   c02_15    -15
    x#15#75   c04_15    1
    x#12#75   c01_75    -5
    x#12#75   c01_95    5
    x#12#75   c02_12    -6
    x#12#75   c04_12    1
    x#10#75   c01_75    -4
    x#10#75   c01_85    4
    x#10#75   c02_10    -7
    x#10#75   c04_10    1
    x#8#75    c01_75    -5
    x#8#75    c01_90    5
    x#8#75    c02_8     -35
    x#8#75    c04_8     1
    x#2#75    c01_75    -1
    x#2#75    c01_103   1
    x#2#75    c02_2     -4
    x#2#75    c04_2     1
    z#75      c01_75    1
    z#75      c01_76    -1
    x#50#76   c01_76    -2
    x#50#76   c01_103   2
    x#50#76   c02_50    -11
    x#50#76   c04_50    1
    x#49#76   c01_76    -3
    x#49#76   c01_81    3
    x#49#76   c02_49    -9
    x#49#76   c04_49    1
    x#48#76   c01_76    -5
    x#48#76   c01_90    5
    x#48#76   c02_48    -37
    x#48#76   c04_48    1
    x#43#76   c01_76    -5
    x#43#76   c01_114   5
    x#43#76   c02_43    -2
    x#43#76   c04_43    1
    x#41#76   c01_76    -3
    x#41#76   c01_88    3
    x#41#76   c02_41    -14
    x#41#76   c04_41    1
    x#40#76   c01_76    -4
    x#40#76   c01_99    4
    x#40#76   c02_40    -5
    x#40#76   c04_40    1
    x#38#76   c01_76    -1
    x#38#76   c01_99    1
    x#38#76   c02_38    -5
    x#38#76   c04_38    1
    x#35#76   c01_76    -4
    x#35#76   c01_100   4
    x#35#76   c02_35    -53
    x#35#76   c04_35    1
    x#34#76   c01_76    -4
    x#34#76   c01_86    4
    x#34#76   c02_34    -12
    x#34#76   c04_34    1
    x#28#76   c01_76    -5
    x#28#76   c01_92    5
    x#28#76   c02_28    -48
    x#28#76   c04_28    1
    x#15#76   c01_76    -2
    x#15#76   c01_95    2
    x#15#76   c02_15    -16
    x#15#76   c04_15    1
    x#12#76   c01_76    -5
    x#12#76   c01_96    5
    x#12#76   c02_12    -7
    x#12#76   c04_12    1
    x#10#76   c01_76    -4
    x#10#76   c01_86    4
    x#10#76   c02_10    -8
    x#10#76   c04_10    1
    x#8#76    c01_76    -5
    x#8#76    c01_91    5
    x#8#76    c02_8     -36
    x#8#76    c04_8     1
    x#2#76    c01_76    -1
    x#2#76    c01_104   1
    x#2#76    c02_2     -5
    x#2#76    c04_2     1
    z#76      c01_76    1
    z#76      c01_77    -1
    x#50#77   c01_77    -2
    x#50#77   c01_104   2
    x#50#77   c02_50    -12
    x#50#77   c04_50    1
    x#49#77   c01_77    -3
    x#49#77   c01_82    3
    x#49#77   c02_49    -10
    x#49#77   c04_49    1
    x#48#77   c01_77    -5
    x#48#77   c01_91    5
    x#48#77   c02_48    -38
    x#48#77   c04_48    1
    x#43#77   c01_77    -5
    x#43#77   c01_115   5
    x#43#77   c02_43    -3
    x#43#77   c04_43    1
    x#41#77   c01_77    -3
    x#41#77   c01_89    3
    x#41#77   c02_41    -15
    x#41#77   c04_41    1
    x#40#77   c01_77    -4
    x#40#77   c01_100   4
    x#40#77   c02_40    -6
    x#40#77   c04_40    1
    x#38#77   c01_77    -1
    x#38#77   c01_100   1
    x#38#77   c02_38    -6
    x#38#77   c04_38    1
    x#34#77   c01_77    -4
    x#34#77   c01_87    4
    x#34#77   c02_34    -13
    x#34#77   c04_34    1
    x#28#77   c01_77    -5
    x#28#77   c01_93    5
    x#28#77   c02_28    -49
    x#28#77   c04_28    1
    x#15#77   c01_77    -2
    x#15#77   c01_96    2
    x#15#77   c02_15    -17
    x#15#77   c04_15    1
    x#12#77   c01_77    -5
    x#12#77   c01_97    5
    x#12#77   c02_12    -8
    x#12#77   c04_12    1
    x#10#77   c01_77    -4
    x#10#77   c01_87    4
    x#10#77   c02_10    -9
    x#10#77   c04_10    1
    x#8#77    c01_77    -5
    x#8#77    c01_92    5
    x#8#77    c02_8     -37
    x#8#77    c04_8     1
    x#2#77    c01_77    -1
    x#2#77    c01_105   1
    x#2#77    c02_2     -6
    x#2#77    c04_2     1
    z#77      c01_77    1
    z#77      c01_78    -1
    x#50#78   c01_78    -2
    x#50#78   c01_105   2
    x#50#78   c02_50    -13
    x#50#78   c04_50    1
    x#49#78   c01_78    -3
    x#49#78   c01_83    3
    x#49#78   c02_49    -11
    x#49#78   c04_49    1
    x#48#78   c01_78    -5
    x#48#78   c01_92    5
    x#48#78   c02_48    -39
    x#48#78   c04_48    1
    x#43#78   c01_78    -5
    x#43#78   c01_116   5
    x#43#78   c02_43    -4
    x#43#78   c04_43    1
    x#41#78   c01_78    -3
    x#41#78   c01_90    3
    x#41#78   c02_41    -16
    x#41#78   c04_41    1
    x#40#78   c01_78    -4
    x#40#78   c01_101   4
    x#40#78   c02_40    -7
    x#40#78   c04_40    1
    x#38#78   c01_78    -1
    x#38#78   c01_101   1
    x#38#78   c02_38    -7
    x#38#78   c04_38    1
    x#34#78   c01_78    -4
    x#34#78   c01_88    4
    x#34#78   c02_34    -14
    x#34#78   c04_34    1
    x#28#78   c01_78    -5
    x#28#78   c01_94    5
    x#28#78   c02_28    -50
    x#28#78   c04_28    1
    x#15#78   c01_78    -2
    x#15#78   c01_97    2
    x#15#78   c02_15    -18
    x#15#78   c04_15    1
    x#12#78   c01_78    -5
    x#12#78   c01_98    5
    x#12#78   c02_12    -9
    x#12#78   c04_12    1
    x#10#78   c01_78    -4
    x#10#78   c01_88    4
    x#10#78   c02_10    -10
    x#10#78   c04_10    1
    x#8#78    c01_78    -5
    x#8#78    c01_93    5
    x#8#78    c02_8     -38
    x#8#78    c04_8     1
    x#2#78    c01_78    -1
    x#2#78    c01_106   1
    x#2#78    c02_2     -7
    x#2#78    c04_2     1
    z#78      c01_78    1
    z#78      c01_79    -1
    x#50#79   c01_79    -2
    x#50#79   c01_106   2
    x#50#79   c02_50    -14
    x#50#79   c04_50    1
    x#49#79   c01_79    -3
    x#49#79   c01_84    3
    x#49#79   c02_49    -12
    x#49#79   c04_49    1
    x#48#79   c01_79    -5
    x#48#79   c01_93    5
    x#48#79   c02_48    -40
    x#48#79   c04_48    1
    x#43#79   c01_79    -5
    x#43#79   c01_117   5
    x#43#79   c02_43    -5
    x#43#79   c04_43    1
    x#41#79   c01_79    -3
    x#41#79   c01_91    3
    x#41#79   c02_41    -17
    x#41#79   c04_41    1
    x#40#79   c01_79    -4
    x#40#79   c01_102   4
    x#40#79   c02_40    -8
    x#40#79   c04_40    1
    x#38#79   c01_79    -1
    x#38#79   c01_102   1
    x#38#79   c02_38    -8
    x#38#79   c04_38    1
    x#34#79   c01_79    -4
    x#34#79   c01_89    4
    x#34#79   c02_34    -15
    x#34#79   c04_34    1
    x#28#79   c01_79    -5
    x#28#79   c01_95    5
    x#28#79   c02_28    -51
    x#28#79   c04_28    1
    x#15#79   c01_79    -2
    x#15#79   c01_98    2
    x#15#79   c02_15    -19
    x#15#79   c04_15    1
    x#12#79   c01_79    -5
    x#12#79   c01_99    5
    x#12#79   c02_12    -10
    x#12#79   c04_12    1
    x#10#79   c01_79    -4
    x#10#79   c01_89    4
    x#10#79   c02_10    -11
    x#10#79   c04_10    1
    x#8#79    c01_79    -5
    x#8#79    c01_94    5
    x#8#79    c02_8     -39
    x#8#79    c04_8     1
    x#2#79    c01_79    -1
    x#2#79    c01_107   1
    x#2#79    c02_2     -8
    x#2#79    c04_2     1
    z#79      c01_79    1
    z#79      c01_80    -1
    x#50#80   c01_80    -2
    x#50#80   c01_107   2
    x#50#80   c02_50    -15
    x#50#80   c04_50    1
    x#49#80   c01_80    -3
    x#49#80   c01_85    3
    x#49#80   c02_49    -13
    x#49#80   c04_49    1
    x#48#80   c01_80    -5
    x#48#80   c01_94    5
    x#48#80   c02_48    -41
    x#48#80   c04_48    1
    x#43#80   c01_80    -5
    x#43#80   c01_118   5
    x#43#80   c02_43    -6
    x#43#80   c04_43    1
    x#41#80   c01_80    -3
    x#41#80   c01_92    3
    x#41#80   c02_41    -18
    x#41#80   c04_41    1
    x#40#80   c01_80    -4
    x#40#80   c01_103   4
    x#40#80   c02_40    -9
    x#40#80   c04_40    1
    x#38#80   c01_80    -1
    x#38#80   c01_103   1
    x#38#80   c02_38    -9
    x#38#80   c04_38    1
    x#34#80   c01_80    -4
    x#34#80   c01_90    4
    x#34#80   c02_34    -16
    x#34#80   c04_34    1
    x#28#80   c01_80    -5
    x#28#80   c01_96    5
    x#28#80   c02_28    -52
    x#28#80   c04_28    1
    x#15#80   c01_80    -2
    x#15#80   c01_99    2
    x#15#80   c02_15    -20
    x#15#80   c04_15    1
    x#12#80   c01_80    -5
    x#12#80   c01_100   5
    x#12#80   c02_12    -11
    x#12#80   c04_12    1
    x#10#80   c01_80    -4
    x#10#80   c01_90    4
    x#10#80   c02_10    -12
    x#10#80   c04_10    1
    x#8#80    c01_80    -5
    x#8#80    c01_95    5
    x#8#80    c02_8     -40
    x#8#80    c04_8     1
    x#2#80    c01_80    -1
    x#2#80    c01_108   1
    x#2#80    c02_2     -9
    x#2#80    c04_2     1
    z#80      c01_80    1
    z#80      c01_81    -1
    x#50#81   c01_81    -2
    x#50#81   c01_108   2
    x#50#81   c02_50    -16
    x#50#81   c04_50    1
    x#49#81   c01_81    -3
    x#49#81   c01_86    3
    x#49#81   c02_49    -14
    x#49#81   c04_49    1
    x#48#81   c01_81    -5
    x#48#81   c01_95    5
    x#48#81   c02_48    -42
    x#48#81   c04_48    1
    x#43#81   c01_81    -5
    x#43#81   c01_119   5
    x#43#81   c02_43    -7
    x#43#81   c04_43    1
    x#41#81   c01_81    -3
    x#41#81   c01_93    3
    x#41#81   c02_41    -19
    x#41#81   c04_41    1
    x#40#81   c01_81    -4
    x#40#81   c01_104   4
    x#40#81   c02_40    -10
    x#40#81   c04_40    1
    x#38#81   c01_81    -1
    x#38#81   c01_104   1
    x#38#81   c02_38    -10
    x#38#81   c04_38    1
    x#34#81   c01_81    -4
    x#34#81   c01_91    4
    x#34#81   c02_34    -17
    x#34#81   c04_34    1
    x#32#81   c01_81    -2
    x#32#81   c01_112   2
    x#32#81   c04_32    1
    x#28#81   c01_81    -5
    x#28#81   c01_97    5
    x#28#81   c02_28    -53
    x#28#81   c04_28    1
    x#15#81   c01_81    -2
    x#15#81   c01_100   2
    x#15#81   c02_15    -21
    x#15#81   c04_15    1
    x#12#81   c01_81    -5
    x#12#81   c01_101   5
    x#12#81   c02_12    -12
    x#12#81   c04_12    1
    x#10#81   c01_81    -4
    x#10#81   c01_91    4
    x#10#81   c02_10    -13
    x#10#81   c04_10    1
    x#8#81    c01_81    -5
    x#8#81    c01_96    5
    x#8#81    c02_8     -41
    x#8#81    c04_8     1
    x#2#81    c01_81    -1
    x#2#81    c01_109   1
    x#2#81    c02_2     -10
    x#2#81    c04_2     1
    z#81      c01_81    1
    z#81      c01_82    -1
    x#50#82   c01_82    -2
    x#50#82   c01_109   2
    x#50#82   c02_50    -17
    x#50#82   c04_50    1
    x#49#82   c01_82    -3
    x#49#82   c01_87    3
    x#49#82   c02_49    -15
    x#49#82   c04_49    1
    x#48#82   c01_82    -5
    x#48#82   c01_96    5
    x#48#82   c02_48    -43
    x#48#82   c04_48    1
    x#43#82   c01_82    -5
    x#43#82   c01_120   5
    x#43#82   c02_43    -8
    x#43#82   c04_43    1
    x#41#82   c01_82    -3
    x#41#82   c01_94    3
    x#41#82   c02_41    -20
    x#41#82   c04_41    1
    x#40#82   c01_82    -4
    x#40#82   c01_105   4
    x#40#82   c02_40    -11
    x#40#82   c04_40    1
    x#38#82   c01_82    -1
    x#38#82   c01_105   1
    x#38#82   c02_38    -11
    x#38#82   c04_38    1
    x#34#82   c01_82    -4
    x#34#82   c01_92    4
    x#34#82   c02_34    -18
    x#34#82   c04_34    1
    x#32#82   c01_82    -2
    x#32#82   c01_113   2
    x#32#82   c02_32    -1
    x#32#82   c04_32    1
    x#28#82   c01_82    -5
    x#28#82   c01_98    5
    x#28#82   c02_28    -54
    x#28#82   c04_28    1
    x#15#82   c01_82    -2
    x#15#82   c01_101   2
    x#15#82   c02_15    -22
    x#15#82   c04_15    1
    x#12#82   c01_82    -5
    x#12#82   c01_102   5
    x#12#82   c02_12    -13
    x#12#82   c04_12    1
    x#10#82   c01_82    -4
    x#10#82   c01_92    4
    x#10#82   c02_10    -14
    x#10#82   c04_10    1
    x#8#82    c01_82    -5
    x#8#82    c01_97    5
    x#8#82    c02_8     -42
    x#8#82    c04_8     1
    x#2#82    c01_82    -1
    x#2#82    c01_110   1
    x#2#82    c02_2     -11
    x#2#82    c04_2     1
    z#82      c01_82    1
    z#82      c01_83    -1
    x#50#83   c01_83    -2
    x#50#83   c01_110   2
    x#50#83   c02_50    -18
    x#50#83   c04_50    1
    x#49#83   c01_83    -3
    x#49#83   c01_88    3
    x#49#83   c02_49    -16
    x#49#83   c04_49    1
    x#48#83   c01_83    -5
    x#48#83   c01_97    5
    x#48#83   c02_48    -44
    x#48#83   c04_48    1
    x#43#83   c01_83    -5
    x#43#83   c01_121   5
    x#43#83   c02_43    -9
    x#43#83   c04_43    1
    x#41#83   c01_83    -3
    x#41#83   c01_95    3
    x#41#83   c02_41    -21
    x#41#83   c04_41    1
    x#40#83   c01_83    -4
    x#40#83   c01_106   4
    x#40#83   c02_40    -12
    x#40#83   c04_40    1
    x#38#83   c01_83    -1
    x#38#83   c01_106   1
    x#38#83   c02_38    -12
    x#38#83   c04_38    1
    x#34#83   c01_83    -4
    x#34#83   c01_93    4
    x#34#83   c02_34    -19
    x#34#83   c04_34    1
    x#32#83   c01_83    -2
    x#32#83   c01_114   2
    x#32#83   c02_32    -2
    x#32#83   c04_32    1
    x#28#83   c01_83    -5
    x#28#83   c01_99    5
    x#28#83   c02_28    -55
    x#28#83   c04_28    1
    x#15#83   c01_83    -2
    x#15#83   c01_102   2
    x#15#83   c02_15    -23
    x#15#83   c04_15    1
    x#12#83   c01_83    -5
    x#12#83   c01_103   5
    x#12#83   c02_12    -14
    x#12#83   c04_12    1
    x#10#83   c01_83    -4
    x#10#83   c01_93    4
    x#10#83   c02_10    -15
    x#10#83   c04_10    1
    x#8#83    c01_83    -5
    x#8#83    c01_98    5
    x#8#83    c02_8     -43
    x#8#83    c04_8     1
    x#2#83    c01_83    -1
    x#2#83    c01_111   1
    x#2#83    c02_2     -12
    x#2#83    c04_2     1
    z#83      c01_83    1
    z#83      c01_84    -1
    x#50#84   c01_84    -2
    x#50#84   c01_111   2
    x#50#84   c02_50    -19
    x#50#84   c04_50    1
    x#49#84   c01_84    -3
    x#49#84   c01_89    3
    x#49#84   c02_49    -17
    x#49#84   c04_49    1
    x#48#84   c01_84    -5
    x#48#84   c01_98    5
    x#48#84   c02_48    -45
    x#48#84   c04_48    1
    x#43#84   c01_84    -5
    x#43#84   c01_122   5
    x#43#84   c02_43    -10
    x#43#84   c04_43    1
    x#41#84   c01_84    -3
    x#41#84   c01_96    3
    x#41#84   c02_41    -22
    x#41#84   c04_41    1
    x#40#84   c01_84    -4
    x#40#84   c01_107   4
    x#40#84   c02_40    -13
    x#40#84   c04_40    1
    x#38#84   c01_84    -1
    x#38#84   c01_107   1
    x#38#84   c02_38    -13
    x#38#84   c04_38    1
    x#34#84   c01_84    -4
    x#34#84   c01_94    4
    x#34#84   c02_34    -20
    x#34#84   c04_34    1
    x#32#84   c01_84    -2
    x#32#84   c01_115   2
    x#32#84   c02_32    -3
    x#32#84   c04_32    1
    x#28#84   c01_84    -5
    x#28#84   c01_100   5
    x#28#84   c02_28    -56
    x#28#84   c04_28    1
    x#15#84   c01_84    -2
    x#15#84   c01_103   2
    x#15#84   c02_15    -24
    x#15#84   c04_15    1
    x#12#84   c01_84    -5
    x#12#84   c01_104   5
    x#12#84   c02_12    -15
    x#12#84   c04_12    1
    x#10#84   c01_84    -4
    x#10#84   c01_94    4
    x#10#84   c02_10    -16
    x#10#84   c04_10    1
    x#8#84    c01_84    -5
    x#8#84    c01_99    5
    x#8#84    c02_8     -44
    x#8#84    c04_8     1
    x#2#84    c01_84    -1
    x#2#84    c01_112   1
    x#2#84    c02_2     -13
    x#2#84    c04_2     1
    z#84      c01_84    1
    z#84      c01_85    -1
    x#50#85   c01_85    -2
    x#50#85   c01_112   2
    x#50#85   c02_50    -20
    x#50#85   c04_50    1
    x#49#85   c01_85    -3
    x#49#85   c01_90    3
    x#49#85   c02_49    -18
    x#49#85   c04_49    1
    x#48#85   c01_85    -5
    x#48#85   c01_99    5
    x#48#85   c02_48    -46
    x#48#85   c04_48    1
    x#43#85   c01_85    -5
    x#43#85   c01_123   5
    x#43#85   c02_43    -11
    x#43#85   c04_43    1
    x#41#85   c01_85    -3
    x#41#85   c01_97    3
    x#41#85   c02_41    -23
    x#41#85   c04_41    1
    x#40#85   c01_85    -4
    x#40#85   c01_108   4
    x#40#85   c02_40    -14
    x#40#85   c04_40    1
    x#38#85   c01_85    -1
    x#38#85   c01_108   1
    x#38#85   c02_38    -14
    x#38#85   c04_38    1
    x#36#85   c01_85    -1
    x#36#85   c01_123   1
    x#36#85   c04_36    1
    x#34#85   c01_85    -4
    x#34#85   c01_95    4
    x#34#85   c02_34    -21
    x#34#85   c04_34    1
    x#32#85   c01_85    -2
    x#32#85   c01_116   2
    x#32#85   c02_32    -4
    x#32#85   c04_32    1
    x#15#85   c01_85    -2
    x#15#85   c01_104   2
    x#15#85   c02_15    -25
    x#15#85   c04_15    1
    x#10#85   c01_85    -4
    x#10#85   c01_95    4
    x#10#85   c02_10    -17
    x#10#85   c04_10    1
    x#8#85    c01_85    -5
    x#8#85    c01_100   5
    x#8#85    c02_8     -45
    x#8#85    c04_8     1
    x#2#85    c01_85    -1
    x#2#85    c01_113   1
    x#2#85    c02_2     -14
    x#2#85    c04_2     1
    z#85      c01_85    1
    z#85      c01_86    -1
    x#50#86   c01_86    -2
    x#50#86   c01_113   2
    x#50#86   c02_50    -21
    x#50#86   c04_50    1
    x#49#86   c01_86    -3
    x#49#86   c01_91    3
    x#49#86   c02_49    -19
    x#49#86   c04_49    1
    x#48#86   c01_86    -5
    x#48#86   c01_100   5
    x#48#86   c02_48    -47
    x#48#86   c04_48    1
    x#43#86   c01_86    -5
    x#43#86   c01_124   5
    x#43#86   c02_43    -12
    x#43#86   c04_43    1
    x#41#86   c01_86    -3
    x#41#86   c01_98    3
    x#41#86   c02_41    -24
    x#41#86   c04_41    1
    x#40#86   c01_86    -4
    x#40#86   c01_109   4
    x#40#86   c02_40    -15
    x#40#86   c04_40    1
    x#38#86   c01_86    -1
    x#38#86   c01_109   1
    x#38#86   c02_38    -15
    x#38#86   c04_38    1
    x#36#86   c01_86    -1
    x#36#86   c01_124   1
    x#36#86   c02_36    -1
    x#36#86   c04_36    1
    x#34#86   c01_86    -4
    x#34#86   c01_96    4
    x#34#86   c02_34    -22
    x#34#86   c04_34    1
    x#32#86   c01_86    -2
    x#32#86   c01_117   2
    x#32#86   c02_32    -5
    x#32#86   c04_32    1
    x#15#86   c01_86    -2
    x#15#86   c01_105   2
    x#15#86   c02_15    -26
    x#15#86   c04_15    1
    x#10#86   c01_86    -4
    x#10#86   c01_96    4
    x#10#86   c02_10    -18
    x#10#86   c04_10    1
    x#8#86    c01_86    -5
    x#8#86    c01_101   5
    x#8#86    c02_8     -46
    x#8#86    c04_8     1
    x#2#86    c01_86    -1
    x#2#86    c01_114   1
    x#2#86    c02_2     -15
    x#2#86    c04_2     1
    z#86      c01_86    1
    z#86      c01_87    -1
    x#50#87   c01_87    -2
    x#50#87   c01_114   2
    x#50#87   c02_50    -22
    x#50#87   c04_50    1
    x#48#87   c01_87    -5
    x#48#87   c01_101   5
    x#48#87   c02_48    -48
    x#48#87   c04_48    1
    x#43#87   c01_87    -5
    x#43#87   c01_125   5
    x#43#87   c02_43    -13
    x#43#87   c04_43    1
    x#41#87   c01_87    -3
    x#41#87   c01_99    3
    x#41#87   c02_41    -25
    x#41#87   c04_41    1
    x#40#87   c01_87    -4
    x#40#87   c01_110   4
    x#40#87   c02_40    -16
    x#40#87   c04_40    1
    x#38#87   c01_87    -1
    x#38#87   c01_110   1
    x#38#87   c02_38    -16
    x#38#87   c04_38    1
    x#36#87   c01_87    -1
    x#36#87   c01_125   1
    x#36#87   c02_36    -2
    x#36#87   c04_36    1
    x#34#87   c01_87    -4
    x#34#87   c01_97    4
    x#34#87   c02_34    -23
    x#34#87   c04_34    1
    x#32#87   c01_87    -2
    x#32#87   c01_118   2
    x#32#87   c02_32    -6
    x#32#87   c04_32    1
    x#15#87   c01_87    -2
    x#15#87   c01_106   2
    x#15#87   c02_15    -27
    x#15#87   c04_15    1
    x#10#87   c01_87    -4
    x#10#87   c01_97    4
    x#10#87   c02_10    -19
    x#10#87   c04_10    1
    x#8#87    c01_87    -5
    x#8#87    c01_102   5
    x#8#87    c02_8     -47
    x#8#87    c04_8     1
    x#2#87    c01_87    -1
    x#2#87    c01_115   1
    x#2#87    c02_2     -16
    x#2#87    c04_2     1
    z#87      c01_87    1
    z#87      c01_88    -1
    x#50#88   c01_88    -2
    x#50#88   c01_115   2
    x#50#88   c02_50    -23
    x#50#88   c04_50    1
    x#41#88   c01_88    -3
    x#41#88   c01_100   3
    x#41#88   c02_41    -26
    x#41#88   c04_41    1
    x#40#88   c01_88    -4
    x#40#88   c01_111   4
    x#40#88   c02_40    -17
    x#40#88   c04_40    1
    x#38#88   c01_88    -1
    x#38#88   c01_111   1
    x#38#88   c02_38    -17
    x#38#88   c04_38    1
    x#36#88   c01_88    -1
    x#36#88   c01_126   1
    x#36#88   c02_36    -3
    x#36#88   c04_36    1
    x#34#88   c01_88    -4
    x#34#88   c01_98    4
    x#34#88   c02_34    -24
    x#34#88   c04_34    1
    x#32#88   c01_88    -2
    x#32#88   c01_119   2
    x#32#88   c02_32    -7
    x#32#88   c04_32    1
    x#15#88   c01_88    -2
    x#15#88   c01_107   2
    x#15#88   c02_15    -28
    x#15#88   c04_15    1
    x#10#88   c01_88    -4
    x#10#88   c01_98    4
    x#10#88   c02_10    -20
    x#10#88   c04_10    1
    x#8#88    c01_88    -5
    x#8#88    c01_103   5
    x#8#88    c02_8     -48
    x#8#88    c04_8     1
    x#2#88    c01_88    -1
    x#2#88    c01_116   1
    x#2#88    c02_2     -17
    x#2#88    c04_2     1
    z#88      c01_88    1
    z#88      c01_89    -1
    x#50#89   c01_89    -2
    x#50#89   c01_116   2
    x#50#89   c02_50    -24
    x#50#89   c04_50    1
    x#41#89   c01_89    -3
    x#41#89   c01_101   3
    x#41#89   c02_41    -27
    x#41#89   c04_41    1
    x#40#89   c01_89    -4
    x#40#89   c01_112   4
    x#40#89   c02_40    -18
    x#40#89   c04_40    1
    x#38#89   c01_89    -1
    x#38#89   c01_112   1
    x#38#89   c02_38    -18
    x#38#89   c04_38    1
    x#36#89   c01_89    -1
    x#36#89   c01_127   1
    x#36#89   c02_36    -4
    x#36#89   c04_36    1
    x#34#89   c01_89    -4
    x#34#89   c01_99    4
    x#34#89   c02_34    -25
    x#34#89   c04_34    1
    x#32#89   c01_89    -2
    x#32#89   c01_120   2
    x#32#89   c02_32    -8
    x#32#89   c04_32    1
    x#15#89   c01_89    -2
    x#15#89   c01_108   2
    x#15#89   c02_15    -29
    x#15#89   c04_15    1
    x#13#89   c01_89    -3
    x#13#89   c01_119   3
    x#13#89   c04_13    1
    x#10#89   c01_89    -4
    x#10#89   c01_99    4
    x#10#89   c02_10    -21
    x#10#89   c04_10    1
    x#8#89    c01_89    -5
    x#8#89    c01_104   5
    x#8#89    c02_8     -49
    x#8#89    c04_8     1
    x#2#89    c01_89    -1
    x#2#89    c01_117   1
    x#2#89    c02_2     -18
    x#2#89    c04_2     1
    z#89      c01_89    1
    z#89      c01_90    -1
    x#50#90   c01_90    -2
    x#50#90   c01_117   2
    x#50#90   c02_50    -25
    x#50#90   c04_50    1
    x#46#90   c01_90    -1
    x#46#90   c01_106   1
    x#46#90   c04_46    1
    x#41#90   c01_90    -3
    x#41#90   c01_102   3
    x#41#90   c02_41    -28
    x#41#90   c04_41    1
    x#40#90   c01_90    -4
    x#40#90   c01_113   4
    x#40#90   c02_40    -19
    x#40#90   c04_40    1
    x#38#90   c01_90    -1
    x#38#90   c01_113   1
    x#38#90   c02_38    -19
    x#38#90   c04_38    1
    x#36#90   c01_90    -1
    x#36#90   c01_128   1
    x#36#90   c02_36    -5
    x#36#90   c04_36    1
    x#34#90   c01_90    -4
    x#34#90   c01_100   4
    x#34#90   c02_34    -26
    x#34#90   c04_34    1
    x#32#90   c01_90    -2
    x#32#90   c01_121   2
    x#32#90   c02_32    -9
    x#32#90   c04_32    1
    x#15#90   c01_90    -2
    x#15#90   c01_109   2
    x#15#90   c02_15    -30
    x#15#90   c04_15    1
    x#13#90   c01_90    -3
    x#13#90   c01_120   3
    x#13#90   c02_13    -1
    x#13#90   c04_13    1
    x#10#90   c01_90    -4
    x#10#90   c01_100   4
    x#10#90   c02_10    -22
    x#10#90   c04_10    1
    x#8#90    c01_90    -5
    x#8#90    c01_105   5
    x#8#90    c02_8     -50
    x#8#90    c04_8     1
    z#90      c01_90    1
    z#90      c01_91    -1
    x#50#91   c01_91    -2
    x#50#91   c01_118   2
    x#50#91   c02_50    -26
    x#50#91   c04_50    1
    x#46#91   c01_91    -1
    x#46#91   c01_107   1
    x#46#91   c02_46    -1
    x#46#91   c04_46    1
    x#41#91   c01_91    -3
    x#41#91   c01_103   3
    x#41#91   c02_41    -29
    x#41#91   c04_41    1
    x#40#91   c01_91    -4
    x#40#91   c01_114   4
    x#40#91   c02_40    -20
    x#40#91   c04_40    1
    x#38#91   c01_91    -1
    x#38#91   c01_114   1
    x#38#91   c02_38    -20
    x#38#91   c04_38    1
    x#36#91   c01_91    -1
    x#36#91   c01_129   1
    x#36#91   c02_36    -6
    x#36#91   c04_36    1
    x#34#91   c01_91    -4
    x#34#91   c01_101   4
    x#34#91   c02_34    -27
    x#34#91   c04_34    1
    x#32#91   c01_91    -2
    x#32#91   c01_122   2
    x#32#91   c02_32    -10
    x#32#91   c04_32    1
    x#15#91   c01_91    -2
    x#15#91   c01_110   2
    x#15#91   c02_15    -31
    x#15#91   c04_15    1
    x#13#91   c01_91    -3
    x#13#91   c01_121   3
    x#13#91   c02_13    -2
    x#13#91   c04_13    1
    x#10#91   c01_91    -4
    x#10#91   c01_101   4
    x#10#91   c02_10    -23
    x#10#91   c04_10    1
    x#8#91    c01_91    -5
    x#8#91    c01_106   5
    x#8#91    c02_8     -51
    x#8#91    c04_8     1
    z#91      c01_91    1
    z#91      c01_92    -1
    x#50#92   c01_92    -2
    x#50#92   c01_119   2
    x#50#92   c02_50    -27
    x#50#92   c04_50    1
    x#46#92   c01_92    -1
    x#46#92   c01_108   1
    x#46#92   c02_46    -2
    x#46#92   c04_46    1
    x#41#92   c01_92    -3
    x#41#92   c01_104   3
    x#41#92   c02_41    -30
    x#41#92   c04_41    1
    x#40#92   c01_92    -4
    x#40#92   c01_115   4
    x#40#92   c02_40    -21
    x#40#92   c04_40    1
    x#38#92   c01_92    -1
    x#38#92   c01_115   1
    x#38#92   c02_38    -21
    x#38#92   c04_38    1
    x#36#92   c01_92    -1
    x#36#92   c01_130   1
    x#36#92   c02_36    -7
    x#36#92   c04_36    1
    x#34#92   c01_92    -4
    x#34#92   c01_102   4
    x#34#92   c02_34    -28
    x#34#92   c04_34    1
    x#32#92   c01_92    -2
    x#32#92   c01_123   2
    x#32#92   c02_32    -11
    x#32#92   c04_32    1
    x#18#92   c01_92    -3
    x#18#92   c01_117   3
    x#18#92   c04_18    1
    x#15#92   c01_92    -2
    x#15#92   c01_111   2
    x#15#92   c02_15    -32
    x#15#92   c04_15    1
    x#13#92   c01_92    -3
    x#13#92   c01_122   3
    x#13#92   c02_13    -3
    x#13#92   c04_13    1
    x#10#92   c01_92    -4
    x#10#92   c01_102   4
    x#10#92   c02_10    -24
    x#10#92   c04_10    1
    x#8#92    c01_92    -5
    x#8#92    c01_107   5
    x#8#92    c02_8     -52
    x#8#92    c04_8     1
    z#92      c01_92    1
    z#92      c01_93    -1
    x#50#93   c01_93    -2
    x#50#93   c01_120   2
    x#50#93   c02_50    -28
    x#50#93   c04_50    1
    x#46#93   c01_93    -1
    x#46#93   c01_109   1
    x#46#93   c02_46    -3
    x#46#93   c04_46    1
    x#41#93   c01_93    -3
    x#41#93   c01_105   3
    x#41#93   c02_41    -31
    x#41#93   c04_41    1
    x#40#93   c01_93    -4
    x#40#93   c01_116   4
    x#40#93   c02_40    -22
    x#40#93   c04_40    1
    x#38#93   c01_93    -1
    x#38#93   c01_116   1
    x#38#93   c02_38    -22
    x#38#93   c04_38    1
    x#36#93   c01_93    -1
    x#36#93   c01_131   1
    x#36#93   c02_36    -8
    x#36#93   c04_36    1
    x#34#93   c01_93    -4
    x#34#93   c01_103   4
    x#34#93   c02_34    -29
    x#34#93   c04_34    1
    x#32#93   c01_93    -2
    x#32#93   c01_124   2
    x#32#93   c02_32    -12
    x#32#93   c04_32    1
    x#18#93   c01_93    -3
    x#18#93   c01_118   3
    x#18#93   c02_18    -1
    x#18#93   c04_18    1
    x#15#93   c01_93    -2
    x#15#93   c01_112   2
    x#15#93   c02_15    -33
    x#15#93   c04_15    1
    x#13#93   c01_93    -3
    x#13#93   c01_123   3
    x#13#93   c02_13    -4
    x#13#93   c04_13    1
    x#10#93   c01_93    -4
    x#10#93   c01_103   4
    x#10#93   c02_10    -25
    x#10#93   c04_10    1
    x#8#93    c01_93    -5
    x#8#93    c01_108   5
    x#8#93    c02_8     -53
    x#8#93    c04_8     1
    z#93      c01_93    1
    z#93      c01_94    -1
    x#46#94   c01_94    -1
    x#46#94   c01_110   1
    x#46#94   c02_46    -4
    x#46#94   c04_46    1
    x#41#94   c01_94    -3
    x#41#94   c01_106   3
    x#41#94   c02_41    -32
    x#41#94   c04_41    1
    x#40#94   c01_94    -4
    x#40#94   c01_117   4
    x#40#94   c02_40    -23
    x#40#94   c04_40    1
    x#38#94   c01_94    -1
    x#38#94   c01_117   1
    x#38#94   c02_38    -23
    x#38#94   c04_38    1
    x#36#94   c01_94    -1
    x#36#94   c01_132   1
    x#36#94   c02_36    -9
    x#36#94   c04_36    1
    x#34#94   c01_94    -4
    x#34#94   c01_104   4
    x#34#94   c02_34    -30
    x#34#94   c04_34    1
    x#18#94   c01_94    -3
    x#18#94   c01_119   3
    x#18#94   c02_18    -2
    x#18#94   c04_18    1
    x#16#94   c01_94    -3
    x#16#94   c01_109   3
    x#16#94   c04_16    1
    x#15#94   c01_94    -2
    x#15#94   c01_113   2
    x#15#94   c02_15    -34
    x#15#94   c04_15    1
    x#13#94   c01_94    -3
    x#13#94   c01_124   3
    x#13#94   c02_13    -5
    x#13#94   c04_13    1
    x#10#94   c01_94    -4
    x#10#94   c01_104   4
    x#10#94   c02_10    -26
    x#10#94   c04_10    1
    x#8#94    c01_94    -5
    x#8#94    c01_109   5
    x#8#94    c02_8     -54
    x#8#94    c04_8     1
    z#94      c01_94    1
    z#94      c01_95    -1
    x#46#95   c01_95    -1
    x#46#95   c01_111   1
    x#46#95   c02_46    -5
    x#46#95   c04_46    1
    x#41#95   c01_95    -3
    x#41#95   c01_107   3
    x#41#95   c02_41    -33
    x#41#95   c04_41    1
    x#40#95   c01_95    -4
    x#40#95   c01_118   4
    x#40#95   c02_40    -24
    x#40#95   c04_40    1
    x#38#95   c01_95    -1
    x#38#95   c01_118   1
    x#38#95   c02_38    -24
    x#38#95   c04_38    1
    x#36#95   c01_95    -1
    x#36#95   c01_133   1
    x#36#95   c02_36    -10
    x#36#95   c04_36    1
    x#34#95   c01_95    -4
    x#34#95   c01_105   4
    x#34#95   c02_34    -31
    x#34#95   c04_34    1
    x#18#95   c01_95    -3
    x#18#95   c01_120   3
    x#18#95   c02_18    -3
    x#18#95   c04_18    1
    x#16#95   c01_95    -3
    x#16#95   c01_110   3
    x#16#95   c02_16    -1
    x#16#95   c04_16    1
    x#15#95   c01_95    -2
    x#15#95   c01_114   2
    x#15#95   c02_15    -35
    x#15#95   c04_15    1
    x#13#95   c01_95    -3
    x#13#95   c01_125   3
    x#13#95   c02_13    -6
    x#13#95   c04_13    1
    x#10#95   c01_95    -4
    x#10#95   c01_105   4
    x#10#95   c02_10    -27
    x#10#95   c04_10    1
    z#95      c01_95    1
    z#95      c01_96    -1
    x#46#96   c01_96    -1
    x#46#96   c01_112   1
    x#46#96   c02_46    -6
    x#46#96   c04_46    1
    x#41#96   c01_96    -3
    x#41#96   c01_108   3
    x#41#96   c02_41    -34
    x#41#96   c04_41    1
    x#40#96   c01_96    -4
    x#40#96   c01_119   4
    x#40#96   c02_40    -25
    x#40#96   c04_40    1
    x#38#96   c01_96    -1
    x#38#96   c01_119   1
    x#38#96   c02_38    -25
    x#38#96   c04_38    1
    x#36#96   c01_96    -1
    x#36#96   c01_134   1
    x#36#96   c02_36    -11
    x#36#96   c04_36    1
    x#34#96   c01_96    -4
    x#34#96   c01_106   4
    x#34#96   c02_34    -32
    x#34#96   c04_34    1
    x#18#96   c01_96    -3
    x#18#96   c01_121   3
    x#18#96   c02_18    -4
    x#18#96   c04_18    1
    x#16#96   c01_96    -3
    x#16#96   c01_111   3
    x#16#96   c02_16    -2
    x#16#96   c04_16    1
    x#15#96   c01_96    -2
    x#15#96   c01_115   2
    x#15#96   c02_15    -36
    x#15#96   c04_15    1
    x#13#96   c01_96    -3
    x#13#96   c01_126   3
    x#13#96   c02_13    -7
    x#13#96   c04_13    1
    x#10#96   c01_96    -4
    x#10#96   c01_106   4
    x#10#96   c02_10    -28
    x#10#96   c04_10    1
    z#96      c01_96    1
    z#96      c01_97    -1
    x#46#97   c01_97    -1
    x#46#97   c01_113   1
    x#46#97   c02_46    -7
    x#46#97   c04_46    1
    x#41#97   c01_97    -3
    x#41#97   c01_109   3
    x#41#97   c02_41    -35
    x#41#97   c04_41    1
    x#40#97   c01_97    -4
    x#40#97   c01_120   4
    x#40#97   c02_40    -26
    x#40#97   c04_40    1
    x#38#97   c01_97    -1
    x#38#97   c01_120   1
    x#38#97   c02_38    -26
    x#38#97   c04_38    1
    x#36#97   c01_97    -1
    x#36#97   c01_135   1
    x#36#97   c02_36    -12
    x#36#97   c04_36    1
    x#34#97   c01_97    -4
    x#34#97   c01_107   4
    x#34#97   c02_34    -33
    x#34#97   c04_34    1
    x#18#97   c01_97    -3
    x#18#97   c01_122   3
    x#18#97   c02_18    -5
    x#18#97   c04_18    1
    x#16#97   c01_97    -3
    x#16#97   c01_112   3
    x#16#97   c02_16    -3
    x#16#97   c04_16    1
    x#15#97   c01_97    -2
    x#15#97   c01_116   2
    x#15#97   c02_15    -37
    x#15#97   c04_15    1
    x#13#97   c01_97    -3
    x#13#97   c01_127   3
    x#13#97   c02_13    -8
    x#13#97   c04_13    1
    x#10#97   c01_97    -4
    x#10#97   c01_107   4
    x#10#97   c02_10    -29
    x#10#97   c04_10    1
    z#97      c01_97    1
    z#97      c01_98    -1
    x#46#98   c01_98    -1
    x#46#98   c01_114   1
    x#46#98   c02_46    -8
    x#46#98   c04_46    1
    x#41#98   c01_98    -3
    x#41#98   c01_110   3
    x#41#98   c02_41    -36
    x#41#98   c04_41    1
    x#40#98   c01_98    -4
    x#40#98   c01_121   4
    x#40#98   c02_40    -27
    x#40#98   c04_40    1
    x#38#98   c01_98    -1
    x#38#98   c01_121   1
    x#38#98   c02_38    -27
    x#38#98   c04_38    1
    x#36#98   c01_98    -1
    x#36#98   c01_136   1
    x#36#98   c02_36    -13
    x#36#98   c04_36    1
    x#34#98   c01_98    -4
    x#34#98   c01_108   4
    x#34#98   c02_34    -34
    x#34#98   c04_34    1
    x#18#98   c01_98    -3
    x#18#98   c01_123   3
    x#18#98   c02_18    -6
    x#18#98   c04_18    1
    x#16#98   c01_98    -3
    x#16#98   c01_113   3
    x#16#98   c02_16    -4
    x#16#98   c04_16    1
    x#15#98   c01_98    -2
    x#15#98   c01_117   2
    x#15#98   c02_15    -38
    x#15#98   c04_15    1
    x#13#98   c01_98    -3
    x#13#98   c01_128   3
    x#13#98   c02_13    -9
    x#13#98   c04_13    1
    x#10#98   c01_98    -4
    x#10#98   c01_108   4
    x#10#98   c02_10    -30
    x#10#98   c04_10    1
    z#98      c01_98    1
    z#98      c01_99    -1
    x#46#99   c01_99    -1
    x#46#99   c01_115   1
    x#46#99   c02_46    -9
    x#46#99   c04_46    1
    x#41#99   c01_99    -3
    x#41#99   c01_111   3
    x#41#99   c02_41    -37
    x#41#99   c04_41    1
    x#40#99   c01_99    -4
    x#40#99   c01_122   4
    x#40#99   c02_40    -28
    x#40#99   c04_40    1
    x#38#99   c01_99    -1
    x#38#99   c01_122   1
    x#38#99   c02_38    -28
    x#38#99   c04_38    1
    x#36#99   c01_99    -1
    x#36#99   c01_137   1
    x#36#99   c02_36    -14
    x#36#99   c04_36    1
    x#34#99   c01_99    -4
    x#34#99   c01_109   4
    x#34#99   c02_34    -35
    x#34#99   c04_34    1
    x#18#99   c01_99    -3
    x#18#99   c01_124   3
    x#18#99   c02_18    -7
    x#18#99   c04_18    1
    x#16#99   c01_99    -3
    x#16#99   c01_114   3
    x#16#99   c02_16    -5
    x#16#99   c04_16    1
    x#15#99   c01_99    -2
    x#15#99   c01_118   2
    x#15#99   c02_15    -39
    x#15#99   c04_15    1
    x#13#99   c01_99    -3
    x#13#99   c01_129   3
    x#13#99   c02_13    -10
    x#13#99   c04_13    1
    x#10#99   c01_99    -4
    x#10#99   c01_109   4
    x#10#99   c02_10    -31
    x#10#99   c04_10    1
    z#99      c01_99    1
    z#99      c01_100   -1
    x#46#100  c01_100   -1
    x#46#100  c01_116   1
    x#46#100  c02_46    -10
    x#46#100  c04_46    1
    x#41#100  c01_100   -3
    x#41#100  c01_112   3
    x#41#100  c02_41    -38
    x#41#100  c04_41    1
    x#38#100  c01_100   -1
    x#38#100  c01_123   1
    x#38#100  c02_38    -29
    x#38#100  c04_38    1
    x#36#100  c01_100   -1
    x#36#100  c01_138   1
    x#36#100  c02_36    -15
    x#36#100  c04_36    1
    x#34#100  c01_100   -4
    x#34#100  c01_110   4
    x#34#100  c02_34    -36
    x#34#100  c04_34    1
    x#18#100  c01_100   -3
    x#18#100  c01_125   3
    x#18#100  c02_18    -8
    x#18#100  c04_18    1
    x#16#100  c01_100   -3
    x#16#100  c01_115   3
    x#16#100  c02_16    -6
    x#16#100  c04_16    1
    x#15#100  c01_100   -2
    x#15#100  c01_119   2
    x#15#100  c02_15    -40
    x#15#100  c04_15    1
    x#13#100  c01_100   -3
    x#13#100  c01_130   3
    x#13#100  c02_13    -11
    x#13#100  c04_13    1
    x#10#100  c01_100   -4
    x#10#100  c01_110   4
    x#10#100  c02_10    -32
    x#10#100  c04_10    1
    z#100     c01_100   1
    z#100     c01_101   -1
    x#46#101  c01_101   -1
    x#46#101  c01_117   1
    x#46#101  c02_46    -11
    x#46#101  c04_46    1
    x#38#101  c01_101   -1
    x#38#101  c01_124   1
    x#38#101  c02_38    -30
    x#38#101  c04_38    1
    x#36#101  c01_101   -1
    x#36#101  c01_139   1
    x#36#101  c02_36    -16
    x#36#101  c04_36    1
    x#34#101  c01_101   -4
    x#34#101  c01_111   4
    x#34#101  c02_34    -37
    x#34#101  c04_34    1
    x#18#101  c01_101   -3
    x#18#101  c01_126   3
    x#18#101  c02_18    -9
    x#18#101  c04_18    1
    x#16#101  c01_101   -3
    x#16#101  c01_116   3
    x#16#101  c02_16    -7
    x#16#101  c04_16    1
    x#15#101  c01_101   -2
    x#15#101  c01_120   2
    x#15#101  c02_15    -41
    x#15#101  c04_15    1
    x#13#101  c01_101   -3
    x#13#101  c01_131   3
    x#13#101  c02_13    -12
    x#13#101  c04_13    1
    x#10#101  c01_101   -4
    x#10#101  c01_111   4
    x#10#101  c02_10    -33
    x#10#101  c04_10    1
    z#101     c01_101   1
    z#101     c01_102   -1
    x#46#102  c01_102   -1
    x#46#102  c01_118   1
    x#46#102  c02_46    -12
    x#46#102  c04_46    1
    x#42#102  c01_102   -4
    x#42#102  c01_114   4
    x#42#102  c04_42    1
    x#38#102  c01_102   -1
    x#38#102  c01_125   1
    x#38#102  c02_38    -31
    x#38#102  c04_38    1
    x#36#102  c01_102   -1
    x#36#102  c01_140   1
    x#36#102  c02_36    -17
    x#36#102  c04_36    1
    x#34#102  c01_102   -4
    x#34#102  c01_112   4
    x#34#102  c02_34    -38
    x#34#102  c04_34    1
    x#18#102  c01_102   -3
    x#18#102  c01_127   3
    x#18#102  c02_18    -10
    x#18#102  c04_18    1
    x#16#102  c01_102   -3
    x#16#102  c01_117   3
    x#16#102  c02_16    -8
    x#16#102  c04_16    1
    x#15#102  c01_102   -2
    x#15#102  c01_121   2
    x#15#102  c02_15    -42
    x#15#102  c04_15    1
    x#13#102  c01_102   -3
    x#13#102  c01_132   3
    x#13#102  c02_13    -13
    x#13#102  c04_13    1
    x#10#102  c01_102   -4
    x#10#102  c01_112   4
    x#10#102  c02_10    -34
    x#10#102  c04_10    1
    z#102     c01_102   1
    z#102     c01_103   -1
    x#46#103  c01_103   -1
    x#46#103  c01_119   1
    x#46#103  c02_46    -13
    x#46#103  c04_46    1
    x#42#103  c01_103   -4
    x#42#103  c01_115   4
    x#42#103  c02_42    -1
    x#42#103  c04_42    1
    x#38#103  c01_103   -1
    x#38#103  c01_126   1
    x#38#103  c02_38    -32
    x#38#103  c04_38    1
    x#36#103  c01_103   -1
    x#36#103  c01_141   1
    x#36#103  c02_36    -18
    x#36#103  c04_36    1
    x#18#103  c01_103   -3
    x#18#103  c01_128   3
    x#18#103  c02_18    -11
    x#18#103  c04_18    1
    x#16#103  c01_103   -3
    x#16#103  c01_118   3
    x#16#103  c02_16    -9
    x#16#103  c04_16    1
    x#15#103  c01_103   -2
    x#15#103  c01_122   2
    x#15#103  c02_15    -43
    x#15#103  c04_15    1
    x#13#103  c01_103   -3
    x#13#103  c01_133   3
    x#13#103  c02_13    -14
    x#13#103  c04_13    1
    x#10#103  c01_103   -4
    x#10#103  c01_113   4
    x#10#103  c02_10    -35
    x#10#103  c04_10    1
    z#103     c01_103   1
    z#103     c01_104   -1
    x#46#104  c01_104   -1
    x#46#104  c01_120   1
    x#46#104  c02_46    -14
    x#46#104  c04_46    1
    x#42#104  c01_104   -4
    x#42#104  c01_116   4
    x#42#104  c02_42    -2
    x#42#104  c04_42    1
    x#38#104  c01_104   -1
    x#38#104  c01_127   1
    x#38#104  c02_38    -33
    x#38#104  c04_38    1
    x#36#104  c01_104   -1
    x#36#104  c01_142   1
    x#36#104  c02_36    -19
    x#36#104  c04_36    1
    x#31#104  c01_104   -4
    x#31#104  c01_147   4
    x#31#104  c04_31    1
    x#18#104  c01_104   -3
    x#18#104  c01_129   3
    x#18#104  c02_18    -12
    x#18#104  c04_18    1
    x#16#104  c01_104   -3
    x#16#104  c01_119   3
    x#16#104  c02_16    -10
    x#16#104  c04_16    1
    x#15#104  c01_104   -2
    x#15#104  c01_123   2
    x#15#104  c02_15    -44
    x#15#104  c04_15    1
    x#13#104  c01_104   -3
    x#13#104  c01_134   3
    x#13#104  c02_13    -15
    x#13#104  c04_13    1
    x#10#104  c01_104   -4
    x#10#104  c01_114   4
    x#10#104  c02_10    -36
    x#10#104  c04_10    1
    z#104     c01_104   1
    z#104     c01_105   -1
    x#46#105  c01_105   -1
    x#46#105  c01_121   1
    x#46#105  c02_46    -15
    x#46#105  c04_46    1
    x#42#105  c01_105   -4
    x#42#105  c01_117   4
    x#42#105  c02_42    -3
    x#42#105  c04_42    1
    x#38#105  c01_105   -1
    x#38#105  c01_128   1
    x#38#105  c02_38    -34
    x#38#105  c04_38    1
    x#31#105  c01_105   -4
    x#31#105  c01_148   4
    x#31#105  c02_31    -1
    x#31#105  c04_31    1
    x#18#105  c01_105   -3
    x#18#105  c01_130   3
    x#18#105  c02_18    -13
    x#18#105  c04_18    1
    x#16#105  c01_105   -3
    x#16#105  c01_120   3
    x#16#105  c02_16    -11
    x#16#105  c04_16    1
    x#15#105  c01_105   -2
    x#15#105  c01_124   2
    x#15#105  c02_15    -45
    x#15#105  c04_15    1
    x#13#105  c01_105   -3
    x#13#105  c01_135   3
    x#13#105  c02_13    -16
    x#13#105  c04_13    1
    x#10#105  c01_105   -4
    x#10#105  c01_115   4
    x#10#105  c02_10    -37
    x#10#105  c04_10    1
    z#105     c01_105   1
    z#105     c01_106   -1
    x#46#106  c01_106   -1
    x#46#106  c01_122   1
    x#46#106  c02_46    -16
    x#46#106  c04_46    1
    x#42#106  c01_106   -4
    x#42#106  c01_118   4
    x#42#106  c02_42    -4
    x#42#106  c04_42    1
    x#38#106  c01_106   -1
    x#38#106  c01_129   1
    x#38#106  c02_38    -35
    x#38#106  c04_38    1
    x#31#106  c01_106   -4
    x#31#106  c01_149   4
    x#31#106  c02_31    -2
    x#31#106  c04_31    1
    x#18#106  c01_106   -3
    x#18#106  c01_131   3
    x#18#106  c02_18    -14
    x#18#106  c04_18    1
    x#16#106  c01_106   -3
    x#16#106  c01_121   3
    x#16#106  c02_16    -12
    x#16#106  c04_16    1
    x#15#106  c01_106   -2
    x#15#106  c01_125   2
    x#15#106  c02_15    -46
    x#15#106  c04_15    1
    x#13#106  c01_106   -3
    x#13#106  c01_136   3
    x#13#106  c02_13    -17
    x#13#106  c04_13    1
    z#106     c01_106   1
    z#106     c01_107   -1
    x#46#107  c01_107   -1
    x#46#107  c01_123   1
    x#46#107  c02_46    -17
    x#46#107  c04_46    1
    x#42#107  c01_107   -4
    x#42#107  c01_119   4
    x#42#107  c02_42    -5
    x#42#107  c04_42    1
    x#38#107  c01_107   -1
    x#38#107  c01_130   1
    x#38#107  c02_38    -36
    x#38#107  c04_38    1
    x#31#107  c01_107   -4
    x#31#107  c01_150   4
    x#31#107  c02_31    -3
    x#31#107  c04_31    1
    x#18#107  c01_107   -3
    x#18#107  c01_132   3
    x#18#107  c02_18    -15
    x#18#107  c04_18    1
    x#16#107  c01_107   -3
    x#16#107  c01_122   3
    x#16#107  c02_16    -13
    x#16#107  c04_16    1
    x#15#107  c01_107   -2
    x#15#107  c01_126   2
    x#15#107  c02_15    -47
    x#15#107  c04_15    1
    x#13#107  c01_107   -3
    x#13#107  c01_137   3
    x#13#107  c02_13    -18
    x#13#107  c04_13    1
    z#107     c01_107   1
    z#107     c01_108   -1
    x#46#108  c01_108   -1
    x#46#108  c01_124   1
    x#46#108  c02_46    -18
    x#46#108  c04_46    1
    x#42#108  c01_108   -4
    x#42#108  c01_120   4
    x#42#108  c02_42    -6
    x#42#108  c04_42    1
    x#38#108  c01_108   -1
    x#38#108  c01_131   1
    x#38#108  c02_38    -37
    x#38#108  c04_38    1
    x#31#108  c01_108   -4
    x#31#108  c01_151   4
    x#31#108  c02_31    -4
    x#31#108  c04_31    1
    x#16#108  c01_108   -3
    x#16#108  c01_123   3
    x#16#108  c02_16    -14
    x#16#108  c04_16    1
    x#15#108  c01_108   -2
    x#15#108  c01_127   2
    x#15#108  c02_15    -48
    x#15#108  c04_15    1
    x#13#108  c01_108   -3
    x#13#108  c01_138   3
    x#13#108  c02_13    -19
    x#13#108  c04_13    1
    z#108     c01_108   1
    z#108     c01_109   -1
    x#46#109  c01_109   -1
    x#46#109  c01_125   1
    x#46#109  c02_46    -19
    x#46#109  c04_46    1
    x#42#109  c01_109   -4
    x#42#109  c01_121   4
    x#42#109  c02_42    -7
    x#42#109  c04_42    1
    x#38#109  c01_109   -1
    x#38#109  c01_132   1
    x#38#109  c02_38    -38
    x#38#109  c04_38    1
    x#31#109  c01_109   -4
    x#31#109  c01_152   4
    x#31#109  c02_31    -5
    x#31#109  c04_31    1
    x#16#109  c01_109   -3
    x#16#109  c01_124   3
    x#16#109  c02_16    -15
    x#16#109  c04_16    1
    x#15#109  c01_109   -2
    x#15#109  c01_128   2
    x#15#109  c02_15    -49
    x#15#109  c04_15    1
    x#13#109  c01_109   -3
    x#13#109  c01_139   3
    x#13#109  c02_13    -20
    x#13#109  c04_13    1
    z#109     c01_109   1
    z#109     c01_110   -1
    x#46#110  c01_110   -1
    x#46#110  c01_126   1
    x#46#110  c02_46    -20
    x#46#110  c04_46    1
    x#42#110  c01_110   -4
    x#42#110  c01_122   4
    x#42#110  c02_42    -8
    x#42#110  c04_42    1
    x#38#110  c01_110   -1
    x#38#110  c01_133   1
    x#38#110  c02_38    -39
    x#38#110  c04_38    1
    x#31#110  c01_110   -4
    x#31#110  c01_153   4
    x#31#110  c02_31    -6
    x#31#110  c04_31    1
    x#16#110  c01_110   -3
    x#16#110  c01_125   3
    x#16#110  c02_16    -16
    x#16#110  c04_16    1
    x#15#110  c01_110   -2
    x#15#110  c01_129   2
    x#15#110  c02_15    -50
    x#15#110  c04_15    1
    x#13#110  c01_110   -3
    x#13#110  c01_140   3
    x#13#110  c02_13    -21
    x#13#110  c04_13    1
    z#110     c01_110   1
    z#110     c01_111   -1
    x#46#111  c01_111   -1
    x#46#111  c01_127   1
    x#46#111  c02_46    -21
    x#46#111  c04_46    1
    x#42#111  c01_111   -4
    x#42#111  c01_123   4
    x#42#111  c02_42    -9
    x#42#111  c04_42    1
    x#38#111  c01_111   -1
    x#38#111  c01_134   1
    x#38#111  c02_38    -40
    x#38#111  c04_38    1
    x#31#111  c01_111   -4
    x#31#111  c01_154   4
    x#31#111  c02_31    -7
    x#31#111  c04_31    1
    x#16#111  c01_111   -3
    x#16#111  c01_126   3
    x#16#111  c02_16    -17
    x#16#111  c04_16    1
    x#15#111  c01_111   -2
    x#15#111  c01_130   2
    x#15#111  c02_15    -51
    x#15#111  c04_15    1
    x#13#111  c01_111   -3
    x#13#111  c01_141   3
    x#13#111  c02_13    -22
    x#13#111  c04_13    1
    z#111     c01_111   1
    z#111     c01_112   -1
    x#46#112  c01_112   -1
    x#46#112  c01_128   1
    x#46#112  c02_46    -22
    x#46#112  c04_46    1
    x#42#112  c01_112   -4
    x#42#112  c01_124   4
    x#42#112  c02_42    -10
    x#42#112  c04_42    1
    x#38#112  c01_112   -1
    x#38#112  c01_135   1
    x#38#112  c02_38    -41
    x#38#112  c04_38    1
    x#31#112  c01_112   -4
    x#31#112  c01_155   4
    x#31#112  c02_31    -8
    x#31#112  c04_31    1
    x#16#112  c01_112   -3
    x#16#112  c01_127   3
    x#16#112  c02_16    -18
    x#16#112  c04_16    1
    x#15#112  c01_112   -2
    x#15#112  c01_131   2
    x#15#112  c02_15    -52
    x#15#112  c04_15    1
    x#13#112  c01_112   -3
    x#13#112  c01_142   3
    x#13#112  c02_13    -23
    x#13#112  c04_13    1
    z#112     c01_112   1
    z#112     c01_113   -1
    x#46#113  c01_113   -1
    x#46#113  c01_129   1
    x#46#113  c02_46    -23
    x#46#113  c04_46    1
    x#42#113  c01_113   -4
    x#42#113  c01_125   4
    x#42#113  c02_42    -11
    x#42#113  c04_42    1
    x#38#113  c01_113   -1
    x#38#113  c01_136   1
    x#38#113  c02_38    -42
    x#38#113  c04_38    1
    x#31#113  c01_113   -4
    x#31#113  c01_156   4
    x#31#113  c02_31    -9
    x#31#113  c04_31    1
    x#16#113  c01_113   -3
    x#16#113  c01_128   3
    x#16#113  c02_16    -19
    x#16#113  c04_16    1
    x#15#113  c01_113   -2
    x#15#113  c01_132   2
    x#15#113  c02_15    -53
    x#15#113  c04_15    1
    x#13#113  c01_113   -3
    x#13#113  c01_143   3
    x#13#113  c02_13    -24
    x#13#113  c04_13    1
    x#5#113   c01_113   -4
    x#5#113   c01_163   4
    x#5#113   c04_5     1
    z#113     c01_113   1
    z#113     c01_114   -1
    x#46#114  c01_114   -1
    x#46#114  c01_130   1
    x#46#114  c02_46    -24
    x#46#114  c04_46    1
    x#42#114  c01_114   -4
    x#42#114  c01_126   4
    x#42#114  c02_42    -12
    x#42#114  c04_42    1
    x#38#114  c01_114   -1
    x#38#114  c01_137   1
    x#38#114  c02_38    -43
    x#38#114  c04_38    1
    x#31#114  c01_114   -4
    x#31#114  c01_157   4
    x#31#114  c02_31    -10
    x#31#114  c04_31    1
    x#16#114  c01_114   -3
    x#16#114  c01_129   3
    x#16#114  c02_16    -20
    x#16#114  c04_16    1
    x#15#114  c01_114   -2
    x#15#114  c01_133   2
    x#15#114  c02_15    -54
    x#15#114  c04_15    1
    x#13#114  c01_114   -3
    x#13#114  c01_144   3
    x#13#114  c02_13    -25
    x#13#114  c04_13    1
    x#5#114   c01_114   -4
    x#5#114   c01_164   4
    x#5#114   c02_5     -1
    x#5#114   c04_5     1
    z#114     c01_114   1
    z#114     c01_115   -1
    x#46#115  c01_115   -1
    x#46#115  c01_131   1
    x#46#115  c02_46    -25
    x#46#115  c04_46    1
    x#42#115  c01_115   -4
    x#42#115  c01_127   4
    x#42#115  c02_42    -13
    x#42#115  c04_42    1
    x#38#115  c01_115   -1
    x#38#115  c01_138   1
    x#38#115  c02_38    -44
    x#38#115  c04_38    1
    x#31#115  c01_115   -4
    x#31#115  c01_158   4
    x#31#115  c02_31    -11
    x#31#115  c04_31    1
    x#16#115  c01_115   -3
    x#16#115  c01_130   3
    x#16#115  c02_16    -21
    x#16#115  c04_16    1
    x#15#115  c01_115   -2
    x#15#115  c01_134   2
    x#15#115  c02_15    -55
    x#15#115  c04_15    1
    x#13#115  c01_115   -3
    x#13#115  c01_145   3
    x#13#115  c02_13    -26
    x#13#115  c04_13    1
    x#5#115   c01_115   -4
    x#5#115   c01_165   4
    x#5#115   c02_5     -2
    x#5#115   c04_5     1
    z#115     c01_115   1
    z#115     c01_116   -1
    x#46#116  c01_116   -1
    x#46#116  c01_132   1
    x#46#116  c02_46    -26
    x#46#116  c04_46    1
    x#42#116  c01_116   -4
    x#42#116  c01_128   4
    x#42#116  c02_42    -14
    x#42#116  c04_42    1
    x#38#116  c01_116   -1
    x#38#116  c01_139   1
    x#38#116  c02_38    -45
    x#38#116  c04_38    1
    x#31#116  c01_116   -4
    x#31#116  c01_159   4
    x#31#116  c02_31    -12
    x#31#116  c04_31    1
    x#16#116  c01_116   -3
    x#16#116  c01_131   3
    x#16#116  c02_16    -22
    x#16#116  c04_16    1
    x#13#116  c01_116   -3
    x#13#116  c01_146   3
    x#13#116  c02_13    -27
    x#13#116  c04_13    1
    x#5#116   c01_116   -4
    x#5#116   c01_166   4
    x#5#116   c02_5     -3
    x#5#116   c04_5     1
    z#116     c01_116   1
    z#116     c01_117   -1
    x#46#117  c01_117   -1
    x#46#117  c01_133   1
    x#46#117  c02_46    -27
    x#46#117  c04_46    1
    x#42#117  c01_117   -4
    x#42#117  c01_129   4
    x#42#117  c02_42    -15
    x#42#117  c04_42    1
    x#38#117  c01_117   -1
    x#38#117  c01_140   1
    x#38#117  c02_38    -46
    x#38#117  c04_38    1
    x#31#117  c01_117   -4
    x#31#117  c01_160   4
    x#31#117  c02_31    -13
    x#31#117  c04_31    1
    x#16#117  c01_117   -3
    x#16#117  c01_132   3
    x#16#117  c02_16    -23
    x#16#117  c04_16    1
    x#13#117  c01_117   -3
    x#13#117  c01_147   3
    x#13#117  c02_13    -28
    x#13#117  c04_13    1
    x#5#117   c01_117   -4
    x#5#117   c01_167   4
    x#5#117   c02_5     -4
    x#5#117   c04_5     1
    z#117     c01_117   1
    z#117     c01_118   -1
    x#46#118  c01_118   -1
    x#46#118  c01_134   1
    x#46#118  c02_46    -28
    x#46#118  c04_46    1
    x#42#118  c01_118   -4
    x#42#118  c01_130   4
    x#42#118  c02_42    -16
    x#42#118  c04_42    1
    x#31#118  c01_118   -4
    x#31#118  c01_161   4
    x#31#118  c02_31    -14
    x#31#118  c04_31    1
    x#13#118  c01_118   -3
    x#13#118  c01_148   3
    x#13#118  c02_13    -29
    x#13#118  c04_13    1
    x#5#118   c01_118   -4
    x#5#118   c01_168   4
    x#5#118   c02_5     -5
    x#5#118   c04_5     1
    z#118     c01_118   1
    z#118     c01_119   -1
    x#46#119  c01_119   -1
    x#46#119  c01_135   1
    x#46#119  c02_46    -29
    x#46#119  c04_46    1
    x#42#119  c01_119   -4
    x#42#119  c01_131   4
    x#42#119  c02_42    -17
    x#42#119  c04_42    1
    x#31#119  c01_119   -4
    x#31#119  c01_162   4
    x#31#119  c02_31    -15
    x#31#119  c04_31    1
    x#19#119  c01_119   -1
    x#19#119  c01_136   1
    x#19#119  c04_19    1
    x#13#119  c01_119   -3
    x#13#119  c01_149   3
    x#13#119  c02_13    -30
    x#13#119  c04_13    1
    x#5#119   c01_119   -4
    x#5#119   c01_169   4
    x#5#119   c02_5     -6
    x#5#119   c04_5     1
    z#119     c01_119   1
    z#119     c01_120   -1
    x#46#120  c01_120   -1
    x#46#120  c01_136   1
    x#46#120  c02_46    -30
    x#46#120  c04_46    1
    x#42#120  c01_120   -4
    x#42#120  c01_132   4
    x#42#120  c02_42    -18
    x#42#120  c04_42    1
    x#31#120  c01_120   -4
    x#31#120  c01_163   4
    x#31#120  c02_31    -16
    x#31#120  c04_31    1
    x#19#120  c01_120   -1
    x#19#120  c01_137   1
    x#19#120  c02_19    -1
    x#19#120  c04_19    1
    x#13#120  c01_120   -3
    x#13#120  c01_150   3
    x#13#120  c02_13    -31
    x#13#120  c04_13    1
    x#5#120   c01_120   -4
    x#5#120   c01_170   4
    x#5#120   c02_5     -7
    x#5#120   c04_5     1
    z#120     c01_120   1
    z#120     c01_121   -1
    x#46#121  c01_121   -1
    x#46#121  c01_137   1
    x#46#121  c02_46    -31
    x#46#121  c04_46    1
    x#31#121  c01_121   -4
    x#31#121  c01_164   4
    x#31#121  c02_31    -17
    x#31#121  c04_31    1
    x#19#121  c01_121   -1
    x#19#121  c01_138   1
    x#19#121  c02_19    -2
    x#19#121  c04_19    1
    x#13#121  c01_121   -3
    x#13#121  c01_151   3
    x#13#121  c02_13    -32
    x#13#121  c04_13    1
    x#5#121   c01_121   -4
    x#5#121   c01_171   4
    x#5#121   c02_5     -8
    x#5#121   c04_5     1
    z#121     c01_121   1
    z#121     c01_122   -1
    x#46#122  c01_122   -1
    x#46#122  c01_138   1
    x#46#122  c02_46    -32
    x#46#122  c04_46    1
    x#31#122  c01_122   -4
    x#31#122  c01_165   4
    x#31#122  c02_31    -18
    x#31#122  c04_31    1
    x#19#122  c01_122   -1
    x#19#122  c01_139   1
    x#19#122  c02_19    -3
    x#19#122  c04_19    1
    x#13#122  c01_122   -3
    x#13#122  c01_152   3
    x#13#122  c02_13    -33
    x#13#122  c04_13    1
    x#5#122   c01_122   -4
    x#5#122   c01_172   4
    x#5#122   c02_5     -9
    x#5#122   c04_5     1
    z#122     c01_122   1
    z#122     c01_123   -1
    x#46#123  c01_123   -1
    x#46#123  c01_139   1
    x#46#123  c02_46    -33
    x#46#123  c04_46    1
    x#31#123  c01_123   -4
    x#31#123  c01_166   4
    x#31#123  c02_31    -19
    x#31#123  c04_31    1
    x#19#123  c01_123   -1
    x#19#123  c01_140   1
    x#19#123  c02_19    -4
    x#19#123  c04_19    1
    x#13#123  c01_123   -3
    x#13#123  c01_153   3
    x#13#123  c02_13    -34
    x#13#123  c04_13    1
    x#5#123   c01_123   -4
    x#5#123   c01_173   4
    x#5#123   c02_5     -10
    x#5#123   c04_5     1
    z#123     c01_123   1
    z#123     c01_124   -1
    x#46#124  c01_124   -1
    x#46#124  c01_140   1
    x#46#124  c02_46    -34
    x#46#124  c04_46    1
    x#31#124  c01_124   -4
    x#31#124  c01_167   4
    x#31#124  c02_31    -20
    x#31#124  c04_31    1
    x#19#124  c01_124   -1
    x#19#124  c01_141   1
    x#19#124  c02_19    -5
    x#19#124  c04_19    1
    x#13#124  c01_124   -3
    x#13#124  c01_154   3
    x#13#124  c02_13    -35
    x#13#124  c04_13    1
    x#5#124   c01_124   -4
    x#5#124   c01_174   4
    x#5#124   c02_5     -11
    x#5#124   c04_5     1
    z#124     c01_124   1
    z#124     c01_125   -1
    x#46#125  c01_125   -1
    x#46#125  c01_141   1
    x#46#125  c02_46    -35
    x#46#125  c04_46    1
    x#31#125  c01_125   -4
    x#31#125  c01_168   4
    x#31#125  c02_31    -21
    x#31#125  c04_31    1
    x#19#125  c01_125   -1
    x#19#125  c01_142   1
    x#19#125  c02_19    -6
    x#19#125  c04_19    1
    x#13#125  c01_125   -3
    x#13#125  c01_155   3
    x#13#125  c02_13    -36
    x#13#125  c04_13    1
    x#5#125   c01_125   -4
    x#5#125   c01_175   4
    x#5#125   c02_5     -12
    x#5#125   c04_5     1
    z#125     c01_125   1
    z#125     c01_126   -1
    x#46#126  c01_126   -1
    x#46#126  c01_142   1
    x#46#126  c02_46    -36
    x#46#126  c04_46    1
    x#19#126  c01_126   -1
    x#19#126  c01_143   1
    x#19#126  c02_19    -7
    x#19#126  c04_19    1
    x#13#126  c01_126   -3
    x#13#126  c01_156   3
    x#13#126  c02_13    -37
    x#13#126  c04_13    1
    x#5#126   c01_126   -4
    x#5#126   c01_176   4
    x#5#126   c02_5     -13
    x#5#126   c04_5     1
    z#126     c01_126   1
    z#126     c01_127   -1
    x#46#127  c01_127   -1
    x#46#127  c01_143   1
    x#46#127  c02_46    -37
    x#46#127  c04_46    1
    x#19#127  c01_127   -1
    x#19#127  c01_144   1
    x#19#127  c02_19    -8
    x#19#127  c04_19    1
    x#13#127  c01_127   -3
    x#13#127  c01_157   3
    x#13#127  c02_13    -38
    x#13#127  c04_13    1
    x#5#127   c01_127   -4
    x#5#127   c01_177   4
    x#5#127   c02_5     -14
    x#5#127   c04_5     1
    z#127     c01_127   1
    z#127     c01_128   -1
    x#46#128  c01_128   -1
    x#46#128  c01_144   1
    x#46#128  c02_46    -38
    x#46#128  c04_46    1
    x#29#128  c01_128   -2
    x#29#128  c01_143   2
    x#29#128  c04_29    1
    x#19#128  c01_128   -1
    x#19#128  c01_145   1
    x#19#128  c02_19    -9
    x#19#128  c04_19    1
    x#13#128  c01_128   -3
    x#13#128  c01_158   3
    x#13#128  c02_13    -39
    x#13#128  c04_13    1
    x#5#128   c01_128   -4
    x#5#128   c01_178   4
    x#5#128   c02_5     -15
    x#5#128   c04_5     1
    z#128     c01_128   1
    z#128     c01_129   -1
    x#46#129  c01_129   -1
    x#46#129  c01_145   1
    x#46#129  c02_46    -39
    x#46#129  c04_46    1
    x#29#129  c01_129   -2
    x#29#129  c01_144   2
    x#29#129  c02_29    -1
    x#29#129  c04_29    1
    x#19#129  c01_129   -1
    x#19#129  c01_146   1
    x#19#129  c02_19    -10
    x#19#129  c04_19    1
    x#13#129  c01_129   -3
    x#13#129  c01_159   3
    x#13#129  c02_13    -40
    x#13#129  c04_13    1
    x#5#129   c01_129   -4
    x#5#129   c01_179   4
    x#5#129   c02_5     -16
    x#5#129   c04_5     1
    z#129     c01_129   1
    z#129     c01_130   -1
    x#46#130  c01_130   -1
    x#46#130  c01_146   1
    x#46#130  c02_46    -40
    x#46#130  c04_46    1
    x#29#130  c01_130   -2
    x#29#130  c01_145   2
    x#29#130  c02_29    -2
    x#29#130  c04_29    1
    x#19#130  c01_130   -1
    x#19#130  c01_147   1
    x#19#130  c02_19    -11
    x#19#130  c04_19    1
    x#5#130   c01_130   -4
    x#5#130   c01_180   4
    x#5#130   c02_5     -17
    x#5#130   c04_5     1
    z#130     c01_130   1
    z#130     c01_131   -1
    x#46#131  c01_131   -1
    x#46#131  c01_147   1
    x#46#131  c02_46    -41
    x#46#131  c04_46    1
    x#29#131  c01_131   -2
    x#29#131  c01_146   2
    x#29#131  c02_29    -3
    x#29#131  c04_29    1
    x#25#131  c01_131   -4
    x#25#131  c01_143   4
    x#25#131  c04_25    1
    x#19#131  c01_131   -1
    x#19#131  c01_148   1
    x#19#131  c02_19    -12
    x#19#131  c04_19    1
    x#5#131   c01_198   4
    x#5#131   c01_131   -4
    x#5#131   c02_5     -18
    x#5#131   c04_5     1
    z#131     c01_131   1
    z#131     c01_132   -1
    x#46#132  c01_132   -1
    x#46#132  c01_148   1
    x#46#132  c02_46    -42
    x#46#132  c04_46    1
    x#29#132  c01_132   -2
    x#29#132  c01_147   2
    x#29#132  c02_29    -4
    x#29#132  c04_29    1
    x#25#132  OBJ       1
    x#25#132  c01_132   -4
    x#25#132  c01_144   4
    x#25#132  c04_25    1
    x#19#132  c01_132   -1
    x#19#132  c01_149   1
    x#19#132  c02_19    -13
    x#19#132  c04_19    1
    z#132     c01_132   1
    z#132     c01_133   -1
    x#29#133  c01_133   -2
    x#29#133  c01_148   2
    x#29#133  c02_29    -5
    x#29#133  c04_29    1
    x#25#133  OBJ       2
    x#25#133  c01_133   -4
    x#25#133  c01_145   4
    x#25#133  c04_25    1
    x#19#133  c01_133   -1
    x#19#133  c01_150   1
    x#19#133  c02_19    -14
    x#19#133  c04_19    1
    z#133     c01_133   1
    z#133     c01_134   -1
    x#29#134  c01_134   -2
    x#29#134  c01_149   2
    x#29#134  c02_29    -6
    x#29#134  c04_29    1
    x#25#134  OBJ       3
    x#25#134  c01_134   -4
    x#25#134  c01_146   4
    x#25#134  c04_25    1
    x#24#134  c01_134   -1
    x#24#134  c01_148   1
    x#24#134  c04_24    1
    x#19#134  c01_134   -1
    x#19#134  c01_151   1
    x#19#134  c02_19    -15
    x#19#134  c04_19    1
    z#134     c01_134   1
    z#134     c01_135   -1
    x#29#135  c01_135   -2
    x#29#135  c01_150   2
    x#29#135  c02_29    -7
    x#29#135  c04_29    1
    x#25#135  OBJ       4
    x#25#135  c01_135   -4
    x#25#135  c01_147   4
    x#25#135  c04_25    1
    x#24#135  c01_135   -1
    x#24#135  c01_149   1
    x#24#135  c02_24    -1
    x#24#135  c04_24    1
    x#19#135  c01_135   -1
    x#19#135  c01_152   1
    x#19#135  c02_19    -16
    x#19#135  c04_19    1
    z#135     c01_135   1
    z#135     c01_136   -1
    x#29#136  c01_136   -2
    x#29#136  c01_151   2
    x#29#136  c02_29    -8
    x#29#136  c04_29    1
    x#25#136  OBJ       5
    x#25#136  c01_136   -4
    x#25#136  c01_148   4
    x#25#136  c04_25    1
    x#24#136  c01_136   -1
    x#24#136  c01_150   1
    x#24#136  c02_24    -2
    x#24#136  c04_24    1
    x#19#136  c01_136   -1
    x#19#136  c01_153   1
    x#19#136  c02_19    -17
    x#19#136  c04_19    1
    z#136     c01_136   1
    z#136     c01_137   -1
    x#29#137  c01_137   -2
    x#29#137  c01_152   2
    x#29#137  c02_29    -9
    x#29#137  c04_29    1
    x#25#137  OBJ       6
    x#25#137  c01_137   -4
    x#25#137  c01_149   4
    x#25#137  c04_25    1
    x#24#137  c01_137   -1
    x#24#137  c01_151   1
    x#24#137  c02_24    -3
    x#24#137  c04_24    1
    z#137     c01_137   1
    z#137     c01_138   -1
    x#29#138  c01_138   -2
    x#29#138  c01_153   2
    x#29#138  c02_29    -10
    x#29#138  c04_29    1
    x#25#138  OBJ       7
    x#25#138  c01_138   -4
    x#25#138  c01_150   4
    x#25#138  c04_25    1
    x#24#138  c01_138   -1
    x#24#138  c01_152   1
    x#24#138  c02_24    -4
    x#24#138  c04_24    1
    z#138     c01_138   1
    z#138     c01_139   -1
    x#29#139  c01_139   -2
    x#29#139  c01_154   2
    x#29#139  c02_29    -11
    x#29#139  c04_29    1
    x#25#139  OBJ       8
    x#25#139  c01_139   -4
    x#25#139  c01_151   4
    x#25#139  c04_25    1
    x#24#139  c01_139   -1
    x#24#139  c01_153   1
    x#24#139  c02_24    -5
    x#24#139  c04_24    1
    z#139     c01_139   1
    z#139     c01_140   -1
    x#44#140  c01_140   -2
    x#44#140  c01_150   2
    x#44#140  c04_44    1
    x#29#140  c01_140   -2
    x#29#140  c01_155   2
    x#29#140  c02_29    -12
    x#29#140  c04_29    1
    x#25#140  OBJ       9
    x#25#140  c01_140   -4
    x#25#140  c01_152   4
    x#25#140  c04_25    1
    x#24#140  c01_140   -1
    x#24#140  c01_154   1
    x#24#140  c02_24    -6
    x#24#140  c04_24    1
    z#140     c01_140   1
    z#140     c01_141   -1
    x#44#141  c01_141   -2
    x#44#141  c01_151   2
    x#44#141  c02_44    -1
    x#44#141  c04_44    1
    x#29#141  c01_141   -2
    x#29#141  c01_156   2
    x#29#141  c02_29    -13
    x#29#141  c04_29    1
    x#24#141  c01_141   -1
    x#24#141  c01_155   1
    x#24#141  c02_24    -7
    x#24#141  c04_24    1
    z#141     c01_141   1
    z#141     c01_142   -1
    x#44#142  c01_142   -2
    x#44#142  c01_152   2
    x#44#142  c02_44    -2
    x#44#142  c04_44    1
    x#24#142  c01_142   -1
    x#24#142  c01_156   1
    x#24#142  c02_24    -8
    x#24#142  c04_24    1
    z#142     c01_142   1
    z#142     c01_143   -1
    x#44#143  c01_143   -2
    x#44#143  c01_153   2
    x#44#143  c02_44    -3
    x#44#143  c04_44    1
    x#24#143  c01_143   -1
    x#24#143  c01_157   1
    x#24#143  c02_24    -9
    x#24#143  c04_24    1
    z#143     c01_143   1
    z#143     c01_144   -1
    x#44#144  c01_144   -2
    x#44#144  c01_154   2
    x#44#144  c02_44    -4
    x#44#144  c04_44    1
    x#24#144  c01_144   -1
    x#24#144  c01_158   1
    x#24#144  c02_24    -10
    x#24#144  c04_24    1
    x#21#144  c01_144   -2
    x#21#144  c01_170   2
    x#21#144  c04_21    1
    z#144     c01_144   1
    z#144     c01_145   -1
    x#44#145  c01_145   -2
    x#44#145  c01_155   2
    x#44#145  c02_44    -5
    x#44#145  c04_44    1
    x#24#145  c01_145   -1
    x#24#145  c01_159   1
    x#24#145  c02_24    -11
    x#24#145  c04_24    1
    x#21#145  c01_145   -2
    x#21#145  c01_171   2
    x#21#145  c02_21    -1
    x#21#145  c04_21    1
    z#145     c01_145   1
    z#145     c01_146   -1
    x#44#146  c01_146   -2
    x#44#146  c01_156   2
    x#44#146  c02_44    -6
    x#44#146  c04_44    1
    x#24#146  c01_146   -1
    x#24#146  c01_160   1
    x#24#146  c02_24    -12
    x#24#146  c04_24    1
    x#21#146  c01_146   -2
    x#21#146  c01_172   2
    x#21#146  c02_21    -2
    x#21#146  c04_21    1
    z#146     c01_146   1
    z#146     c01_147   -1
    x#44#147  c01_147   -2
    x#44#147  c01_157   2
    x#44#147  c02_44    -7
    x#44#147  c04_44    1
    x#24#147  c01_147   -1
    x#24#147  c01_161   1
    x#24#147  c02_24    -13
    x#24#147  c04_24    1
    x#21#147  c01_147   -2
    x#21#147  c01_173   2
    x#21#147  c02_21    -3
    x#21#147  c04_21    1
    z#147     c01_147   1
    z#147     c01_148   -1
    x#44#148  c01_148   -2
    x#44#148  c01_158   2
    x#44#148  c02_44    -8
    x#44#148  c04_44    1
    x#24#148  c01_148   -1
    x#24#148  c01_162   1
    x#24#148  c02_24    -14
    x#24#148  c04_24    1
    x#21#148  c01_148   -2
    x#21#148  c01_174   2
    x#21#148  c02_21    -4
    x#21#148  c04_21    1
    z#148     c01_148   1
    z#148     c01_149   -1
    x#44#149  c01_149   -2
    x#44#149  c01_159   2
    x#44#149  c02_44    -9
    x#44#149  c04_44    1
    x#37#149  c01_149   -1
    x#37#149  c01_159   1
    x#37#149  c04_37    1
    x#24#149  c01_149   -1
    x#24#149  c01_163   1
    x#24#149  c02_24    -15
    x#24#149  c04_24    1
    x#21#149  c01_149   -2
    x#21#149  c01_175   2
    x#21#149  c02_21    -5
    x#21#149  c04_21    1
    z#149     c01_149   1
    z#149     c01_150   -1
    x#44#150  c01_150   -2
    x#44#150  c01_160   2
    x#44#150  c02_44    -10
    x#44#150  c04_44    1
    x#37#150  c01_150   -1
    x#37#150  c01_160   1
    x#37#150  c02_37    -1
    x#37#150  c04_37    1
    x#24#150  c01_150   -1
    x#24#150  c01_164   1
    x#24#150  c02_24    -16
    x#24#150  c04_24    1
    x#21#150  c01_150   -2
    x#21#150  c01_176   2
    x#21#150  c02_21    -6
    x#21#150  c04_21    1
    z#150     c01_150   1
    z#150     c01_151   -1
    x#44#151  c01_151   -2
    x#44#151  c01_161   2
    x#44#151  c02_44    -11
    x#44#151  c04_44    1
    x#37#151  c01_151   -1
    x#37#151  c01_161   1
    x#37#151  c02_37    -2
    x#37#151  c04_37    1
    x#24#151  c01_151   -1
    x#24#151  c01_165   1
    x#24#151  c02_24    -17
    x#24#151  c04_24    1
    x#21#151  c01_151   -2
    x#21#151  c01_177   2
    x#21#151  c02_21    -7
    x#21#151  c04_21    1
    z#151     c01_151   1
    z#151     c01_152   -1
    x#44#152  c01_152   -2
    x#44#152  c01_162   2
    x#44#152  c02_44    -12
    x#44#152  c04_44    1
    x#39#152  c01_152   -2
    x#39#152  c01_164   2
    x#39#152  c04_39    1
    x#37#152  c01_152   -1
    x#37#152  c01_162   1
    x#37#152  c02_37    -3
    x#37#152  c04_37    1
    x#24#152  c01_152   -1
    x#24#152  c01_166   1
    x#24#152  c02_24    -18
    x#24#152  c04_24    1
    x#21#152  c01_152   -2
    x#21#152  c01_178   2
    x#21#152  c02_21    -8
    x#21#152  c04_21    1
    z#152     c01_152   1
    z#152     c01_153   -1
    x#44#153  c01_153   -2
    x#44#153  c01_163   2
    x#44#153  c02_44    -13
    x#44#153  c04_44    1
    x#39#153  c01_153   -2
    x#39#153  c01_165   2
    x#39#153  c02_39    -1
    x#39#153  c04_39    1
    x#37#153  c01_153   -1
    x#37#153  c01_163   1
    x#37#153  c02_37    -4
    x#37#153  c04_37    1
    x#24#153  c01_153   -1
    x#24#153  c01_167   1
    x#24#153  c02_24    -19
    x#24#153  c04_24    1
    x#21#153  c01_153   -2
    x#21#153  c01_179   2
    x#21#153  c02_21    -9
    x#21#153  c04_21    1
    z#153     c01_153   1
    z#153     c01_154   -1
    x#44#154  c01_154   -2
    x#44#154  c01_164   2
    x#44#154  c02_44    -14
    x#44#154  c04_44    1
    x#39#154  c01_154   -2
    x#39#154  c01_166   2
    x#39#154  c02_39    -2
    x#39#154  c04_39    1
    x#37#154  c01_154   -1
    x#37#154  c01_164   1
    x#37#154  c02_37    -5
    x#37#154  c04_37    1
    x#24#154  c01_154   -1
    x#24#154  c01_168   1
    x#24#154  c02_24    -20
    x#24#154  c04_24    1
    x#21#154  c01_154   -2
    x#21#154  c01_180   2
    x#21#154  c02_21    -10
    x#21#154  c04_21    1
    z#154     c01_154   1
    z#154     c01_155   -1
    x#44#155  c01_155   -2
    x#44#155  c01_165   2
    x#44#155  c02_44    -15
    x#44#155  c04_44    1
    x#39#155  c01_155   -2
    x#39#155  c01_167   2
    x#39#155  c02_39    -3
    x#39#155  c04_39    1
    x#37#155  c01_155   -1
    x#37#155  c01_165   1
    x#37#155  c02_37    -6
    x#37#155  c04_37    1
    x#24#155  c01_155   -1
    x#24#155  c01_169   1
    x#24#155  c02_24    -21
    x#24#155  c04_24    1
    x#21#155  c01_198   2
    x#21#155  c01_155   -2
    x#21#155  c02_21    -11
    x#21#155  c04_21    1
    z#155     c01_155   1
    z#155     c01_156   -1
    x#44#156  c01_156   -2
    x#44#156  c01_166   2
    x#44#156  c02_44    -16
    x#44#156  c04_44    1
    x#39#156  c01_156   -2
    x#39#156  c01_168   2
    x#39#156  c02_39    -4
    x#39#156  c04_39    1
    x#37#156  c01_156   -1
    x#37#156  c01_166   1
    x#37#156  c02_37    -7
    x#37#156  c04_37    1
    x#24#156  c01_156   -1
    x#24#156  c01_170   1
    x#24#156  c02_24    -22
    x#24#156  c04_24    1
    x#21#156  c01_198   2
    x#21#156  c01_156   -2
    x#21#156  c02_21    -12
    x#21#156  c04_21    1
    z#156     c01_156   1
    z#156     c01_157   -1
    x#44#157  c01_157   -2
    x#44#157  c01_167   2
    x#44#157  c02_44    -17
    x#44#157  c04_44    1
    x#39#157  c01_157   -2
    x#39#157  c01_169   2
    x#39#157  c02_39    -5
    x#39#157  c04_39    1
    x#37#157  c01_157   -1
    x#37#157  c01_167   1
    x#37#157  c02_37    -8
    x#37#157  c04_37    1
    x#21#157  c01_198   2
    x#21#157  c01_157   -2
    x#21#157  c02_21    -13
    x#21#157  c04_21    1
    z#157     c01_157   1
    z#157     c01_158   -1
    x#44#158  c01_158   -2
    x#44#158  c01_168   2
    x#44#158  c02_44    -18
    x#44#158  c04_44    1
    x#39#158  c01_158   -2
    x#39#158  c01_170   2
    x#39#158  c02_39    -6
    x#39#158  c04_39    1
    x#37#158  c01_158   -1
    x#37#158  c01_168   1
    x#37#158  c02_37    -9
    x#37#158  c04_37    1
    x#21#158  c01_198   2
    x#21#158  c01_158   -2
    x#21#158  c02_21    -14
    x#21#158  c04_21    1
    z#158     c01_158   1
    z#158     c01_159   -1
    x#44#159  c01_159   -2
    x#44#159  c01_169   2
    x#44#159  c02_44    -19
    x#44#159  c04_44    1
    x#39#159  c01_159   -2
    x#39#159  c01_171   2
    x#39#159  c02_39    -7
    x#39#159  c04_39    1
    x#37#159  c01_159   -1
    x#37#159  c01_169   1
    x#37#159  c02_37    -10
    x#37#159  c04_37    1
    x#21#159  c01_198   2
    x#21#159  c01_159   -2
    x#21#159  c02_21    -15
    x#21#159  c04_21    1
    z#159     c01_159   1
    z#159     c01_160   -1
    x#44#160  c01_160   -2
    x#44#160  c01_170   2
    x#44#160  c02_44    -20
    x#44#160  c04_44    1
    x#39#160  c01_160   -2
    x#39#160  c01_172   2
    x#39#160  c02_39    -8
    x#39#160  c04_39    1
    x#37#160  c01_160   -1
    x#37#160  c01_170   1
    x#37#160  c02_37    -11
    x#37#160  c04_37    1
    x#21#160  c01_198   2
    x#21#160  c01_160   -2
    x#21#160  c02_21    -16
    x#21#160  c04_21    1
    z#160     c01_160   1
    z#160     c01_161   -1
    x#44#161  c01_161   -2
    x#44#161  c01_171   2
    x#44#161  c02_44    -21
    x#44#161  c04_44    1
    x#39#161  c01_161   -2
    x#39#161  c01_173   2
    x#39#161  c02_39    -9
    x#39#161  c04_39    1
    x#21#161  c01_198   2
    x#21#161  c01_161   -2
    x#21#161  c02_21    -17
    x#21#161  c04_21    1
    z#161     c01_161   1
    z#161     c01_162   -1
    x#44#162  c01_162   -2
    x#44#162  c01_172   2
    x#44#162  c02_44    -22
    x#44#162  c04_44    1
    x#39#162  c01_162   -2
    x#39#162  c01_174   2
    x#39#162  c02_39    -10
    x#39#162  c04_39    1
    x#21#162  c01_198   2
    x#21#162  c01_162   -2
    x#21#162  c02_21    -18
    x#21#162  c04_21    1
    z#162     c01_162   1
    z#162     c01_163   -1
    x#44#163  c01_163   -2
    x#44#163  c01_173   2
    x#44#163  c02_44    -23
    x#44#163  c04_44    1
    x#39#163  c01_163   -2
    x#39#163  c01_175   2
    x#39#163  c02_39    -11
    x#39#163  c04_39    1
    x#21#163  c01_198   2
    x#21#163  c01_163   -2
    x#21#163  c02_21    -19
    x#21#163  c04_21    1
    z#163     c01_163   1
    z#163     c01_164   -1
    x#44#164  c01_164   -2
    x#44#164  c01_174   2
    x#44#164  c02_44    -24
    x#44#164  c04_44    1
    x#39#164  c01_164   -2
    x#39#164  c01_176   2
    x#39#164  c02_39    -12
    x#39#164  c04_39    1
    x#21#164  c01_198   2
    x#21#164  c01_164   -2
    x#21#164  c02_21    -20
    x#21#164  c04_21    1
    z#164     c01_164   1
    z#164     c01_165   -1
    x#44#165  c01_165   -2
    x#44#165  c01_175   2
    x#44#165  c02_44    -25
    x#44#165  c04_44    1
    x#39#165  c01_165   -2
    x#39#165  c01_177   2
    x#39#165  c02_39    -13
    x#39#165  c04_39    1
    x#21#165  c01_198   2
    x#21#165  c01_165   -2
    x#21#165  c02_21    -21
    x#21#165  c04_21    1
    z#165     c01_165   1
    z#165     c01_166   -1
    x#44#166  c01_166   -2
    x#44#166  c01_176   2
    x#44#166  c02_44    -26
    x#44#166  c04_44    1
    x#21#166  c01_198   2
    x#21#166  c01_166   -2
    x#21#166  c02_21    -22
    x#21#166  c04_21    1
    z#166     c01_166   1
    z#166     c01_167   -1
    x#44#167  c01_167   -2
    x#44#167  c01_177   2
    x#44#167  c02_44    -27
    x#44#167  c04_44    1
    x#21#167  c01_198   2
    x#21#167  c01_167   -2
    x#21#167  c02_21    -23
    x#21#167  c04_21    1
    z#167     c01_167   1
    z#167     c01_168   -1
    x#44#168  c01_168   -2
    x#44#168  c01_178   2
    x#44#168  c02_44    -28
    x#44#168  c04_44    1
    x#21#168  c01_198   2
    x#21#168  c01_168   -2
    x#21#168  c02_21    -24
    x#21#168  c04_21    1
    z#168     c01_168   1
    z#168     c01_169   -1
    x#44#169  c01_169   -2
    x#44#169  c01_179   2
    x#44#169  c02_44    -29
    x#44#169  c04_44    1
    x#21#169  c01_198   2
    x#21#169  c01_169   -2
    x#21#169  c02_21    -25
    x#21#169  c04_21    1
    z#169     c01_169   1
    z#169     c01_170   -1
    x#44#170  c01_170   -2
    x#44#170  c01_180   2
    x#44#170  c02_44    -30
    x#44#170  c04_44    1
    x#21#170  c01_198   2
    x#21#170  c01_170   -2
    x#21#170  c02_21    -26
    x#21#170  c04_21    1
    z#170     c01_170   1
    z#170     c01_171   -1
    x#44#171  c01_198   2
    x#44#171  c01_171   -2
    x#44#171  c02_44    -31
    x#44#171  c04_44    1
    x#21#171  c01_198   2
    x#21#171  c01_171   -2
    x#21#171  c02_21    -27
    x#21#171  c04_21    1
    z#171     c01_171   1
    z#171     c01_172   -1
    x#44#172  c01_198   2
    x#44#172  c01_172   -2
    x#44#172  c02_44    -32
    x#44#172  c04_44    1
    x#21#172  c01_172   -2
    x#21#172  c01_198   2
    x#21#172  c02_21    -28
    x#21#172  c04_21    1
    z#172     c01_172   1
    z#172     c01_173   -1
    x#44#173  c01_198   2
    x#44#173  c01_173   -2
    x#44#173  c02_44    -33
    x#44#173  c04_44    1
    z#173     c01_173   1
    z#173     c01_174   -1
    x#44#174  c01_198   2
    x#44#174  c01_174   -2
    x#44#174  c02_44    -34
    x#44#174  c04_44    1
    z#174     c01_174   1
    z#174     c01_175   -1
    x#44#175  c01_198   2
    x#44#175  c01_175   -2
    x#44#175  c02_44    -35
    x#44#175  c04_44    1
    z#175     c01_175   1
    z#175     c01_176   -1
    x#44#176  c01_198   2
    x#44#176  c01_176   -2
    x#44#176  c02_44    -36
    x#44#176  c04_44    1
    z#176     c01_176   1
    z#176     c01_177   -1
    x#44#177  c01_198   2
    x#44#177  c01_177   -2
    x#44#177  c02_44    -37
    x#44#177  c04_44    1
    z#177     c01_177   1
    z#177     c01_178   -1
    x#44#178  c01_198   2
    x#44#178  c01_178   -2
    x#44#178  c02_44    -38
    x#44#178  c04_44    1
    z#178     c01_178   1
    z#178     c01_179   -1
    x#44#179  c01_198   2
    x#44#179  c01_179   -2
    x#44#179  c02_44    -39
    x#44#179  c04_44    1
    z#179     c01_179   1
    z#179     c01_180   -1
    x#44#180  c01_198   2
    x#44#180  c01_180   -2
    x#44#180  c02_44    -40
    x#44#180  c04_44    1
    z#180     c01_198   -1
    z#180     c01_180   1
    s#1       OBJ       1
    s#1       c02_1     1
    s#2       OBJ       1
    s#2       c02_2     1
    s#3       OBJ       1
    s#3       c02_3     1
    s#4       OBJ       1
    s#4       c02_4     1
    s#5       OBJ       1
    s#5       c02_5     1
    s#6       OBJ       1
    s#6       c02_6     1
    s#7       OBJ       1
    s#7       c02_7     1
    s#8       OBJ       1
    s#8       c02_8     1
    s#9       OBJ       1
    s#9       c02_9     1
    s#10      OBJ       1
    s#10      c02_10    1
    s#11      OBJ       1
    s#11      c02_11    1
    s#12      OBJ       1
    s#12      c02_12    1
    s#13      OBJ       1
    s#13      c02_13    1
    s#14      OBJ       1
    s#14      c02_14    1
    s#15      OBJ       1
    s#15      c02_15    1
    s#16      OBJ       1
    s#16      c02_16    1
    s#17      OBJ       1
    s#17      c02_17    1
    s#18      OBJ       1
    s#18      c02_18    1
    s#19      OBJ       1
    s#19      c02_19    1
    s#20      OBJ       1
    s#20      c02_20    1
    s#21      OBJ       1
    s#21      c02_21    1
    s#22      OBJ       1
    s#22      c02_22    1
    s#23      OBJ       1
    s#23      c02_23    1
    s#24      OBJ       1
    s#24      c02_24    1
    s#26      OBJ       1
    s#26      c02_26    1
    s#27      OBJ       1
    s#27      c02_27    1
    s#28      OBJ       1
    s#28      c02_28    1
    s#29      OBJ       1
    s#29      c02_29    1
    s#30      OBJ       1
    s#30      c02_30    1
    s#31      OBJ       1
    s#31      c02_31    1
    s#32      OBJ       1
    s#32      c02_32    1
    s#33      OBJ       1
    s#33      c02_33    1
    s#34      OBJ       1
    s#34      c02_34    1
    s#35      OBJ       1
    s#35      c02_35    1
    s#36      OBJ       1
    s#36      c02_36    1
    s#37      OBJ       1
    s#37      c02_37    1
    s#38      OBJ       1
    s#38      c02_38    1
    s#39      OBJ       1
    s#39      c02_39    1
    s#40      OBJ       1
    s#40      c02_40    1
    s#41      OBJ       1
    s#41      c02_41    1
    s#42      OBJ       1
    s#42      c02_42    1
    s#43      OBJ       1
    s#43      c02_43    1
    s#44      OBJ       1
    s#44      c02_44    1
    s#45      OBJ       1
    s#45      c02_45    1
    s#46      OBJ       1
    s#46      c02_46    1
    s#47      OBJ       1
    s#47      c02_47    1
    s#48      OBJ       1
    s#48      c02_48    1
    s#49      OBJ       1
    s#49      c02_49    1
    s#50      OBJ       1
    s#50      c02_50    1
    MARKER    'MARKER'                 'INTEND'
RHS
    RHS1      OBJ       3106
    RHS1      c02_1     30
    RHS1      c02_2     71
    RHS1      c02_3     22
    RHS1      c02_4     17
    RHS1      c02_5     113
    RHS1      c02_6     24
    RHS1      c02_8     40
    RHS1      c02_9     16
    RHS1      c02_10    68
    RHS1      c02_11    27
    RHS1      c02_12    69
    RHS1      c02_13    89
    RHS1      c02_14    54
    RHS1      c02_15    60
    RHS1      c02_16    94
    RHS1      c02_17    18
    RHS1      c02_18    92
    RHS1      c02_19    119
    RHS1      c02_21    144
    RHS1      c02_22    24
    RHS1      c02_23    19
    RHS1      c02_24    134
    RHS1      c02_26    24
    RHS1      c02_27    57
    RHS1      c02_28    28
    RHS1      c02_29    128
    RHS1      c02_30    22
    RHS1      c02_31    104
    RHS1      c02_32    81
    RHS1      c02_33    57
    RHS1      c02_34    64
    RHS1      c02_35    23
    RHS1      c02_36    85
    RHS1      c02_37    149
    RHS1      c02_38    71
    RHS1      c02_39    152
    RHS1      c02_40    71
    RHS1      c02_41    62
    RHS1      c02_42    102
    RHS1      c02_43    74
    RHS1      c02_44    140
    RHS1      c02_45    7
    RHS1      c02_46    90
    RHS1      c02_48    39
    RHS1      c02_49    67
    RHS1      c02_50    65
    RHS1      c04_1     1
    RHS1      c04_2     1
    RHS1      c04_3     1
    RHS1      c04_4     1
    RHS1      c04_5     1
    RHS1      c04_6     1
    RHS1      c04_7     1
    RHS1      c04_8     1
    RHS1      c04_9     1
    RHS1      c04_10    1
    RHS1      c04_11    1
    RHS1      c04_12    1
    RHS1      c04_13    1
    RHS1      c04_14    1
    RHS1      c04_15    1
    RHS1      c04_16    1
    RHS1      c04_17    1
    RHS1      c04_18    1
    RHS1      c04_19    1
    RHS1      c04_20    1
    RHS1      c04_21    1
    RHS1      c04_22    1
    RHS1      c04_23    1
    RHS1      c04_24    1
    RHS1      c04_25    1
    RHS1      c04_26    1
    RHS1      c04_27    1
    RHS1      c04_28    1
    RHS1      c04_29    1
    RHS1      c04_30    1
    RHS1      c04_31    1
    RHS1      c04_32    1
    RHS1      c04_33    1
    RHS1      c04_34    1
    RHS1      c04_35    1
    RHS1      c04_36    1
    RHS1      c04_37    1
    RHS1      c04_38    1
    RHS1      c04_39    1
    RHS1      c04_40    1
    RHS1      c04_41    1
    RHS1      c04_42    1
    RHS1      c04_43    1
    RHS1      c04_44    1
    RHS1      c04_45    1
    RHS1      c04_46    1
    RHS1      c04_47    1
    RHS1      c04_48    1
    RHS1      c04_49    1
    RHS1      c04_50    1
BOUNDS
 BV BND1      x#47#0  
 BV BND1      x#20#0  
 BV BND1      x#7#0   
 BV BND1      x#47#1  
 BV BND1      x#20#1  
 BV BND1      x#7#1   
 BV BND1      x#47#2  
 BV BND1      x#20#2  
 BV BND1      x#7#2   
 BV BND1      x#47#3  
 BV BND1      x#20#3  
 BV BND1      x#7#3   
 BV BND1      x#47#4  
 BV BND1      x#20#4  
 BV BND1      x#7#4   
 BV BND1      x#47#5  
 BV BND1      x#20#5  
 BV BND1      x#7#5   
 BV BND1      x#47#6  
 BV BND1      x#20#6  
 BV BND1      x#7#6   
 BV BND1      x#47#7  
 BV BND1      x#45#7  
 BV BND1      x#20#7  
 BV BND1      x#7#7   
 BV BND1      x#47#8  
 BV BND1      x#45#8  
 BV BND1      x#20#8  
 BV BND1      x#7#8   
 BV BND1      x#47#9  
 BV BND1      x#45#9  
 BV BND1      x#20#9  
 BV BND1      x#7#9   
 BV BND1      x#47#10 
 BV BND1      x#45#10 
 BV BND1      x#20#10 
 BV BND1      x#7#10  
 BV BND1      x#47#11 
 BV BND1      x#45#11 
 BV BND1      x#20#11 
 BV BND1      x#7#11  
 UP BND1      z#11      15
 BV BND1      x#47#12 
 BV BND1      x#45#12 
 BV BND1      x#20#12 
 BV BND1      x#7#12  
 UP BND1      z#12      25
 BV BND1      x#47#13 
 BV BND1      x#45#13 
 BV BND1      x#20#13 
 BV BND1      x#7#13  
 UP BND1      z#13      25
 BV BND1      x#47#14 
 BV BND1      x#45#14 
 BV BND1      x#20#14 
 BV BND1      x#7#14  
 UP BND1      z#14      25
 BV BND1      x#47#15 
 BV BND1      x#45#15 
 BV BND1      x#20#15 
 BV BND1      x#7#15  
 UP BND1      z#15      25
 BV BND1      x#47#16 
 BV BND1      x#45#16 
 BV BND1      x#20#16 
 BV BND1      x#9#16  
 BV BND1      x#7#16  
 UP BND1      z#16      25
 BV BND1      x#47#17 
 BV BND1      x#45#17 
 BV BND1      x#20#17 
 BV BND1      x#9#17  
 BV BND1      x#7#17  
 BV BND1      x#4#17  
 UP BND1      z#17      25
 BV BND1      x#47#18 
 BV BND1      x#45#18 
 BV BND1      x#20#18 
 BV BND1      x#17#18 
 BV BND1      x#9#18  
 BV BND1      x#7#18  
 BV BND1      x#4#18  
 UP BND1      z#18      25
 BV BND1      x#47#19 
 BV BND1      x#45#19 
 BV BND1      x#23#19 
 BV BND1      x#20#19 
 BV BND1      x#17#19 
 BV BND1      x#9#19  
 BV BND1      x#7#19  
 BV BND1      x#4#19  
 UP BND1      z#19      25
 BV BND1      x#47#20 
 BV BND1      x#45#20 
 BV BND1      x#23#20 
 BV BND1      x#20#20 
 BV BND1      x#17#20 
 BV BND1      x#9#20  
 BV BND1      x#7#20  
 BV BND1      x#4#20  
 UP BND1      z#20      25
 BV BND1      x#47#21 
 BV BND1      x#45#21 
 BV BND1      x#23#21 
 BV BND1      x#20#21 
 BV BND1      x#17#21 
 BV BND1      x#9#21  
 BV BND1      x#4#21  
 UP BND1      z#21      25
 BV BND1      x#47#22 
 BV BND1      x#45#22 
 BV BND1      x#30#22 
 BV BND1      x#23#22 
 BV BND1      x#20#22 
 BV BND1      x#17#22 
 BV BND1      x#9#22  
 BV BND1      x#4#22  
 BV BND1      x#3#22  
 UP BND1      z#22      25
 BV BND1      x#47#23 
 BV BND1      x#45#23 
 BV BND1      x#35#23 
 BV BND1      x#30#23 
 BV BND1      x#23#23 
 BV BND1      x#20#23 
 BV BND1      x#17#23 
 BV BND1      x#9#23  
 BV BND1      x#4#23  
 BV BND1      x#3#23  
 UP BND1      z#23      25
 BV BND1      x#47#24 
 BV BND1      x#45#24 
 BV BND1      x#35#24 
 BV BND1      x#30#24 
 BV BND1      x#26#24 
 BV BND1      x#23#24 
 BV BND1      x#22#24 
 BV BND1      x#20#24 
 BV BND1      x#17#24 
 BV BND1      x#9#24  
 BV BND1      x#6#24  
 BV BND1      x#4#24  
 BV BND1      x#3#24  
 UP BND1      z#24      25
 BV BND1      x#47#25 
 BV BND1      x#45#25 
 BV BND1      x#35#25 
 BV BND1      x#30#25 
 BV BND1      x#26#25 
 BV BND1      x#23#25 
 BV BND1      x#22#25 
 BV BND1      x#20#25 
 BV BND1      x#17#25 
 BV BND1      x#9#25  
 BV BND1      x#6#25  
 BV BND1      x#4#25  
 BV BND1      x#3#25  
 UP BND1      z#25      25
 BV BND1      x#47#26 
 BV BND1      x#45#26 
 BV BND1      x#35#26 
 BV BND1      x#30#26 
 BV BND1      x#26#26 
 BV BND1      x#23#26 
 BV BND1      x#22#26 
 BV BND1      x#20#26 
 BV BND1      x#17#26 
 BV BND1      x#9#26  
 BV BND1      x#6#26  
 BV BND1      x#4#26  
 BV BND1      x#3#26  
 UP BND1      z#26      25
 BV BND1      x#47#27 
 BV BND1      x#45#27 
 BV BND1      x#35#27 
 BV BND1      x#30#27 
 BV BND1      x#26#27 
 BV BND1      x#23#27 
 BV BND1      x#22#27 
 BV BND1      x#20#27 
 BV BND1      x#17#27 
 BV BND1      x#11#27 
 BV BND1      x#9#27  
 BV BND1      x#6#27  
 BV BND1      x#4#27  
 BV BND1      x#3#27  
 UP BND1      z#27      25
 BV BND1      x#47#28 
 BV BND1      x#45#28 
 BV BND1      x#35#28 
 BV BND1      x#30#28 
 BV BND1      x#28#28 
 BV BND1      x#26#28 
 BV BND1      x#23#28 
 BV BND1      x#22#28 
 BV BND1      x#20#28 
 BV BND1      x#17#28 
 BV BND1      x#11#28 
 BV BND1      x#9#28  
 BV BND1      x#6#28  
 BV BND1      x#4#28  
 BV BND1      x#3#28  
 UP BND1      z#28      25
 BV BND1      x#47#29 
 BV BND1      x#45#29 
 BV BND1      x#35#29 
 BV BND1      x#30#29 
 BV BND1      x#28#29 
 BV BND1      x#26#29 
 BV BND1      x#23#29 
 BV BND1      x#22#29 
 BV BND1      x#20#29 
 BV BND1      x#17#29 
 BV BND1      x#11#29 
 BV BND1      x#9#29  
 BV BND1      x#6#29  
 BV BND1      x#4#29  
 BV BND1      x#3#29  
 UP BND1      z#29      25
 BV BND1      x#47#30 
 BV BND1      x#45#30 
 BV BND1      x#35#30 
 BV BND1      x#30#30 
 BV BND1      x#28#30 
 BV BND1      x#26#30 
 BV BND1      x#23#30 
 BV BND1      x#22#30 
 BV BND1      x#20#30 
 BV BND1      x#17#30 
 BV BND1      x#11#30 
 BV BND1      x#9#30  
 BV BND1      x#6#30  
 BV BND1      x#4#30  
 BV BND1      x#3#30  
 BV BND1      x#1#30  
 UP BND1      z#30      25
 BV BND1      x#47#31 
 BV BND1      x#45#31 
 BV BND1      x#35#31 
 BV BND1      x#30#31 
 BV BND1      x#28#31 
 BV BND1      x#26#31 
 BV BND1      x#23#31 
 BV BND1      x#22#31 
 BV BND1      x#20#31 
 BV BND1      x#17#31 
 BV BND1      x#11#31 
 BV BND1      x#9#31  
 BV BND1      x#6#31  
 BV BND1      x#4#31  
 BV BND1      x#3#31  
 BV BND1      x#1#31  
 UP BND1      z#31      25
 BV BND1      x#47#32 
 BV BND1      x#45#32 
 BV BND1      x#35#32 
 BV BND1      x#30#32 
 BV BND1      x#28#32 
 BV BND1      x#26#32 
 BV BND1      x#23#32 
 BV BND1      x#22#32 
 BV BND1      x#17#32 
 BV BND1      x#11#32 
 BV BND1      x#9#32  
 BV BND1      x#6#32  
 BV BND1      x#4#32  
 BV BND1      x#3#32  
 BV BND1      x#1#32  
 UP BND1      z#32      25
 BV BND1      x#47#33 
 BV BND1      x#45#33 
 BV BND1      x#35#33 
 BV BND1      x#30#33 
 BV BND1      x#28#33 
 BV BND1      x#26#33 
 BV BND1      x#23#33 
 BV BND1      x#22#33 
 BV BND1      x#17#33 
 BV BND1      x#11#33 
 BV BND1      x#9#33  
 BV BND1      x#6#33  
 BV BND1      x#4#33  
 BV BND1      x#3#33  
 BV BND1      x#1#33  
 UP BND1      z#33      25
 BV BND1      x#47#34 
 BV BND1      x#45#34 
 BV BND1      x#35#34 
 BV BND1      x#30#34 
 BV BND1      x#28#34 
 BV BND1      x#26#34 
 BV BND1      x#23#34 
 BV BND1      x#22#34 
 BV BND1      x#17#34 
 BV BND1      x#11#34 
 BV BND1      x#9#34  
 BV BND1      x#6#34  
 BV BND1      x#4#34  
 BV BND1      x#3#34  
 BV BND1      x#1#34  
 UP BND1      z#34      25
 BV BND1      x#47#35 
 BV BND1      x#45#35 
 BV BND1      x#35#35 
 BV BND1      x#30#35 
 BV BND1      x#28#35 
 BV BND1      x#26#35 
 BV BND1      x#23#35 
 BV BND1      x#22#35 
 BV BND1      x#17#35 
 BV BND1      x#11#35 
 BV BND1      x#6#35  
 BV BND1      x#4#35  
 BV BND1      x#3#35  
 BV BND1      x#1#35  
 UP BND1      z#35      25
 BV BND1      x#47#36 
 BV BND1      x#45#36 
 BV BND1      x#35#36 
 BV BND1      x#30#36 
 BV BND1      x#28#36 
 BV BND1      x#26#36 
 BV BND1      x#23#36 
 BV BND1      x#22#36 
 BV BND1      x#17#36 
 BV BND1      x#11#36 
 BV BND1      x#6#36  
 BV BND1      x#4#36  
 BV BND1      x#3#36  
 BV BND1      x#1#36  
 UP BND1      z#36      25
 BV BND1      x#47#37 
 BV BND1      x#45#37 
 BV BND1      x#35#37 
 BV BND1      x#30#37 
 BV BND1      x#28#37 
 BV BND1      x#26#37 
 BV BND1      x#23#37 
 BV BND1      x#22#37 
 BV BND1      x#17#37 
 BV BND1      x#11#37 
 BV BND1      x#6#37  
 BV BND1      x#4#37  
 BV BND1      x#3#37  
 BV BND1      x#1#37  
 UP BND1      z#37      25
 BV BND1      x#47#38 
 BV BND1      x#45#38 
 BV BND1      x#35#38 
 BV BND1      x#30#38 
 BV BND1      x#28#38 
 BV BND1      x#26#38 
 BV BND1      x#23#38 
 BV BND1      x#22#38 
 BV BND1      x#17#38 
 BV BND1      x#11#38 
 BV BND1      x#6#38  
 BV BND1      x#4#38  
 BV BND1      x#3#38  
 BV BND1      x#1#38  
 UP BND1      z#38      25
 BV BND1      x#48#39 
 BV BND1      x#47#39 
 BV BND1      x#45#39 
 BV BND1      x#35#39 
 BV BND1      x#30#39 
 BV BND1      x#28#39 
 BV BND1      x#26#39 
 BV BND1      x#23#39 
 BV BND1      x#22#39 
 BV BND1      x#17#39 
 BV BND1      x#11#39 
 BV BND1      x#6#39  
 BV BND1      x#4#39  
 BV BND1      x#3#39  
 BV BND1      x#1#39  
 UP BND1      z#39      25
 BV BND1      x#48#40 
 BV BND1      x#47#40 
 BV BND1      x#45#40 
 BV BND1      x#35#40 
 BV BND1      x#28#40 
 BV BND1      x#26#40 
 BV BND1      x#23#40 
 BV BND1      x#22#40 
 BV BND1      x#17#40 
 BV BND1      x#11#40 
 BV BND1      x#8#40  
 BV BND1      x#6#40  
 BV BND1      x#4#40  
 BV BND1      x#3#40  
 BV BND1      x#1#40  
 UP BND1      z#40      25
 BV BND1      x#48#41 
 BV BND1      x#45#41 
 BV BND1      x#35#41 
 BV BND1      x#28#41 
 BV BND1      x#26#41 
 BV BND1      x#23#41 
 BV BND1      x#22#41 
 BV BND1      x#17#41 
 BV BND1      x#11#41 
 BV BND1      x#8#41  
 BV BND1      x#6#41  
 BV BND1      x#4#41  
 BV BND1      x#3#41  
 BV BND1      x#1#41  
 UP BND1      z#41      25
 BV BND1      x#48#42 
 BV BND1      x#45#42 
 BV BND1      x#35#42 
 BV BND1      x#28#42 
 BV BND1      x#26#42 
 BV BND1      x#23#42 
 BV BND1      x#22#42 
 BV BND1      x#17#42 
 BV BND1      x#11#42 
 BV BND1      x#8#42  
 BV BND1      x#6#42  
 BV BND1      x#4#42  
 BV BND1      x#3#42  
 BV BND1      x#1#42  
 UP BND1      z#42      25
 BV BND1      x#48#43 
 BV BND1      x#45#43 
 BV BND1      x#35#43 
 BV BND1      x#28#43 
 BV BND1      x#26#43 
 BV BND1      x#23#43 
 BV BND1      x#22#43 
 BV BND1      x#17#43 
 BV BND1      x#11#43 
 BV BND1      x#8#43  
 BV BND1      x#6#43  
 BV BND1      x#3#43  
 BV BND1      x#1#43  
 UP BND1      z#43      25
 BV BND1      x#48#44 
 BV BND1      x#45#44 
 BV BND1      x#35#44 
 BV BND1      x#28#44 
 BV BND1      x#26#44 
 BV BND1      x#23#44 
 BV BND1      x#22#44 
 BV BND1      x#17#44 
 BV BND1      x#11#44 
 BV BND1      x#8#44  
 BV BND1      x#6#44  
 BV BND1      x#3#44  
 BV BND1      x#1#44  
 UP BND1      z#44      25
 BV BND1      x#48#45 
 BV BND1      x#45#45 
 BV BND1      x#35#45 
 BV BND1      x#28#45 
 BV BND1      x#26#45 
 BV BND1      x#23#45 
 BV BND1      x#22#45 
 BV BND1      x#17#45 
 BV BND1      x#11#45 
 BV BND1      x#8#45  
 BV BND1      x#6#45  
 BV BND1      x#3#45  
 BV BND1      x#1#45  
 UP BND1      z#45      25
 BV BND1      x#48#46 
 BV BND1      x#45#46 
 BV BND1      x#35#46 
 BV BND1      x#28#46 
 BV BND1      x#26#46 
 BV BND1      x#23#46 
 BV BND1      x#22#46 
 BV BND1      x#17#46 
 BV BND1      x#11#46 
 BV BND1      x#8#46  
 BV BND1      x#6#46  
 BV BND1      x#3#46  
 BV BND1      x#1#46  
 UP BND1      z#46      25
 BV BND1      x#48#47 
 BV BND1      x#45#47 
 BV BND1      x#35#47 
 BV BND1      x#28#47 
 BV BND1      x#26#47 
 BV BND1      x#23#47 
 BV BND1      x#22#47 
 BV BND1      x#17#47 
 BV BND1      x#11#47 
 BV BND1      x#8#47  
 BV BND1      x#3#47  
 BV BND1      x#1#47  
 UP BND1      z#47      25
 BV BND1      x#48#48 
 BV BND1      x#45#48 
 BV BND1      x#35#48 
 BV BND1      x#28#48 
 BV BND1      x#26#48 
 BV BND1      x#22#48 
 BV BND1      x#17#48 
 BV BND1      x#11#48 
 BV BND1      x#8#48  
 BV BND1      x#3#48  
 BV BND1      x#1#48  
 UP BND1      z#48      25
 BV BND1      x#48#49 
 BV BND1      x#45#49 
 BV BND1      x#35#49 
 BV BND1      x#28#49 
 BV BND1      x#26#49 
 BV BND1      x#22#49 
 BV BND1      x#17#49 
 BV BND1      x#11#49 
 BV BND1      x#8#49  
 BV BND1      x#3#49  
 BV BND1      x#1#49  
 UP BND1      z#49      25
 BV BND1      x#48#50 
 BV BND1      x#45#50 
 BV BND1      x#35#50 
 BV BND1      x#28#50 
 BV BND1      x#26#50 
 BV BND1      x#22#50 
 BV BND1      x#17#50 
 BV BND1      x#8#50  
 BV BND1      x#3#50  
 BV BND1      x#1#50  
 UP BND1      z#50      25
 BV BND1      x#48#51 
 BV BND1      x#45#51 
 BV BND1      x#35#51 
 BV BND1      x#28#51 
 BV BND1      x#26#51 
 BV BND1      x#22#51 
 BV BND1      x#17#51 
 BV BND1      x#8#51  
 BV BND1      x#3#51  
 BV BND1      x#1#51  
 UP BND1      z#51      25
 BV BND1      x#48#52 
 BV BND1      x#45#52 
 BV BND1      x#35#52 
 BV BND1      x#28#52 
 BV BND1      x#26#52 
 BV BND1      x#22#52 
 BV BND1      x#17#52 
 BV BND1      x#8#52  
 BV BND1      x#3#52  
 UP BND1      z#52      25
 BV BND1      x#48#53 
 BV BND1      x#45#53 
 BV BND1      x#35#53 
 BV BND1      x#28#53 
 BV BND1      x#26#53 
 BV BND1      x#22#53 
 BV BND1      x#17#53 
 BV BND1      x#8#53  
 BV BND1      x#3#53  
 UP BND1      z#53      25
 BV BND1      x#48#54 
 BV BND1      x#45#54 
 BV BND1      x#35#54 
 BV BND1      x#28#54 
 BV BND1      x#26#54 
 BV BND1      x#22#54 
 BV BND1      x#17#54 
 BV BND1      x#14#54 
 BV BND1      x#8#54  
 BV BND1      x#3#54  
 UP BND1      z#54      25
 BV BND1      x#48#55 
 BV BND1      x#45#55 
 BV BND1      x#35#55 
 BV BND1      x#28#55 
 BV BND1      x#22#55 
 BV BND1      x#17#55 
 BV BND1      x#14#55 
 BV BND1      x#8#55  
 BV BND1      x#3#55  
 UP BND1      z#55      25
 BV BND1      x#48#56 
 BV BND1      x#45#56 
 BV BND1      x#35#56 
 BV BND1      x#28#56 
 BV BND1      x#22#56 
 BV BND1      x#17#56 
 BV BND1      x#14#56 
 BV BND1      x#8#56  
 BV BND1      x#3#56  
 UP BND1      z#56      25
 BV BND1      x#48#57 
 BV BND1      x#45#57 
 BV BND1      x#35#57 
 BV BND1      x#33#57 
 BV BND1      x#28#57 
 BV BND1      x#27#57 
 BV BND1      x#22#57 
 BV BND1      x#17#57 
 BV BND1      x#14#57 
 BV BND1      x#8#57  
 BV BND1      x#3#57  
 UP BND1      z#57      25
 BV BND1      x#48#58 
 BV BND1      x#45#58 
 BV BND1      x#35#58 
 BV BND1      x#33#58 
 BV BND1      x#28#58 
 BV BND1      x#27#58 
 BV BND1      x#22#58 
 BV BND1      x#17#58 
 BV BND1      x#14#58 
 BV BND1      x#8#58  
 BV BND1      x#3#58  
 UP BND1      z#58      25
 BV BND1      x#48#59 
 BV BND1      x#45#59 
 BV BND1      x#35#59 
 BV BND1      x#33#59 
 BV BND1      x#28#59 
 BV BND1      x#27#59 
 BV BND1      x#22#59 
 BV BND1      x#17#59 
 BV BND1      x#14#59 
 BV BND1      x#8#59  
 BV BND1      x#3#59  
 UP BND1      z#59      25
 BV BND1      x#48#60 
 BV BND1      x#45#60 
 BV BND1      x#35#60 
 BV BND1      x#33#60 
 BV BND1      x#28#60 
 BV BND1      x#27#60 
 BV BND1      x#22#60 
 BV BND1      x#17#60 
 BV BND1      x#15#60 
 BV BND1      x#14#60 
 BV BND1      x#8#60  
 BV BND1      x#3#60  
 UP BND1      z#60      25
 BV BND1      x#48#61 
 BV BND1      x#45#61 
 BV BND1      x#35#61 
 BV BND1      x#33#61 
 BV BND1      x#28#61 
 BV BND1      x#27#61 
 BV BND1      x#17#61 
 BV BND1      x#15#61 
 BV BND1      x#14#61 
 BV BND1      x#8#61  
 BV BND1      x#3#61  
 UP BND1      z#61      25
 BV BND1      x#48#62 
 BV BND1      x#45#62 
 BV BND1      x#41#62 
 BV BND1      x#35#62 
 BV BND1      x#33#62 
 BV BND1      x#28#62 
 BV BND1      x#27#62 
 BV BND1      x#17#62 
 BV BND1      x#15#62 
 BV BND1      x#14#62 
 BV BND1      x#8#62  
 BV BND1      x#3#62  
 UP BND1      z#62      25
 BV BND1      x#48#63 
 BV BND1      x#45#63 
 BV BND1      x#41#63 
 BV BND1      x#35#63 
 BV BND1      x#33#63 
 BV BND1      x#28#63 
 BV BND1      x#27#63 
 BV BND1      x#15#63 
 BV BND1      x#14#63 
 BV BND1      x#8#63  
 BV BND1      x#3#63  
 UP BND1      z#63      25
 BV BND1      x#48#64 
 BV BND1      x#41#64 
 BV BND1      x#35#64 
 BV BND1      x#34#64 
 BV BND1      x#33#64 
 BV BND1      x#28#64 
 BV BND1      x#27#64 
 BV BND1      x#15#64 
 BV BND1      x#14#64 
 BV BND1      x#8#64  
 BV BND1      x#3#64  
 UP BND1      z#64      25
 BV BND1      x#50#65 
 BV BND1      x#48#65 
 BV BND1      x#41#65 
 BV BND1      x#35#65 
 BV BND1      x#34#65 
 BV BND1      x#33#65 
 BV BND1      x#28#65 
 BV BND1      x#27#65 
 BV BND1      x#15#65 
 BV BND1      x#14#65 
 BV BND1      x#8#65  
 BV BND1      x#3#65  
 UP BND1      z#65      25
 BV BND1      x#50#66 
 BV BND1      x#48#66 
 BV BND1      x#41#66 
 BV BND1      x#35#66 
 BV BND1      x#34#66 
 BV BND1      x#33#66 
 BV BND1      x#28#66 
 BV BND1      x#27#66 
 BV BND1      x#15#66 
 BV BND1      x#14#66 
 BV BND1      x#8#66  
 BV BND1      x#3#66  
 UP BND1      z#66      25
 BV BND1      x#50#67 
 BV BND1      x#49#67 
 BV BND1      x#48#67 
 BV BND1      x#41#67 
 BV BND1      x#35#67 
 BV BND1      x#34#67 
 BV BND1      x#33#67 
 BV BND1      x#28#67 
 BV BND1      x#27#67 
 BV BND1      x#15#67 
 BV BND1      x#14#67 
 BV BND1      x#8#67  
 BV BND1      x#3#67  
 UP BND1      z#67      25
 BV BND1      x#50#68 
 BV BND1      x#49#68 
 BV BND1      x#48#68 
 BV BND1      x#41#68 
 BV BND1      x#35#68 
 BV BND1      x#34#68 
 BV BND1      x#33#68 
 BV BND1      x#28#68 
 BV BND1      x#27#68 
 BV BND1      x#15#68 
 BV BND1      x#14#68 
 BV BND1      x#10#68 
 BV BND1      x#8#68  
 UP BND1      z#68      25
 BV BND1      x#50#69 
 BV BND1      x#49#69 
 BV BND1      x#48#69 
 BV BND1      x#41#69 
 BV BND1      x#35#69 
 BV BND1      x#34#69 
 BV BND1      x#33#69 
 BV BND1      x#28#69 
 BV BND1      x#27#69 
 BV BND1      x#15#69 
 BV BND1      x#14#69 
 BV BND1      x#12#69 
 BV BND1      x#10#69 
 BV BND1      x#8#69  
 UP BND1      z#69      25
 BV BND1      x#50#70 
 BV BND1      x#49#70 
 BV BND1      x#48#70 
 BV BND1      x#41#70 
 BV BND1      x#35#70 
 BV BND1      x#34#70 
 BV BND1      x#33#70 
 BV BND1      x#28#70 
 BV BND1      x#27#70 
 BV BND1      x#15#70 
 BV BND1      x#14#70 
 BV BND1      x#12#70 
 BV BND1      x#10#70 
 BV BND1      x#8#70  
 UP BND1      z#70      25
 BV BND1      x#50#71 
 BV BND1      x#49#71 
 BV BND1      x#48#71 
 BV BND1      x#41#71 
 BV BND1      x#40#71 
 BV BND1      x#38#71 
 BV BND1      x#35#71 
 BV BND1      x#34#71 
 BV BND1      x#33#71 
 BV BND1      x#28#71 
 BV BND1      x#15#71 
 BV BND1      x#14#71 
 BV BND1      x#12#71 
 BV BND1      x#10#71 
 BV BND1      x#8#71  
 BV BND1      x#2#71  
 UP BND1      z#71      25
 BV BND1      x#50#72 
 BV BND1      x#49#72 
 BV BND1      x#48#72 
 BV BND1      x#41#72 
 BV BND1      x#40#72 
 BV BND1      x#38#72 
 BV BND1      x#35#72 
 BV BND1      x#34#72 
 BV BND1      x#28#72 
 BV BND1      x#15#72 
 BV BND1      x#14#72 
 BV BND1      x#12#72 
 BV BND1      x#10#72 
 BV BND1      x#8#72  
 BV BND1      x#2#72  
 UP BND1      z#72      25
 BV BND1      x#50#73 
 BV BND1      x#49#73 
 BV BND1      x#48#73 
 BV BND1      x#41#73 
 BV BND1      x#40#73 
 BV BND1      x#38#73 
 BV BND1      x#35#73 
 BV BND1      x#34#73 
 BV BND1      x#28#73 
 BV BND1      x#15#73 
 BV BND1      x#12#73 
 BV BND1      x#10#73 
 BV BND1      x#8#73  
 BV BND1      x#2#73  
 UP BND1      z#73      25
 BV BND1      x#50#74 
 BV BND1      x#49#74 
 BV BND1      x#48#74 
 BV BND1      x#43#74 
 BV BND1      x#41#74 
 BV BND1      x#40#74 
 BV BND1      x#38#74 
 BV BND1      x#35#74 
 BV BND1      x#34#74 
 BV BND1      x#28#74 
 BV BND1      x#15#74 
 BV BND1      x#12#74 
 BV BND1      x#10#74 
 BV BND1      x#8#74  
 BV BND1      x#2#74  
 UP BND1      z#74      25
 BV BND1      x#50#75 
 BV BND1      x#49#75 
 BV BND1      x#48#75 
 BV BND1      x#43#75 
 BV BND1      x#41#75 
 BV BND1      x#40#75 
 BV BND1      x#38#75 
 BV BND1      x#35#75 
 BV BND1      x#34#75 
 BV BND1      x#28#75 
 BV BND1      x#15#75 
 BV BND1      x#12#75 
 BV BND1      x#10#75 
 BV BND1      x#8#75  
 BV BND1      x#2#75  
 UP BND1      z#75      25
 BV BND1      x#50#76 
 BV BND1      x#49#76 
 BV BND1      x#48#76 
 BV BND1      x#43#76 
 BV BND1      x#41#76 
 BV BND1      x#40#76 
 BV BND1      x#38#76 
 BV BND1      x#35#76 
 BV BND1      x#34#76 
 BV BND1      x#28#76 
 BV BND1      x#15#76 
 BV BND1      x#12#76 
 BV BND1      x#10#76 
 BV BND1      x#8#76  
 BV BND1      x#2#76  
 UP BND1      z#76      25
 BV BND1      x#50#77 
 BV BND1      x#49#77 
 BV BND1      x#48#77 
 BV BND1      x#43#77 
 BV BND1      x#41#77 
 BV BND1      x#40#77 
 BV BND1      x#38#77 
 BV BND1      x#34#77 
 BV BND1      x#28#77 
 BV BND1      x#15#77 
 BV BND1      x#12#77 
 BV BND1      x#10#77 
 BV BND1      x#8#77  
 BV BND1      x#2#77  
 UP BND1      z#77      25
 BV BND1      x#50#78 
 BV BND1      x#49#78 
 BV BND1      x#48#78 
 BV BND1      x#43#78 
 BV BND1      x#41#78 
 BV BND1      x#40#78 
 BV BND1      x#38#78 
 BV BND1      x#34#78 
 BV BND1      x#28#78 
 BV BND1      x#15#78 
 BV BND1      x#12#78 
 BV BND1      x#10#78 
 BV BND1      x#8#78  
 BV BND1      x#2#78  
 UP BND1      z#78      25
 BV BND1      x#50#79 
 BV BND1      x#49#79 
 BV BND1      x#48#79 
 BV BND1      x#43#79 
 BV BND1      x#41#79 
 BV BND1      x#40#79 
 BV BND1      x#38#79 
 BV BND1      x#34#79 
 BV BND1      x#28#79 
 BV BND1      x#15#79 
 BV BND1      x#12#79 
 BV BND1      x#10#79 
 BV BND1      x#8#79  
 BV BND1      x#2#79  
 UP BND1      z#79      25
 BV BND1      x#50#80 
 BV BND1      x#49#80 
 BV BND1      x#48#80 
 BV BND1      x#43#80 
 BV BND1      x#41#80 
 BV BND1      x#40#80 
 BV BND1      x#38#80 
 BV BND1      x#34#80 
 BV BND1      x#28#80 
 BV BND1      x#15#80 
 BV BND1      x#12#80 
 BV BND1      x#10#80 
 BV BND1      x#8#80  
 BV BND1      x#2#80  
 UP BND1      z#80      25
 BV BND1      x#50#81 
 BV BND1      x#49#81 
 BV BND1      x#48#81 
 BV BND1      x#43#81 
 BV BND1      x#41#81 
 BV BND1      x#40#81 
 BV BND1      x#38#81 
 BV BND1      x#34#81 
 BV BND1      x#32#81 
 BV BND1      x#28#81 
 BV BND1      x#15#81 
 BV BND1      x#12#81 
 BV BND1      x#10#81 
 BV BND1      x#8#81  
 BV BND1      x#2#81  
 UP BND1      z#81      25
 BV BND1      x#50#82 
 BV BND1      x#49#82 
 BV BND1      x#48#82 
 BV BND1      x#43#82 
 BV BND1      x#41#82 
 BV BND1      x#40#82 
 BV BND1      x#38#82 
 BV BND1      x#34#82 
 BV BND1      x#32#82 
 BV BND1      x#28#82 
 BV BND1      x#15#82 
 BV BND1      x#12#82 
 BV BND1      x#10#82 
 BV BND1      x#8#82  
 BV BND1      x#2#82  
 UP BND1      z#82      25
 BV BND1      x#50#83 
 BV BND1      x#49#83 
 BV BND1      x#48#83 
 BV BND1      x#43#83 
 BV BND1      x#41#83 
 BV BND1      x#40#83 
 BV BND1      x#38#83 
 BV BND1      x#34#83 
 BV BND1      x#32#83 
 BV BND1      x#28#83 
 BV BND1      x#15#83 
 BV BND1      x#12#83 
 BV BND1      x#10#83 
 BV BND1      x#8#83  
 BV BND1      x#2#83  
 UP BND1      z#83      25
 BV BND1      x#50#84 
 BV BND1      x#49#84 
 BV BND1      x#48#84 
 BV BND1      x#43#84 
 BV BND1      x#41#84 
 BV BND1      x#40#84 
 BV BND1      x#38#84 
 BV BND1      x#34#84 
 BV BND1      x#32#84 
 BV BND1      x#28#84 
 BV BND1      x#15#84 
 BV BND1      x#12#84 
 BV BND1      x#10#84 
 BV BND1      x#8#84  
 BV BND1      x#2#84  
 UP BND1      z#84      25
 BV BND1      x#50#85 
 BV BND1      x#49#85 
 BV BND1      x#48#85 
 BV BND1      x#43#85 
 BV BND1      x#41#85 
 BV BND1      x#40#85 
 BV BND1      x#38#85 
 BV BND1      x#36#85 
 BV BND1      x#34#85 
 BV BND1      x#32#85 
 BV BND1      x#15#85 
 BV BND1      x#10#85 
 BV BND1      x#8#85  
 BV BND1      x#2#85  
 UP BND1      z#85      25
 BV BND1      x#50#86 
 BV BND1      x#49#86 
 BV BND1      x#48#86 
 BV BND1      x#43#86 
 BV BND1      x#41#86 
 BV BND1      x#40#86 
 BV BND1      x#38#86 
 BV BND1      x#36#86 
 BV BND1      x#34#86 
 BV BND1      x#32#86 
 BV BND1      x#15#86 
 BV BND1      x#10#86 
 BV BND1      x#8#86  
 BV BND1      x#2#86  
 UP BND1      z#86      25
 BV BND1      x#50#87 
 BV BND1      x#48#87 
 BV BND1      x#43#87 
 BV BND1      x#41#87 
 BV BND1      x#40#87 
 BV BND1      x#38#87 
 BV BND1      x#36#87 
 BV BND1      x#34#87 
 BV BND1      x#32#87 
 BV BND1      x#15#87 
 BV BND1      x#10#87 
 BV BND1      x#8#87  
 BV BND1      x#2#87  
 UP BND1      z#87      25
 BV BND1      x#50#88 
 BV BND1      x#41#88 
 BV BND1      x#40#88 
 BV BND1      x#38#88 
 BV BND1      x#36#88 
 BV BND1      x#34#88 
 BV BND1      x#32#88 
 BV BND1      x#15#88 
 BV BND1      x#10#88 
 BV BND1      x#8#88  
 BV BND1      x#2#88  
 UP BND1      z#88      25
 BV BND1      x#50#89 
 BV BND1      x#41#89 
 BV BND1      x#40#89 
 BV BND1      x#38#89 
 BV BND1      x#36#89 
 BV BND1      x#34#89 
 BV BND1      x#32#89 
 BV BND1      x#15#89 
 BV BND1      x#13#89 
 BV BND1      x#10#89 
 BV BND1      x#8#89  
 BV BND1      x#2#89  
 UP BND1      z#89      25
 BV BND1      x#50#90 
 BV BND1      x#46#90 
 BV BND1      x#41#90 
 BV BND1      x#40#90 
 BV BND1      x#38#90 
 BV BND1      x#36#90 
 BV BND1      x#34#90 
 BV BND1      x#32#90 
 BV BND1      x#15#90 
 BV BND1      x#13#90 
 BV BND1      x#10#90 
 BV BND1      x#8#90  
 UP BND1      z#90      25
 BV BND1      x#50#91 
 BV BND1      x#46#91 
 BV BND1      x#41#91 
 BV BND1      x#40#91 
 BV BND1      x#38#91 
 BV BND1      x#36#91 
 BV BND1      x#34#91 
 BV BND1      x#32#91 
 BV BND1      x#15#91 
 BV BND1      x#13#91 
 BV BND1      x#10#91 
 BV BND1      x#8#91  
 UP BND1      z#91      25
 BV BND1      x#50#92 
 BV BND1      x#46#92 
 BV BND1      x#41#92 
 BV BND1      x#40#92 
 BV BND1      x#38#92 
 BV BND1      x#36#92 
 BV BND1      x#34#92 
 BV BND1      x#32#92 
 BV BND1      x#18#92 
 BV BND1      x#15#92 
 BV BND1      x#13#92 
 BV BND1      x#10#92 
 BV BND1      x#8#92  
 UP BND1      z#92      25
 BV BND1      x#50#93 
 BV BND1      x#46#93 
 BV BND1      x#41#93 
 BV BND1      x#40#93 
 BV BND1      x#38#93 
 BV BND1      x#36#93 
 BV BND1      x#34#93 
 BV BND1      x#32#93 
 BV BND1      x#18#93 
 BV BND1      x#15#93 
 BV BND1      x#13#93 
 BV BND1      x#10#93 
 BV BND1      x#8#93  
 UP BND1      z#93      25
 BV BND1      x#46#94 
 BV BND1      x#41#94 
 BV BND1      x#40#94 
 BV BND1      x#38#94 
 BV BND1      x#36#94 
 BV BND1      x#34#94 
 BV BND1      x#18#94 
 BV BND1      x#16#94 
 BV BND1      x#15#94 
 BV BND1      x#13#94 
 BV BND1      x#10#94 
 BV BND1      x#8#94  
 UP BND1      z#94      25
 BV BND1      x#46#95 
 BV BND1      x#41#95 
 BV BND1      x#40#95 
 BV BND1      x#38#95 
 BV BND1      x#36#95 
 BV BND1      x#34#95 
 BV BND1      x#18#95 
 BV BND1      x#16#95 
 BV BND1      x#15#95 
 BV BND1      x#13#95 
 BV BND1      x#10#95 
 UP BND1      z#95      25
 BV BND1      x#46#96 
 BV BND1      x#41#96 
 BV BND1      x#40#96 
 BV BND1      x#38#96 
 BV BND1      x#36#96 
 BV BND1      x#34#96 
 BV BND1      x#18#96 
 BV BND1      x#16#96 
 BV BND1      x#15#96 
 BV BND1      x#13#96 
 BV BND1      x#10#96 
 UP BND1      z#96      25
 BV BND1      x#46#97 
 BV BND1      x#41#97 
 BV BND1      x#40#97 
 BV BND1      x#38#97 
 BV BND1      x#36#97 
 BV BND1      x#34#97 
 BV BND1      x#18#97 
 BV BND1      x#16#97 
 BV BND1      x#15#97 
 BV BND1      x#13#97 
 BV BND1      x#10#97 
 UP BND1      z#97      25
 BV BND1      x#46#98 
 BV BND1      x#41#98 
 BV BND1      x#40#98 
 BV BND1      x#38#98 
 BV BND1      x#36#98 
 BV BND1      x#34#98 
 BV BND1      x#18#98 
 BV BND1      x#16#98 
 BV BND1      x#15#98 
 BV BND1      x#13#98 
 BV BND1      x#10#98 
 UP BND1      z#98      25
 BV BND1      x#46#99 
 BV BND1      x#41#99 
 BV BND1      x#40#99 
 BV BND1      x#38#99 
 BV BND1      x#36#99 
 BV BND1      x#34#99 
 BV BND1      x#18#99 
 BV BND1      x#16#99 
 BV BND1      x#15#99 
 BV BND1      x#13#99 
 BV BND1      x#10#99 
 UP BND1      z#99      25
 BV BND1      x#46#100
 BV BND1      x#41#100
 BV BND1      x#38#100
 BV BND1      x#36#100
 BV BND1      x#34#100
 BV BND1      x#18#100
 BV BND1      x#16#100
 BV BND1      x#15#100
 BV BND1      x#13#100
 BV BND1      x#10#100
 UP BND1      z#100     25
 BV BND1      x#46#101
 BV BND1      x#38#101
 BV BND1      x#36#101
 BV BND1      x#34#101
 BV BND1      x#18#101
 BV BND1      x#16#101
 BV BND1      x#15#101
 BV BND1      x#13#101
 BV BND1      x#10#101
 UP BND1      z#101     25
 BV BND1      x#46#102
 BV BND1      x#42#102
 BV BND1      x#38#102
 BV BND1      x#36#102
 BV BND1      x#34#102
 BV BND1      x#18#102
 BV BND1      x#16#102
 BV BND1      x#15#102
 BV BND1      x#13#102
 BV BND1      x#10#102
 UP BND1      z#102     25
 BV BND1      x#46#103
 BV BND1      x#42#103
 BV BND1      x#38#103
 BV BND1      x#36#103
 BV BND1      x#18#103
 BV BND1      x#16#103
 BV BND1      x#15#103
 BV BND1      x#13#103
 BV BND1      x#10#103
 UP BND1      z#103     25
 BV BND1      x#46#104
 BV BND1      x#42#104
 BV BND1      x#38#104
 BV BND1      x#36#104
 BV BND1      x#31#104
 BV BND1      x#18#104
 BV BND1      x#16#104
 BV BND1      x#15#104
 BV BND1      x#13#104
 BV BND1      x#10#104
 UP BND1      z#104     25
 BV BND1      x#46#105
 BV BND1      x#42#105
 BV BND1      x#38#105
 BV BND1      x#31#105
 BV BND1      x#18#105
 BV BND1      x#16#105
 BV BND1      x#15#105
 BV BND1      x#13#105
 BV BND1      x#10#105
 UP BND1      z#105     25
 BV BND1      x#46#106
 BV BND1      x#42#106
 BV BND1      x#38#106
 BV BND1      x#31#106
 BV BND1      x#18#106
 BV BND1      x#16#106
 BV BND1      x#15#106
 BV BND1      x#13#106
 UP BND1      z#106     25
 BV BND1      x#46#107
 BV BND1      x#42#107
 BV BND1      x#38#107
 BV BND1      x#31#107
 BV BND1      x#18#107
 BV BND1      x#16#107
 BV BND1      x#15#107
 BV BND1      x#13#107
 UP BND1      z#107     25
 BV BND1      x#46#108
 BV BND1      x#42#108
 BV BND1      x#38#108
 BV BND1      x#31#108
 BV BND1      x#16#108
 BV BND1      x#15#108
 BV BND1      x#13#108
 UP BND1      z#108     25
 BV BND1      x#46#109
 BV BND1      x#42#109
 BV BND1      x#38#109
 BV BND1      x#31#109
 BV BND1      x#16#109
 BV BND1      x#15#109
 BV BND1      x#13#109
 UP BND1      z#109     25
 BV BND1      x#46#110
 BV BND1      x#42#110
 BV BND1      x#38#110
 BV BND1      x#31#110
 BV BND1      x#16#110
 BV BND1      x#15#110
 BV BND1      x#13#110
 UP BND1      z#110     25
 BV BND1      x#46#111
 BV BND1      x#42#111
 BV BND1      x#38#111
 BV BND1      x#31#111
 BV BND1      x#16#111
 BV BND1      x#15#111
 BV BND1      x#13#111
 UP BND1      z#111     25
 BV BND1      x#46#112
 BV BND1      x#42#112
 BV BND1      x#38#112
 BV BND1      x#31#112
 BV BND1      x#16#112
 BV BND1      x#15#112
 BV BND1      x#13#112
 UP BND1      z#112     25
 BV BND1      x#46#113
 BV BND1      x#42#113
 BV BND1      x#38#113
 BV BND1      x#31#113
 BV BND1      x#16#113
 BV BND1      x#15#113
 BV BND1      x#13#113
 BV BND1      x#5#113 
 UP BND1      z#113     25
 BV BND1      x#46#114
 BV BND1      x#42#114
 BV BND1      x#38#114
 BV BND1      x#31#114
 BV BND1      x#16#114
 BV BND1      x#15#114
 BV BND1      x#13#114
 BV BND1      x#5#114 
 UP BND1      z#114     25
 BV BND1      x#46#115
 BV BND1      x#42#115
 BV BND1      x#38#115
 BV BND1      x#31#115
 BV BND1      x#16#115
 BV BND1      x#15#115
 BV BND1      x#13#115
 BV BND1      x#5#115 
 UP BND1      z#115     25
 BV BND1      x#46#116
 BV BND1      x#42#116
 BV BND1      x#38#116
 BV BND1      x#31#116
 BV BND1      x#16#116
 BV BND1      x#13#116
 BV BND1      x#5#116 
 UP BND1      z#116     25
 BV BND1      x#46#117
 BV BND1      x#42#117
 BV BND1      x#38#117
 BV BND1      x#31#117
 BV BND1      x#16#117
 BV BND1      x#13#117
 BV BND1      x#5#117 
 UP BND1      z#117     25
 BV BND1      x#46#118
 BV BND1      x#42#118
 BV BND1      x#31#118
 BV BND1      x#13#118
 BV BND1      x#5#118 
 UP BND1      z#118     25
 BV BND1      x#46#119
 BV BND1      x#42#119
 BV BND1      x#31#119
 BV BND1      x#19#119
 BV BND1      x#13#119
 BV BND1      x#5#119 
 UP BND1      z#119     25
 BV BND1      x#46#120
 BV BND1      x#42#120
 BV BND1      x#31#120
 BV BND1      x#19#120
 BV BND1      x#13#120
 BV BND1      x#5#120 
 UP BND1      z#120     25
 BV BND1      x#46#121
 BV BND1      x#31#121
 BV BND1      x#19#121
 BV BND1      x#13#121
 BV BND1      x#5#121 
 UP BND1      z#121     25
 BV BND1      x#46#122
 BV BND1      x#31#122
 BV BND1      x#19#122
 BV BND1      x#13#122
 BV BND1      x#5#122 
 UP BND1      z#122     25
 BV BND1      x#46#123
 BV BND1      x#31#123
 BV BND1      x#19#123
 BV BND1      x#13#123
 BV BND1      x#5#123 
 UP BND1      z#123     25
 BV BND1      x#46#124
 BV BND1      x#31#124
 BV BND1      x#19#124
 BV BND1      x#13#124
 BV BND1      x#5#124 
 UP BND1      z#124     25
 BV BND1      x#46#125
 BV BND1      x#31#125
 BV BND1      x#19#125
 BV BND1      x#13#125
 BV BND1      x#5#125 
 UP BND1      z#125     25
 BV BND1      x#46#126
 BV BND1      x#19#126
 BV BND1      x#13#126
 BV BND1      x#5#126 
 UP BND1      z#126     25
 BV BND1      x#46#127
 BV BND1      x#19#127
 BV BND1      x#13#127
 BV BND1      x#5#127 
 UP BND1      z#127     25
 BV BND1      x#46#128
 BV BND1      x#29#128
 BV BND1      x#19#128
 BV BND1      x#13#128
 BV BND1      x#5#128 
 UP BND1      z#128     25
 BV BND1      x#46#129
 BV BND1      x#29#129
 BV BND1      x#19#129
 BV BND1      x#13#129
 BV BND1      x#5#129 
 UP BND1      z#129     25
 BV BND1      x#46#130
 BV BND1      x#29#130
 BV BND1      x#19#130
 BV BND1      x#5#130 
 UP BND1      z#130     25
 BV BND1      x#46#131
 BV BND1      x#29#131
 BV BND1      x#25#131
 BV BND1      x#19#131
 BV BND1      x#5#131 
 UP BND1      z#131     25
 BV BND1      x#46#132
 BV BND1      x#29#132
 BV BND1      x#25#132
 BV BND1      x#19#132
 UP BND1      z#132     25
 BV BND1      x#29#133
 BV BND1      x#25#133
 BV BND1      x#19#133
 UP BND1      z#133     25
 BV BND1      x#29#134
 BV BND1      x#25#134
 BV BND1      x#24#134
 BV BND1      x#19#134
 UP BND1      z#134     25
 BV BND1      x#29#135
 BV BND1      x#25#135
 BV BND1      x#24#135
 BV BND1      x#19#135
 UP BND1      z#135     25
 BV BND1      x#29#136
 BV BND1      x#25#136
 BV BND1      x#24#136
 BV BND1      x#19#136
 UP BND1      z#136     25
 BV BND1      x#29#137
 BV BND1      x#25#137
 BV BND1      x#24#137
 UP BND1      z#137     25
 BV BND1      x#29#138
 BV BND1      x#25#138
 BV BND1      x#24#138
 UP BND1      z#138     25
 BV BND1      x#29#139
 BV BND1      x#25#139
 BV BND1      x#24#139
 UP BND1      z#139     25
 BV BND1      x#44#140
 BV BND1      x#29#140
 BV BND1      x#25#140
 BV BND1      x#24#140
 UP BND1      z#140     25
 BV BND1      x#44#141
 BV BND1      x#29#141
 BV BND1      x#24#141
 UP BND1      z#141     25
 BV BND1      x#44#142
 BV BND1      x#24#142
 UP BND1      z#142     25
 BV BND1      x#44#143
 BV BND1      x#24#143
 UP BND1      z#143     25
 BV BND1      x#44#144
 BV BND1      x#24#144
 BV BND1      x#21#144
 UP BND1      z#144     25
 BV BND1      x#44#145
 BV BND1      x#24#145
 BV BND1      x#21#145
 UP BND1      z#145     25
 BV BND1      x#44#146
 BV BND1      x#24#146
 BV BND1      x#21#146
 UP BND1      z#146     25
 BV BND1      x#44#147
 BV BND1      x#24#147
 BV BND1      x#21#147
 UP BND1      z#147     25
 BV BND1      x#44#148
 BV BND1      x#24#148
 BV BND1      x#21#148
 UP BND1      z#148     25
 BV BND1      x#44#149
 BV BND1      x#37#149
 BV BND1      x#24#149
 BV BND1      x#21#149
 UP BND1      z#149     25
 BV BND1      x#44#150
 BV BND1      x#37#150
 BV BND1      x#24#150
 BV BND1      x#21#150
 UP BND1      z#150     25
 BV BND1      x#44#151
 BV BND1      x#37#151
 BV BND1      x#24#151
 BV BND1      x#21#151
 UP BND1      z#151     25
 BV BND1      x#44#152
 BV BND1      x#39#152
 BV BND1      x#37#152
 BV BND1      x#24#152
 BV BND1      x#21#152
 UP BND1      z#152     25
 BV BND1      x#44#153
 BV BND1      x#39#153
 BV BND1      x#37#153
 BV BND1      x#24#153
 BV BND1      x#21#153
 UP BND1      z#153     25
 BV BND1      x#44#154
 BV BND1      x#39#154
 BV BND1      x#37#154
 BV BND1      x#24#154
 BV BND1      x#21#154
 UP BND1      z#154     25
 BV BND1      x#44#155
 BV BND1      x#39#155
 BV BND1      x#37#155
 BV BND1      x#24#155
 BV BND1      x#21#155
 UP BND1      z#155     25
 BV BND1      x#44#156
 BV BND1      x#39#156
 BV BND1      x#37#156
 BV BND1      x#24#156
 BV BND1      x#21#156
 UP BND1      z#156     25
 BV BND1      x#44#157
 BV BND1      x#39#157
 BV BND1      x#37#157
 BV BND1      x#21#157
 UP BND1      z#157     25
 BV BND1      x#44#158
 BV BND1      x#39#158
 BV BND1      x#37#158
 BV BND1      x#21#158
 UP BND1      z#158     25
 BV BND1      x#44#159
 BV BND1      x#39#159
 BV BND1      x#37#159
 BV BND1      x#21#159
 UP BND1      z#159     25
 BV BND1      x#44#160
 BV BND1      x#39#160
 BV BND1      x#37#160
 BV BND1      x#21#160
 UP BND1      z#160     25
 BV BND1      x#44#161
 BV BND1      x#39#161
 BV BND1      x#21#161
 UP BND1      z#161     25
 BV BND1      x#44#162
 BV BND1      x#39#162
 BV BND1      x#21#162
 UP BND1      z#162     25
 BV BND1      x#44#163
 BV BND1      x#39#163
 BV BND1      x#21#163
 UP BND1      z#163     25
 BV BND1      x#44#164
 BV BND1      x#39#164
 BV BND1      x#21#164
 UP BND1      z#164     25
 BV BND1      x#44#165
 BV BND1      x#39#165
 BV BND1      x#21#165
 UP BND1      z#165     25
 BV BND1      x#44#166
 BV BND1      x#21#166
 UP BND1      z#166     25
 BV BND1      x#44#167
 BV BND1      x#21#167
 UP BND1      z#167     25
 BV BND1      x#44#168
 BV BND1      x#21#168
 UP BND1      z#168     25
 BV BND1      x#44#169
 BV BND1      x#21#169
 UP BND1      z#169     25
 BV BND1      x#44#170
 BV BND1      x#21#170
 UP BND1      z#170     25
 BV BND1      x#44#171
 BV BND1      x#21#171
 UP BND1      z#171     25
 BV BND1      x#44#172
 BV BND1      x#21#172
 UP BND1      z#172     25
 BV BND1      x#44#173
 UP BND1      z#173     25
 BV BND1      x#44#174
 UP BND1      z#174     25
 BV BND1      x#44#175
 UP BND1      z#175     25
 BV BND1      x#44#176
 UP BND1      z#176     25
 BV BND1      x#44#177
 UP BND1      z#177     25
 BV BND1      x#44#178
 UP BND1      z#178     25
 BV BND1      x#44#179
 UP BND1      z#179     25
 BV BND1      x#44#180
 UP BND1      z#180     25
 LO BND1      s#1       30
 UP BND1      s#1       51
 LO BND1      s#2       71
 UP BND1      s#2       89
 LO BND1      s#3       22
 UP BND1      s#3       67
 LO BND1      s#4       17
 UP BND1      s#4       42
 LO BND1      s#5       113
 UP BND1      s#5       131
 LO BND1      s#6       24
 UP BND1      s#6       46
 UP BND1      s#7       20
 LO BND1      s#8       40
 UP BND1      s#8       94
 LO BND1      s#9       16
 UP BND1      s#9       34
 LO BND1      s#10      68
 UP BND1      s#10      105
 LO BND1      s#11      27
 UP BND1      s#11      49
 LO BND1      s#12      69
 UP BND1      s#12      84
 LO BND1      s#13      89
 UP BND1      s#13      129
 LO BND1      s#14      54
 UP BND1      s#14      72
 LO BND1      s#15      60
 UP BND1      s#15      115
 LO BND1      s#16      94
 UP BND1      s#16      117
 LO BND1      s#17      18
 UP BND1      s#17      62
 LO BND1      s#18      92
 UP BND1      s#18      107
 LO BND1      s#19      119
 UP BND1      s#19      136
 UP BND1      s#20      31
 LO BND1      s#21      144
 UP BND1      s#21      172
 LO BND1      s#22      24
 UP BND1      s#22      60
 LO BND1      s#23      19
 UP BND1      s#23      47
 LO BND1      s#24      134
 UP BND1      s#24      156
 LO BND1      s#26      24
 UP BND1      s#26      54
 LO BND1      s#27      57
 UP BND1      s#27      70
 LO BND1      s#28      28
 UP BND1      s#28      84
 LO BND1      s#29      128
 UP BND1      s#29      141
 LO BND1      s#30      22
 UP BND1      s#30      39
 LO BND1      s#31      104
 UP BND1      s#31      125
 LO BND1      s#32      81
 UP BND1      s#32      93
 LO BND1      s#33      57
 UP BND1      s#33      71
 LO BND1      s#34      64
 UP BND1      s#34      102
 LO BND1      s#35      23
 UP BND1      s#35      76
 LO BND1      s#36      85
 UP BND1      s#36      104
 LO BND1      s#37      149
 UP BND1      s#37      160
 LO BND1      s#38      71
 UP BND1      s#38      117
 LO BND1      s#39      152
 UP BND1      s#39      165
 LO BND1      s#40      71
 UP BND1      s#40      99
 LO BND1      s#41      62
 UP BND1      s#41      100
 LO BND1      s#42      102
 UP BND1      s#42      120
 LO BND1      s#43      74
 UP BND1      s#43      87
 LO BND1      s#44      140
 UP BND1      s#44      180
 LO BND1      s#45      7
 UP BND1      s#45      63
 LO BND1      s#46      90
 UP BND1      s#46      132
 UP BND1      s#47      40
 LO BND1      s#48      39
 UP BND1      s#48      87
 LO BND1      s#49      67
 UP BND1      s#49      86
 LO BND1      s#50      65
 UP BND1      s#50      93
ENDATA
