NAME csched007_pre
ROWS
 N  OBJ
 E  c01_5   
 E  c01_13  
 E  c01_14  
 E  c01_15  
 E  c01_16  
 E  c01_17  
 E  c01_18  
 E  c01_19  
 E  c01_20  
 E  c01_21  
 E  c01_22  
 E  c01_23  
 E  c01_24  
 E  c01_25  
 E  c01_26  
 E  c01_27  
 E  c01_28  
 E  c01_29  
 E  c01_30  
 E  c01_31  
 E  c01_32  
 E  c01_33  
 E  c01_34  
 E  c01_35  
 E  c01_36  
 E  c01_37  
 E  c01_38  
 E  c01_39  
 E  c01_40  
 E  c01_41  
 E  c01_42  
 E  c01_43  
 E  c01_44  
 E  c01_45  
 E  c01_46  
 E  c01_47  
 E  c01_48  
 E  c01_49  
 E  c01_50  
 E  c01_51  
 E  c01_52  
 E  c01_53  
 E  c01_54  
 E  c01_55  
 E  c01_56  
 E  c01_57  
 E  c01_58  
 E  c01_59  
 E  c01_60  
 E  c01_61  
 E  c01_62  
 E  c01_63  
 E  c01_64  
 E  c01_65  
 E  c01_66  
 E  c01_67  
 E  c01_68  
 E  c01_69  
 E  c01_70  
 E  c01_71  
 E  c01_72  
 E  c01_73  
 E  c01_74  
 E  c01_75  
 E  c01_76  
 E  c01_77  
 E  c01_78  
 E  c01_79  
 E  c01_80  
 E  c01_81  
 E  c01_82  
 E  c01_83  
 E  c01_84  
 E  c01_85  
 E  c01_86  
 E  c01_87  
 E  c01_88  
 E  c01_89  
 E  c01_90  
 E  c01_91  
 E  c01_92  
 E  c01_93  
 E  c01_94  
 E  c01_95  
 E  c01_96  
 E  c01_97  
 E  c01_98  
 E  c01_99  
 E  c01_100 
 E  c01_101 
 E  c01_102 
 E  c01_103 
 E  c01_104 
 E  c01_105 
 E  c01_106 
 E  c01_107 
 E  c01_108 
 E  c01_109 
 E  c01_110 
 E  c01_111 
 E  c01_112 
 E  c01_113 
 E  c01_114 
 E  c01_115 
 E  c01_116 
 E  c01_117 
 E  c01_118 
 E  c01_119 
 E  c01_120 
 E  c01_121 
 E  c01_122 
 E  c01_123 
 E  c01_124 
 E  c01_125 
 E  c01_126 
 E  c01_127 
 E  c01_128 
 E  c01_129 
 E  c01_130 
 E  c01_131 
 E  c01_132 
 E  c01_133 
 E  c01_134 
 E  c01_135 
 E  c01_136 
 E  c01_137 
 E  c01_138 
 E  c01_139 
 E  c01_140 
 E  c01_141 
 E  c01_142 
 E  c01_143 
 E  c01_144 
 E  c01_145 
 E  c01_146 
 E  c01_147 
 E  c01_148 
 E  c01_149 
 E  c01_150 
 E  c01_151 
 E  c01_152 
 E  c01_153 
 E  c01_154 
 E  c01_155 
 E  c01_156 
 E  c01_157 
 E  c01_158 
 E  c01_159 
 E  c01_160 
 E  c01_161 
 E  c01_162 
 E  c01_163 
 E  c01_164 
 E  c01_165 
 E  c01_166 
 E  c01_167 
 E  c01_168 
 E  c01_169 
 E  c01_170 
 E  c01_171 
 E  c01_172 
 E  c01_173 
 E  c01_174 
 E  c01_175 
 E  c01_176 
 E  c01_177 
 E  c01_178 
 E  c01_179 
 E  c01_180 
 E  c01_181 
 E  c01_182 
 E  c01_183 
 E  c01_184 
 E  c01_185 
 E  c01_186 
 L  c01_200 
 E  c02_1   
 E  c02_2   
 E  c02_3   
 E  c02_4   
 E  c02_6   
 E  c02_7   
 E  c02_8   
 E  c02_9   
 E  c02_10  
 E  c02_11  
 E  c02_12  
 E  c02_13  
 E  c02_14  
 E  c02_15  
 E  c02_16  
 E  c02_17  
 E  c02_18  
 E  c02_19  
 E  c02_20  
 E  c02_21  
 E  c02_22  
 E  c02_23  
 E  c02_24  
 E  c02_25  
 E  c02_26  
 E  c02_27  
 E  c02_28  
 E  c02_29  
 E  c02_30  
 E  c02_31  
 E  c02_32  
 E  c02_33  
 E  c02_34  
 E  c02_35  
 E  c02_36  
 E  c02_37  
 E  c02_39  
 E  c02_40  
 E  c02_41  
 E  c02_42  
 E  c02_43  
 E  c02_44  
 E  c02_45  
 E  c02_46  
 E  c02_48  
 E  c02_49  
 E  c02_50  
 E  c04_1   
 E  c04_2   
 E  c04_3   
 E  c04_4   
 E  c04_5   
 E  c04_6   
 E  c04_7   
 E  c04_8   
 E  c04_9   
 E  c04_10  
 E  c04_11  
 E  c04_12  
 E  c04_13  
 E  c04_14  
 E  c04_15  
 E  c04_16  
 E  c04_17  
 E  c04_18  
 E  c04_19  
 E  c04_20  
 E  c04_21  
 E  c04_22  
 E  c04_23  
 E  c04_24  
 E  c04_25  
 E  c04_26  
 E  c04_27  
 E  c04_28  
 E  c04_29  
 E  c04_30  
 E  c04_31  
 E  c04_32  
 E  c04_33  
 E  c04_34  
 E  c04_35  
 E  c04_36  
 E  c04_37  
 E  c04_38  
 E  c04_39  
 E  c04_40  
 E  c04_41  
 E  c04_42  
 E  c04_43  
 E  c04_44  
 E  c04_45  
 E  c04_46  
 E  c04_47  
 E  c04_48  
 E  c04_49  
 E  c04_50  
COLUMNS
    MARKER    'MARKER'                 'INTORG'
    x#25#3    c01_5     -2
    x#25#3    c01_27    2
    x#25#3    c04_25    1
    x#34#4    c01_5     -4
    x#34#4    c01_20    4
    x#34#4    c04_34    1
    x#25#4    c01_5     -2
    x#25#4    c01_28    2
    x#25#4    c02_25    -1
    x#25#4    c04_25    1
    x#14#4    c01_5     -5
    x#14#4    c01_37    5
    x#14#4    c04_14    1
    x#34#5    c01_5     -4
    x#34#5    c01_21    4
    x#34#5    c02_34    -1
    x#34#5    c04_34    1
    x#25#5    c01_5     -2
    x#25#5    c01_29    2
    x#25#5    c02_25    -2
    x#25#5    c04_25    1
    x#14#5    c01_5     -5
    x#14#5    c01_38    5
    x#14#5    c02_14    -1
    x#14#5    c04_14    1
    x#34#6    c01_5     -4
    x#34#6    c01_22    4
    x#34#6    c02_34    -2
    x#34#6    c04_34    1
    x#25#6    c01_5     -2
    x#25#6    c01_30    2
    x#25#6    c02_25    -3
    x#25#6    c04_25    1
    x#14#6    c01_5     -5
    x#14#6    c01_39    5
    x#14#6    c02_14    -2
    x#14#6    c04_14    1
    x#34#7    c01_5     -4
    x#34#7    c01_23    4
    x#34#7    c02_34    -3
    x#34#7    c04_34    1
    x#25#7    c01_5     -2
    x#25#7    c01_31    2
    x#25#7    c02_25    -4
    x#25#7    c04_25    1
    x#14#7    c01_5     -5
    x#14#7    c01_40    5
    x#14#7    c02_14    -3
    x#14#7    c04_14    1
    x#34#8    c01_5     -4
    x#34#8    c01_24    4
    x#34#8    c02_34    -4
    x#34#8    c04_34    1
    x#25#8    c01_5     -2
    x#25#8    c01_32    2
    x#25#8    c02_25    -5
    x#25#8    c04_25    1
    x#14#8    c01_5     -5
    x#14#8    c01_41    5
    x#14#8    c02_14    -4
    x#14#8    c04_14    1
    x#34#9    c01_5     -4
    x#34#9    c01_25    4
    x#34#9    c02_34    -5
    x#34#9    c04_34    1
    x#25#9    c01_5     -2
    x#25#9    c01_33    2
    x#25#9    c02_25    -6
    x#25#9    c04_25    1
    x#14#9    c01_5     -5
    x#14#9    c01_42    5
    x#14#9    c02_14    -5
    x#14#9    c04_14    1
    x#10#9    c01_5     -4
    x#10#9    c01_13    4
    x#10#9    c04_10    1
    x#34#10   c01_5     -4
    x#34#10   c01_26    4
    x#34#10   c02_34    -6
    x#34#10   c04_34    1
    x#25#10   c01_5     -2
    x#25#10   c01_34    2
    x#25#10   c02_25    -7
    x#25#10   c04_25    1
    x#14#10   c01_5     -5
    x#14#10   c01_43    5
    x#14#10   c02_14    -6
    x#14#10   c04_14    1
    x#10#10   c01_5     -4
    x#10#10   c01_14    4
    x#10#10   c02_10    -1
    x#10#10   c04_10    1
    x#34#11   c01_5     -4
    x#34#11   c01_27    4
    x#34#11   c02_34    -7
    x#34#11   c04_34    1
    x#25#11   c01_5     -2
    x#25#11   c01_35    2
    x#25#11   c02_25    -8
    x#25#11   c04_25    1
    x#14#11   c01_5     -5
    x#14#11   c01_44    5
    x#14#11   c02_14    -7
    x#14#11   c04_14    1
    x#10#11   c01_5     -4
    x#10#11   c01_15    4
    x#10#11   c02_10    -2
    x#10#11   c04_10    1
    x#42#12   c01_5     -1
    x#42#12   c01_45    1
    x#42#12   c04_42    1
    x#34#12   c01_5     -4
    x#34#12   c01_28    4
    x#34#12   c02_34    -8
    x#34#12   c04_34    1
    x#25#12   c01_5     -2
    x#25#12   c01_36    2
    x#25#12   c02_25    -9
    x#25#12   c04_25    1
    x#14#12   c01_5     -5
    x#14#12   c01_45    5
    x#14#12   c02_14    -8
    x#14#12   c04_14    1
    x#10#12   c01_5     -4
    x#10#12   c01_16    4
    x#10#12   c02_10    -3
    x#10#12   c04_10    1
    z#12      c01_5     1
    z#12      c01_13    -1
    x#42#13   c01_13    -1
    x#42#13   c01_46    1
    x#42#13   c02_42    -1
    x#42#13   c04_42    1
    x#34#13   c01_13    -4
    x#34#13   c01_29    4
    x#34#13   c02_34    -9
    x#34#13   c04_34    1
    x#25#13   c01_13    -2
    x#25#13   c01_37    2
    x#25#13   c02_25    -10
    x#25#13   c04_25    1
    x#19#13   c01_13    -3
    x#19#13   c01_32    3
    x#19#13   c04_19    1
    x#14#13   c01_13    -5
    x#14#13   c01_46    5
    x#14#13   c02_14    -9
    x#14#13   c04_14    1
    x#10#13   c01_13    -4
    x#10#13   c01_17    4
    x#10#13   c02_10    -4
    x#10#13   c04_10    1
    z#13      c01_13    1
    z#13      c01_14    -1
    x#42#14   c01_14    -1
    x#42#14   c01_47    1
    x#42#14   c02_42    -2
    x#42#14   c04_42    1
    x#37#14   c01_14    -5
    x#37#14   c01_61    5
    x#37#14   c04_37    1
    x#34#14   c01_14    -4
    x#34#14   c01_30    4
    x#34#14   c02_34    -10
    x#34#14   c04_34    1
    x#25#14   c01_14    -2
    x#25#14   c01_38    2
    x#25#14   c02_25    -11
    x#25#14   c04_25    1
    x#19#14   c01_14    -3
    x#19#14   c01_33    3
    x#19#14   c02_19    -1
    x#19#14   c04_19    1
    x#14#14   c01_14    -5
    x#14#14   c01_47    5
    x#14#14   c02_14    -10
    x#14#14   c04_14    1
    x#10#14   c01_14    -4
    x#10#14   c01_18    4
    x#10#14   c02_10    -5
    x#10#14   c04_10    1
    z#14      c01_14    1
    z#14      c01_15    -1
    x#42#15   c01_15    -1
    x#42#15   c01_48    1
    x#42#15   c02_42    -3
    x#42#15   c04_42    1
    x#37#15   c01_15    -5
    x#37#15   c01_62    5
    x#37#15   c02_37    -1
    x#37#15   c04_37    1
    x#34#15   c01_15    -4
    x#34#15   c01_31    4
    x#34#15   c02_34    -11
    x#34#15   c04_34    1
    x#25#15   c01_15    -2
    x#25#15   c01_39    2
    x#25#15   c02_25    -12
    x#25#15   c04_25    1
    x#19#15   c01_15    -3
    x#19#15   c01_34    3
    x#19#15   c02_19    -2
    x#19#15   c04_19    1
    x#14#15   c01_15    -5
    x#14#15   c01_48    5
    x#14#15   c02_14    -11
    x#14#15   c04_14    1
    x#10#15   c01_15    -4
    x#10#15   c01_19    4
    x#10#15   c02_10    -6
    x#10#15   c04_10    1
    z#15      c01_15    1
    z#15      c01_16    -1
    x#42#16   c01_16    -1
    x#42#16   c01_49    1
    x#42#16   c02_42    -4
    x#42#16   c04_42    1
    x#37#16   c01_16    -5
    x#37#16   c01_63    5
    x#37#16   c02_37    -2
    x#37#16   c04_37    1
    x#34#16   c01_16    -4
    x#34#16   c01_32    4
    x#34#16   c02_34    -12
    x#34#16   c04_34    1
    x#25#16   c01_16    -2
    x#25#16   c01_40    2
    x#25#16   c02_25    -13
    x#25#16   c04_25    1
    x#19#16   c01_16    -3
    x#19#16   c01_35    3
    x#19#16   c02_19    -3
    x#19#16   c04_19    1
    x#14#16   c01_16    -5
    x#14#16   c01_49    5
    x#14#16   c02_14    -12
    x#14#16   c04_14    1
    x#10#16   c01_16    -4
    x#10#16   c01_20    4
    x#10#16   c02_10    -7
    x#10#16   c04_10    1
    z#16      c01_16    1
    z#16      c01_17    -1
    x#42#17   c01_17    -1
    x#42#17   c01_50    1
    x#42#17   c02_42    -5
    x#42#17   c04_42    1
    x#37#17   c01_17    -5
    x#37#17   c01_64    5
    x#37#17   c02_37    -3
    x#37#17   c04_37    1
    x#34#17   c01_17    -4
    x#34#17   c01_33    4
    x#34#17   c02_34    -13
    x#34#17   c04_34    1
    x#25#17   c01_17    -2
    x#25#17   c01_41    2
    x#25#17   c02_25    -14
    x#25#17   c04_25    1
    x#19#17   c01_17    -3
    x#19#17   c01_36    3
    x#19#17   c02_19    -4
    x#19#17   c04_19    1
    x#14#17   c01_17    -5
    x#14#17   c01_50    5
    x#14#17   c02_14    -13
    x#14#17   c04_14    1
    x#10#17   c01_17    -4
    x#10#17   c01_21    4
    x#10#17   c02_10    -8
    x#10#17   c04_10    1
    z#17      c01_17    1
    z#17      c01_18    -1
    x#42#18   c01_18    -1
    x#42#18   c01_51    1
    x#42#18   c02_42    -6
    x#42#18   c04_42    1
    x#37#18   c01_18    -5
    x#37#18   c01_65    5
    x#37#18   c02_37    -4
    x#37#18   c04_37    1
    x#34#18   c01_18    -4
    x#34#18   c01_34    4
    x#34#18   c02_34    -14
    x#34#18   c04_34    1
    x#25#18   c01_18    -2
    x#25#18   c01_42    2
    x#25#18   c02_25    -15
    x#25#18   c04_25    1
    x#19#18   c01_18    -3
    x#19#18   c01_37    3
    x#19#18   c02_19    -5
    x#19#18   c04_19    1
    x#14#18   c01_18    -5
    x#14#18   c01_51    5
    x#14#18   c02_14    -14
    x#14#18   c04_14    1
    x#10#18   c01_18    -4
    x#10#18   c01_22    4
    x#10#18   c02_10    -9
    x#10#18   c04_10    1
    z#18      c01_18    1
    z#18      c01_19    -1
    x#42#19   c01_19    -1
    x#42#19   c01_52    1
    x#42#19   c02_42    -7
    x#42#19   c04_42    1
    x#37#19   c01_19    -5
    x#37#19   c01_66    5
    x#37#19   c02_37    -5
    x#37#19   c04_37    1
    x#34#19   c01_19    -4
    x#34#19   c01_35    4
    x#34#19   c02_34    -15
    x#34#19   c04_34    1
    x#25#19   c01_19    -2
    x#25#19   c01_43    2
    x#25#19   c02_25    -16
    x#25#19   c04_25    1
    x#19#19   c01_19    -3
    x#19#19   c01_38    3
    x#19#19   c02_19    -6
    x#19#19   c04_19    1
    x#14#19   c01_19    -5
    x#14#19   c01_52    5
    x#14#19   c02_14    -15
    x#14#19   c04_14    1
    x#10#19   c01_19    -4
    x#10#19   c01_23    4
    x#10#19   c02_10    -10
    x#10#19   c04_10    1
    z#19      c01_19    1
    z#19      c01_20    -1
    x#42#20   c01_20    -1
    x#42#20   c01_53    1
    x#42#20   c02_42    -8
    x#42#20   c04_42    1
    x#37#20   c01_20    -5
    x#37#20   c01_67    5
    x#37#20   c02_37    -6
    x#37#20   c04_37    1
    x#34#20   c01_20    -4
    x#34#20   c01_36    4
    x#34#20   c02_34    -16
    x#34#20   c04_34    1
    x#25#20   c01_20    -2
    x#25#20   c01_44    2
    x#25#20   c02_25    -17
    x#25#20   c04_25    1
    x#19#20   c01_20    -3
    x#19#20   c01_39    3
    x#19#20   c02_19    -7
    x#19#20   c04_19    1
    x#14#20   c01_20    -5
    x#14#20   c01_53    5
    x#14#20   c02_14    -16
    x#14#20   c04_14    1
    x#10#20   c01_20    -4
    x#10#20   c01_24    4
    x#10#20   c02_10    -11
    x#10#20   c04_10    1
    z#20      c01_20    1
    z#20      c01_21    -1
    x#42#21   c01_21    -1
    x#42#21   c01_54    1
    x#42#21   c02_42    -9
    x#42#21   c04_42    1
    x#37#21   c01_21    -5
    x#37#21   c01_68    5
    x#37#21   c02_37    -7
    x#37#21   c04_37    1
    x#34#21   c01_21    -4
    x#34#21   c01_37    4
    x#34#21   c02_34    -17
    x#34#21   c04_34    1
    x#25#21   c01_21    -2
    x#25#21   c01_45    2
    x#25#21   c02_25    -18
    x#25#21   c04_25    1
    x#22#21   c01_21    -2
    x#22#21   c01_43    2
    x#22#21   c04_22    1
    x#19#21   c01_21    -3
    x#19#21   c01_40    3
    x#19#21   c02_19    -8
    x#19#21   c04_19    1
    x#14#21   c01_21    -5
    x#14#21   c01_54    5
    x#14#21   c02_14    -17
    x#14#21   c04_14    1
    x#10#21   c01_21    -4
    x#10#21   c01_25    4
    x#10#21   c02_10    -12
    x#10#21   c04_10    1
    z#21      c01_21    1
    z#21      c01_22    -1
    x#42#22   c01_22    -1
    x#42#22   c01_55    1
    x#42#22   c02_42    -10
    x#42#22   c04_42    1
    x#37#22   c01_22    -5
    x#37#22   c01_69    5
    x#37#22   c02_37    -8
    x#37#22   c04_37    1
    x#36#22   c01_22    -4
    x#36#22   c01_39    4
    x#36#22   c04_36    1
    x#34#22   c01_22    -4
    x#34#22   c01_38    4
    x#34#22   c02_34    -18
    x#34#22   c04_34    1
    x#25#22   c01_22    -2
    x#25#22   c01_46    2
    x#25#22   c02_25    -19
    x#25#22   c04_25    1
    x#22#22   c01_22    -2
    x#22#22   c01_44    2
    x#22#22   c02_22    -1
    x#22#22   c04_22    1
    x#19#22   c01_22    -3
    x#19#22   c01_41    3
    x#19#22   c02_19    -9
    x#19#22   c04_19    1
    x#14#22   c01_22    -5
    x#14#22   c01_55    5
    x#14#22   c02_14    -18
    x#14#22   c04_14    1
    x#10#22   c01_22    -4
    x#10#22   c01_26    4
    x#10#22   c02_10    -13
    x#10#22   c04_10    1
    z#22      c01_22    1
    z#22      c01_23    -1
    x#42#23   c01_23    -1
    x#42#23   c01_56    1
    x#42#23   c02_42    -11
    x#42#23   c04_42    1
    x#37#23   c01_23    -5
    x#37#23   c01_70    5
    x#37#23   c02_37    -9
    x#37#23   c04_37    1
    x#36#23   c01_23    -4
    x#36#23   c01_40    4
    x#36#23   c02_36    -1
    x#36#23   c04_36    1
    x#34#23   c01_23    -4
    x#34#23   c01_39    4
    x#34#23   c02_34    -19
    x#34#23   c04_34    1
    x#25#23   c01_23    -2
    x#25#23   c01_47    2
    x#25#23   c02_25    -20
    x#25#23   c04_25    1
    x#22#23   c01_23    -2
    x#22#23   c01_45    2
    x#22#23   c02_22    -2
    x#22#23   c04_22    1
    x#19#23   c01_23    -3
    x#19#23   c01_42    3
    x#19#23   c02_19    -10
    x#19#23   c04_19    1
    x#14#23   c01_23    -5
    x#14#23   c01_56    5
    x#14#23   c02_14    -19
    x#14#23   c04_14    1
    x#10#23   c01_23    -4
    x#10#23   c01_27    4
    x#10#23   c02_10    -14
    x#10#23   c04_10    1
    z#23      c01_23    1
    z#23      c01_24    -1
    x#42#24   c01_24    -1
    x#42#24   c01_57    1
    x#42#24   c02_42    -12
    x#42#24   c04_42    1
    x#37#24   c01_24    -5
    x#37#24   c01_71    5
    x#37#24   c02_37    -10
    x#37#24   c04_37    1
    x#36#24   c01_24    -4
    x#36#24   c01_41    4
    x#36#24   c02_36    -2
    x#36#24   c04_36    1
    x#34#24   c01_24    -4
    x#34#24   c01_40    4
    x#34#24   c02_34    -20
    x#34#24   c04_34    1
    x#25#24   c01_24    -2
    x#25#24   c01_48    2
    x#25#24   c02_25    -21
    x#25#24   c04_25    1
    x#22#24   c01_24    -2
    x#22#24   c01_46    2
    x#22#24   c02_22    -3
    x#22#24   c04_22    1
    x#19#24   c01_24    -3
    x#19#24   c01_43    3
    x#19#24   c02_19    -11
    x#19#24   c04_19    1
    x#14#24   c01_24    -5
    x#14#24   c01_57    5
    x#14#24   c02_14    -20
    x#14#24   c04_14    1
    x#10#24   c01_24    -4
    x#10#24   c01_28    4
    x#10#24   c02_10    -15
    x#10#24   c04_10    1
    z#24      c01_24    1
    z#24      c01_25    -1
    x#42#25   c01_25    -1
    x#42#25   c01_58    1
    x#42#25   c02_42    -13
    x#42#25   c04_42    1
    x#37#25   c01_25    -5
    x#37#25   c01_72    5
    x#37#25   c02_37    -11
    x#37#25   c04_37    1
    x#36#25   c01_25    -4
    x#36#25   c01_42    4
    x#36#25   c02_36    -3
    x#36#25   c04_36    1
    x#34#25   c01_25    -4
    x#34#25   c01_41    4
    x#34#25   c02_34    -21
    x#34#25   c04_34    1
    x#25#25   c01_25    -2
    x#25#25   c01_49    2
    x#25#25   c02_25    -22
    x#25#25   c04_25    1
    x#22#25   c01_25    -2
    x#22#25   c01_47    2
    x#22#25   c02_22    -4
    x#22#25   c04_22    1
    x#19#25   c01_25    -3
    x#19#25   c01_44    3
    x#19#25   c02_19    -12
    x#19#25   c04_19    1
    x#14#25   c01_25    -5
    x#14#25   c01_58    5
    x#14#25   c02_14    -21
    x#14#25   c04_14    1
    x#10#25   c01_25    -4
    x#10#25   c01_29    4
    x#10#25   c02_10    -16
    x#10#25   c04_10    1
    z#25      c01_25    1
    z#25      c01_26    -1
    x#46#26   c01_26    -3
    x#46#26   c01_66    3
    x#46#26   c04_46    1
    x#42#26   c01_26    -1
    x#42#26   c01_59    1
    x#42#26   c02_42    -14
    x#42#26   c04_42    1
    x#37#26   c01_26    -5
    x#37#26   c01_73    5
    x#37#26   c02_37    -12
    x#37#26   c04_37    1
    x#36#26   c01_26    -4
    x#36#26   c01_43    4
    x#36#26   c02_36    -4
    x#36#26   c04_36    1
    x#34#26   c01_26    -4
    x#34#26   c01_42    4
    x#34#26   c02_34    -22
    x#34#26   c04_34    1
    x#25#26   c01_26    -2
    x#25#26   c01_50    2
    x#25#26   c02_25    -23
    x#25#26   c04_25    1
    x#22#26   c01_26    -2
    x#22#26   c01_48    2
    x#22#26   c02_22    -5
    x#22#26   c04_22    1
    x#19#26   c01_26    -3
    x#19#26   c01_45    3
    x#19#26   c02_19    -13
    x#19#26   c04_19    1
    x#14#26   c01_26    -5
    x#14#26   c01_59    5
    x#14#26   c02_14    -22
    x#14#26   c04_14    1
    z#26      c01_26    1
    z#26      c01_27    -1
    x#46#27   c01_27    -3
    x#46#27   c01_67    3
    x#46#27   c02_46    -1
    x#46#27   c04_46    1
    x#42#27   c01_27    -1
    x#42#27   c01_60    1
    x#42#27   c02_42    -15
    x#42#27   c04_42    1
    x#37#27   c01_27    -5
    x#37#27   c01_74    5
    x#37#27   c02_37    -13
    x#37#27   c04_37    1
    x#36#27   c01_27    -4
    x#36#27   c01_44    4
    x#36#27   c02_36    -5
    x#36#27   c04_36    1
    x#34#27   c01_27    -4
    x#34#27   c01_43    4
    x#34#27   c02_34    -23
    x#34#27   c04_34    1
    x#25#27   c01_27    -2
    x#25#27   c01_51    2
    x#25#27   c02_25    -24
    x#25#27   c04_25    1
    x#22#27   c01_27    -2
    x#22#27   c01_49    2
    x#22#27   c02_22    -6
    x#22#27   c04_22    1
    x#19#27   c01_27    -3
    x#19#27   c01_46    3
    x#19#27   c02_19    -14
    x#19#27   c04_19    1
    x#14#27   c01_27    -5
    x#14#27   c01_60    5
    x#14#27   c02_14    -23
    x#14#27   c04_14    1
    z#27      c01_27    1
    z#27      c01_28    -1
    x#46#28   c01_28    -3
    x#46#28   c01_68    3
    x#46#28   c02_46    -2
    x#46#28   c04_46    1
    x#42#28   c01_28    -1
    x#42#28   c01_61    1
    x#42#28   c02_42    -16
    x#42#28   c04_42    1
    x#37#28   c01_28    -5
    x#37#28   c01_75    5
    x#37#28   c02_37    -14
    x#37#28   c04_37    1
    x#36#28   c01_28    -4
    x#36#28   c01_45    4
    x#36#28   c02_36    -6
    x#36#28   c04_36    1
    x#34#28   c01_28    -4
    x#34#28   c01_44    4
    x#34#28   c02_34    -24
    x#34#28   c04_34    1
    x#25#28   c01_28    -2
    x#25#28   c01_52    2
    x#25#28   c02_25    -25
    x#25#28   c04_25    1
    x#22#28   c01_28    -2
    x#22#28   c01_50    2
    x#22#28   c02_22    -7
    x#22#28   c04_22    1
    x#19#28   c01_28    -3
    x#19#28   c01_47    3
    x#19#28   c02_19    -15
    x#19#28   c04_19    1
    x#14#28   c01_28    -5
    x#14#28   c01_61    5
    x#14#28   c02_14    -24
    x#14#28   c04_14    1
    z#28      c01_28    1
    z#28      c01_29    -1
    x#46#29   c01_29    -3
    x#46#29   c01_69    3
    x#46#29   c02_46    -3
    x#46#29   c04_46    1
    x#42#29   c01_29    -1
    x#42#29   c01_62    1
    x#42#29   c02_42    -17
    x#42#29   c04_42    1
    x#37#29   c01_29    -5
    x#37#29   c01_76    5
    x#37#29   c02_37    -15
    x#37#29   c04_37    1
    x#36#29   c01_29    -4
    x#36#29   c01_46    4
    x#36#29   c02_36    -7
    x#36#29   c04_36    1
    x#34#29   c01_29    -4
    x#34#29   c01_45    4
    x#34#29   c02_34    -25
    x#34#29   c04_34    1
    x#25#29   c01_29    -2
    x#25#29   c01_53    2
    x#25#29   c02_25    -26
    x#25#29   c04_25    1
    x#22#29   c01_29    -2
    x#22#29   c01_51    2
    x#22#29   c02_22    -8
    x#22#29   c04_22    1
    x#19#29   c01_29    -3
    x#19#29   c01_48    3
    x#19#29   c02_19    -16
    x#19#29   c04_19    1
    x#14#29   c01_29    -5
    x#14#29   c01_62    5
    x#14#29   c02_14    -25
    x#14#29   c04_14    1
    z#29      c01_29    1
    z#29      c01_30    -1
    x#46#30   c01_30    -3
    x#46#30   c01_70    3
    x#46#30   c02_46    -4
    x#46#30   c04_46    1
    x#42#30   c01_30    -1
    x#42#30   c01_63    1
    x#42#30   c02_42    -18
    x#42#30   c04_42    1
    x#40#30   c01_30    -3
    x#40#30   c01_71    3
    x#40#30   c04_40    1
    x#37#30   c01_30    -5
    x#37#30   c01_77    5
    x#37#30   c02_37    -16
    x#37#30   c04_37    1
    x#36#30   c01_30    -4
    x#36#30   c01_47    4
    x#36#30   c02_36    -8
    x#36#30   c04_36    1
    x#34#30   c01_30    -4
    x#34#30   c01_46    4
    x#34#30   c02_34    -26
    x#34#30   c04_34    1
    x#25#30   c01_30    -2
    x#25#30   c01_54    2
    x#25#30   c02_25    -27
    x#25#30   c04_25    1
    x#22#30   c01_30    -2
    x#22#30   c01_52    2
    x#22#30   c02_22    -9
    x#22#30   c04_22    1
    x#19#30   c01_30    -3
    x#19#30   c01_49    3
    x#19#30   c02_19    -17
    x#19#30   c04_19    1
    x#14#30   c01_30    -5
    x#14#30   c01_63    5
    x#14#30   c02_14    -26
    x#14#30   c04_14    1
    x#11#30   c01_30    -5
    x#11#30   c01_39    5
    x#11#30   c04_11    1
    z#30      c01_30    1
    z#30      c01_31    -1
    x#46#31   c01_31    -3
    x#46#31   c01_71    3
    x#46#31   c02_46    -5
    x#46#31   c04_46    1
    x#42#31   c01_31    -1
    x#42#31   c01_64    1
    x#42#31   c02_42    -19
    x#42#31   c04_42    1
    x#40#31   c01_31    -3
    x#40#31   c01_72    3
    x#40#31   c02_40    -1
    x#40#31   c04_40    1
    x#37#31   c01_31    -5
    x#37#31   c01_78    5
    x#37#31   c02_37    -17
    x#37#31   c04_37    1
    x#36#31   c01_31    -4
    x#36#31   c01_48    4
    x#36#31   c02_36    -9
    x#36#31   c04_36    1
    x#33#31   c01_31    -4
    x#33#31   c01_44    4
    x#33#31   c04_33    1
    x#25#31   c01_31    -2
    x#25#31   c01_55    2
    x#25#31   c02_25    -28
    x#25#31   c04_25    1
    x#22#31   c01_31    -2
    x#22#31   c01_53    2
    x#22#31   c02_22    -10
    x#22#31   c04_22    1
    x#19#31   c01_31    -3
    x#19#31   c01_50    3
    x#19#31   c02_19    -18
    x#19#31   c04_19    1
    x#14#31   c01_31    -5
    x#14#31   c01_64    5
    x#14#31   c02_14    -27
    x#14#31   c04_14    1
    x#11#31   c01_31    -5
    x#11#31   c01_40    5
    x#11#31   c02_11    -1
    x#11#31   c04_11    1
    z#31      c01_31    1
    z#31      c01_32    -1
    x#46#32   c01_32    -3
    x#46#32   c01_72    3
    x#46#32   c02_46    -6
    x#46#32   c04_46    1
    x#42#32   c01_32    -1
    x#42#32   c01_65    1
    x#42#32   c02_42    -20
    x#42#32   c04_42    1
    x#40#32   c01_32    -3
    x#40#32   c01_73    3
    x#40#32   c02_40    -2
    x#40#32   c04_40    1
    x#37#32   c01_32    -5
    x#37#32   c01_79    5
    x#37#32   c02_37    -18
    x#37#32   c04_37    1
    x#36#32   c01_32    -4
    x#36#32   c01_49    4
    x#36#32   c02_36    -10
    x#36#32   c04_36    1
    x#33#32   c01_32    -4
    x#33#32   c01_45    4
    x#33#32   c02_33    -1
    x#33#32   c04_33    1
    x#25#32   c01_32    -2
    x#25#32   c01_56    2
    x#25#32   c02_25    -29
    x#25#32   c04_25    1
    x#22#32   c01_32    -2
    x#22#32   c01_54    2
    x#22#32   c02_22    -11
    x#22#32   c04_22    1
    x#19#32   c01_32    -3
    x#19#32   c01_51    3
    x#19#32   c02_19    -19
    x#19#32   c04_19    1
    x#14#32   c01_32    -5
    x#14#32   c01_65    5
    x#14#32   c02_14    -28
    x#14#32   c04_14    1
    x#11#32   c01_32    -5
    x#11#32   c01_41    5
    x#11#32   c02_11    -2
    x#11#32   c04_11    1
    z#32      c01_32    1
    z#32      c01_33    -1
    x#46#33   c01_33    -3
    x#46#33   c01_73    3
    x#46#33   c02_46    -7
    x#46#33   c04_46    1
    x#40#33   c01_33    -3
    x#40#33   c01_74    3
    x#40#33   c02_40    -3
    x#40#33   c04_40    1
    x#37#33   c01_33    -5
    x#37#33   c01_80    5
    x#37#33   c02_37    -19
    x#37#33   c04_37    1
    x#36#33   c01_33    -4
    x#36#33   c01_50    4
    x#36#33   c02_36    -11
    x#36#33   c04_36    1
    x#33#33   c01_33    -4
    x#33#33   c01_46    4
    x#33#33   c02_33    -2
    x#33#33   c04_33    1
    x#25#33   c01_33    -2
    x#25#33   c01_57    2
    x#25#33   c02_25    -30
    x#25#33   c04_25    1
    x#22#33   c01_33    -2
    x#22#33   c01_55    2
    x#22#33   c02_22    -12
    x#22#33   c04_22    1
    x#19#33   c01_33    -3
    x#19#33   c01_52    3
    x#19#33   c02_19    -20
    x#19#33   c04_19    1
    x#14#33   c01_33    -5
    x#14#33   c01_66    5
    x#14#33   c02_14    -29
    x#14#33   c04_14    1
    x#11#33   c01_33    -5
    x#11#33   c01_42    5
    x#11#33   c02_11    -3
    x#11#33   c04_11    1
    z#33      c01_33    1
    z#33      c01_34    -1
    x#46#34   c01_34    -3
    x#46#34   c01_74    3
    x#46#34   c02_46    -8
    x#46#34   c04_46    1
    x#40#34   c01_34    -3
    x#40#34   c01_75    3
    x#40#34   c02_40    -4
    x#40#34   c04_40    1
    x#37#34   c01_34    -5
    x#37#34   c01_81    5
    x#37#34   c02_37    -20
    x#37#34   c04_37    1
    x#36#34   c01_34    -4
    x#36#34   c01_51    4
    x#36#34   c02_36    -12
    x#36#34   c04_36    1
    x#33#34   c01_34    -4
    x#33#34   c01_47    4
    x#33#34   c02_33    -3
    x#33#34   c04_33    1
    x#25#34   c01_34    -2
    x#25#34   c01_58    2
    x#25#34   c02_25    -31
    x#25#34   c04_25    1
    x#22#34   c01_34    -2
    x#22#34   c01_56    2
    x#22#34   c02_22    -13
    x#22#34   c04_22    1
    x#19#34   c01_34    -3
    x#19#34   c01_53    3
    x#19#34   c02_19    -21
    x#19#34   c04_19    1
    x#11#34   c01_34    -5
    x#11#34   c01_43    5
    x#11#34   c02_11    -4
    x#11#34   c04_11    1
    z#34      c01_34    1
    z#34      c01_35    -1
    x#46#35   c01_35    -3
    x#46#35   c01_75    3
    x#46#35   c02_46    -9
    x#46#35   c04_46    1
    x#40#35   c01_35    -3
    x#40#35   c01_76    3
    x#40#35   c02_40    -5
    x#40#35   c04_40    1
    x#36#35   c01_35    -4
    x#36#35   c01_52    4
    x#36#35   c02_36    -13
    x#36#35   c04_36    1
    x#33#35   c01_35    -4
    x#33#35   c01_48    4
    x#33#35   c02_33    -4
    x#33#35   c04_33    1
    x#25#35   c01_35    -2
    x#25#35   c01_59    2
    x#25#35   c02_25    -32
    x#25#35   c04_25    1
    x#22#35   c01_35    -2
    x#22#35   c01_57    2
    x#22#35   c02_22    -14
    x#22#35   c04_22    1
    x#19#35   c01_35    -3
    x#19#35   c01_54    3
    x#19#35   c02_19    -22
    x#19#35   c04_19    1
    x#11#35   c01_35    -5
    x#11#35   c01_44    5
    x#11#35   c02_11    -5
    x#11#35   c04_11    1
    z#35      c01_35    1
    z#35      c01_36    -1
    x#46#36   c01_36    -3
    x#46#36   c01_76    3
    x#46#36   c02_46    -10
    x#46#36   c04_46    1
    x#40#36   c01_36    -3
    x#40#36   c01_77    3
    x#40#36   c02_40    -6
    x#40#36   c04_40    1
    x#36#36   c01_36    -4
    x#36#36   c01_53    4
    x#36#36   c02_36    -14
    x#36#36   c04_36    1
    x#33#36   c01_36    -4
    x#33#36   c01_49    4
    x#33#36   c02_33    -5
    x#33#36   c04_33    1
    x#25#36   c01_36    -2
    x#25#36   c01_60    2
    x#25#36   c02_25    -33
    x#25#36   c04_25    1
    x#22#36   c01_36    -2
    x#22#36   c01_58    2
    x#22#36   c02_22    -15
    x#22#36   c04_22    1
    x#19#36   c01_36    -3
    x#19#36   c01_55    3
    x#19#36   c02_19    -23
    x#19#36   c04_19    1
    x#11#36   c01_36    -5
    x#11#36   c01_45    5
    x#11#36   c02_11    -6
    x#11#36   c04_11    1
    z#36      c01_36    1
    z#36      c01_37    -1
    x#46#37   c01_37    -3
    x#46#37   c01_77    3
    x#46#37   c02_46    -11
    x#46#37   c04_46    1
    x#40#37   c01_37    -3
    x#40#37   c01_78    3
    x#40#37   c02_40    -7
    x#40#37   c04_40    1
    x#36#37   c01_37    -4
    x#36#37   c01_54    4
    x#36#37   c02_36    -15
    x#36#37   c04_36    1
    x#33#37   c01_37    -4
    x#33#37   c01_50    4
    x#33#37   c02_33    -6
    x#33#37   c04_33    1
    x#25#37   c01_37    -2
    x#25#37   c01_61    2
    x#25#37   c02_25    -34
    x#25#37   c04_25    1
    x#22#37   c01_37    -2
    x#22#37   c01_59    2
    x#22#37   c02_22    -16
    x#22#37   c04_22    1
    x#19#37   c01_37    -3
    x#19#37   c01_56    3
    x#19#37   c02_19    -24
    x#19#37   c04_19    1
    x#11#37   c01_37    -5
    x#11#37   c01_46    5
    x#11#37   c02_11    -7
    x#11#37   c04_11    1
    z#37      c01_37    1
    z#37      c01_38    -1
    x#46#38   c01_38    -3
    x#46#38   c01_78    3
    x#46#38   c02_46    -12
    x#46#38   c04_46    1
    x#40#38   c01_38    -3
    x#40#38   c01_79    3
    x#40#38   c02_40    -8
    x#40#38   c04_40    1
    x#36#38   c01_38    -4
    x#36#38   c01_55    4
    x#36#38   c02_36    -16
    x#36#38   c04_36    1
    x#33#38   c01_38    -4
    x#33#38   c01_51    4
    x#33#38   c02_33    -7
    x#33#38   c04_33    1
    x#25#38   c01_38    -2
    x#25#38   c01_62    2
    x#25#38   c02_25    -35
    x#25#38   c04_25    1
    x#22#38   c01_38    -2
    x#22#38   c01_60    2
    x#22#38   c02_22    -17
    x#22#38   c04_22    1
    x#19#38   c01_38    -3
    x#19#38   c01_57    3
    x#19#38   c02_19    -25
    x#19#38   c04_19    1
    x#11#38   c01_38    -5
    x#11#38   c01_47    5
    x#11#38   c02_11    -8
    x#11#38   c04_11    1
    z#38      c01_38    1
    z#38      c01_39    -1
    x#46#39   c01_39    -3
    x#46#39   c01_79    3
    x#46#39   c02_46    -13
    x#46#39   c04_46    1
    x#40#39   c01_39    -3
    x#40#39   c01_80    3
    x#40#39   c02_40    -9
    x#40#39   c04_40    1
    x#36#39   c01_39    -4
    x#36#39   c01_56    4
    x#36#39   c02_36    -17
    x#36#39   c04_36    1
    x#33#39   c01_39    -4
    x#33#39   c01_52    4
    x#33#39   c02_33    -8
    x#33#39   c04_33    1
    x#25#39   c01_39    -2
    x#25#39   c01_63    2
    x#25#39   c02_25    -36
    x#25#39   c04_25    1
    x#22#39   c01_39    -2
    x#22#39   c01_61    2
    x#22#39   c02_22    -18
    x#22#39   c04_22    1
    x#19#39   c01_39    -3
    x#19#39   c01_58    3
    x#19#39   c02_19    -26
    x#19#39   c04_19    1
    x#11#39   c01_39    -5
    x#11#39   c01_48    5
    x#11#39   c02_11    -9
    x#11#39   c04_11    1
    z#39      c01_39    1
    z#39      c01_40    -1
    x#46#40   c01_40    -3
    x#46#40   c01_80    3
    x#46#40   c02_46    -14
    x#46#40   c04_46    1
    x#40#40   c01_40    -3
    x#40#40   c01_81    3
    x#40#40   c02_40    -10
    x#40#40   c04_40    1
    x#36#40   c01_40    -4
    x#36#40   c01_57    4
    x#36#40   c02_36    -18
    x#36#40   c04_36    1
    x#33#40   c01_40    -4
    x#33#40   c01_53    4
    x#33#40   c02_33    -9
    x#33#40   c04_33    1
    x#25#40   c01_40    -2
    x#25#40   c01_64    2
    x#25#40   c02_25    -37
    x#25#40   c04_25    1
    x#22#40   c01_40    -2
    x#22#40   c01_62    2
    x#22#40   c02_22    -19
    x#22#40   c04_22    1
    x#19#40   c01_40    -3
    x#19#40   c01_59    3
    x#19#40   c02_19    -27
    x#19#40   c04_19    1
    x#11#40   c01_40    -5
    x#11#40   c01_49    5
    x#11#40   c02_11    -10
    x#11#40   c04_11    1
    z#40      c01_40    1
    z#40      c01_41    -1
    x#46#41   c01_41    -3
    x#46#41   c01_81    3
    x#46#41   c02_46    -15
    x#46#41   c04_46    1
    x#40#41   c01_41    -3
    x#40#41   c01_82    3
    x#40#41   c02_40    -11
    x#40#41   c04_40    1
    x#36#41   c01_41    -4
    x#36#41   c01_58    4
    x#36#41   c02_36    -19
    x#36#41   c04_36    1
    x#33#41   c01_41    -4
    x#33#41   c01_54    4
    x#33#41   c02_33    -10
    x#33#41   c04_33    1
    x#25#41   c01_41    -2
    x#25#41   c01_65    2
    x#25#41   c02_25    -38
    x#25#41   c04_25    1
    x#22#41   c01_41    -2
    x#22#41   c01_63    2
    x#22#41   c02_22    -20
    x#22#41   c04_22    1
    x#19#41   c01_41    -3
    x#19#41   c01_60    3
    x#19#41   c02_19    -28
    x#19#41   c04_19    1
    x#16#41   c01_41    -3
    x#16#41   c01_77    3
    x#16#41   c04_16    1
    x#11#41   c01_41    -5
    x#11#41   c01_50    5
    x#11#41   c02_11    -11
    x#11#41   c04_11    1
    z#41      c01_41    1
    z#41      c01_42    -1
    x#46#42   c01_42    -3
    x#46#42   c01_82    3
    x#46#42   c02_46    -16
    x#46#42   c04_46    1
    x#40#42   c01_42    -3
    x#40#42   c01_83    3
    x#40#42   c02_40    -12
    x#40#42   c04_40    1
    x#36#42   c01_42    -4
    x#36#42   c01_59    4
    x#36#42   c02_36    -20
    x#36#42   c04_36    1
    x#33#42   c01_42    -4
    x#33#42   c01_55    4
    x#33#42   c02_33    -11
    x#33#42   c04_33    1
    x#25#42   c01_42    -2
    x#25#42   c01_66    2
    x#25#42   c02_25    -39
    x#25#42   c04_25    1
    x#22#42   c01_42    -2
    x#22#42   c01_64    2
    x#22#42   c02_22    -21
    x#22#42   c04_22    1
    x#19#42   c01_42    -3
    x#19#42   c01_61    3
    x#19#42   c02_19    -29
    x#19#42   c04_19    1
    x#16#42   c01_42    -3
    x#16#42   c01_78    3
    x#16#42   c02_16    -1
    x#16#42   c04_16    1
    x#11#42   c01_42    -5
    x#11#42   c01_51    5
    x#11#42   c02_11    -12
    x#11#42   c04_11    1
    z#42      c01_42    1
    z#42      c01_43    -1
    x#46#43   c01_43    -3
    x#46#43   c01_83    3
    x#46#43   c02_46    -17
    x#46#43   c04_46    1
    x#40#43   c01_43    -3
    x#40#43   c01_84    3
    x#40#43   c02_40    -13
    x#40#43   c04_40    1
    x#36#43   c01_43    -4
    x#36#43   c01_60    4
    x#36#43   c02_36    -21
    x#36#43   c04_36    1
    x#33#43   c01_43    -4
    x#33#43   c01_56    4
    x#33#43   c02_33    -12
    x#33#43   c04_33    1
    x#25#43   c01_43    -2
    x#25#43   c01_67    2
    x#25#43   c02_25    -40
    x#25#43   c04_25    1
    x#22#43   c01_43    -2
    x#22#43   c01_65    2
    x#22#43   c02_22    -22
    x#22#43   c04_22    1
    x#19#43   c01_43    -3
    x#19#43   c01_62    3
    x#19#43   c02_19    -30
    x#19#43   c04_19    1
    x#16#43   c01_43    -3
    x#16#43   c01_79    3
    x#16#43   c02_16    -2
    x#16#43   c04_16    1
    x#11#43   c01_43    -5
    x#11#43   c01_52    5
    x#11#43   c02_11    -13
    x#11#43   c04_11    1
    z#43      c01_43    1
    z#43      c01_44    -1
    x#46#44   c01_44    -3
    x#46#44   c01_84    3
    x#46#44   c02_46    -18
    x#46#44   c04_46    1
    x#40#44   c01_44    -3
    x#40#44   c01_85    3
    x#40#44   c02_40    -14
    x#40#44   c04_40    1
    x#36#44   c01_44    -4
    x#36#44   c01_61    4
    x#36#44   c02_36    -22
    x#36#44   c04_36    1
    x#33#44   c01_44    -4
    x#33#44   c01_57    4
    x#33#44   c02_33    -13
    x#33#44   c04_33    1
    x#25#44   c01_44    -2
    x#25#44   c01_68    2
    x#25#44   c02_25    -41
    x#25#44   c04_25    1
    x#22#44   c01_44    -2
    x#22#44   c01_66    2
    x#22#44   c02_22    -23
    x#22#44   c04_22    1
    x#19#44   c01_44    -3
    x#19#44   c01_63    3
    x#19#44   c02_19    -31
    x#19#44   c04_19    1
    x#16#44   c01_44    -3
    x#16#44   c01_80    3
    x#16#44   c02_16    -3
    x#16#44   c04_16    1
    x#11#44   c01_44    -5
    x#11#44   c01_53    5
    x#11#44   c02_11    -14
    x#11#44   c04_11    1
    z#44      c01_44    1
    z#44      c01_45    -1
    x#48#45   c01_45    -2
    x#48#45   c01_61    2
    x#48#45   c04_48    1
    x#46#45   c01_45    -3
    x#46#45   c01_85    3
    x#46#45   c02_46    -19
    x#46#45   c04_46    1
    x#40#45   c01_45    -3
    x#40#45   c01_86    3
    x#40#45   c02_40    -15
    x#40#45   c04_40    1
    x#36#45   c01_45    -4
    x#36#45   c01_62    4
    x#36#45   c02_36    -23
    x#36#45   c04_36    1
    x#33#45   c01_45    -4
    x#33#45   c01_58    4
    x#33#45   c02_33    -14
    x#33#45   c04_33    1
    x#25#45   c01_45    -2
    x#25#45   c01_69    2
    x#25#45   c02_25    -42
    x#25#45   c04_25    1
    x#22#45   c01_45    -2
    x#22#45   c01_67    2
    x#22#45   c02_22    -24
    x#22#45   c04_22    1
    x#19#45   c01_45    -3
    x#19#45   c01_64    3
    x#19#45   c02_19    -32
    x#19#45   c04_19    1
    x#16#45   c01_45    -3
    x#16#45   c01_81    3
    x#16#45   c02_16    -4
    x#16#45   c04_16    1
    x#11#45   c01_45    -5
    x#11#45   c01_54    5
    x#11#45   c02_11    -15
    x#11#45   c04_11    1
    z#45      c01_45    1
    z#45      c01_46    -1
    x#48#46   c01_46    -2
    x#48#46   c01_62    2
    x#48#46   c02_48    -1
    x#48#46   c04_48    1
    x#46#46   c01_46    -3
    x#46#46   c01_86    3
    x#46#46   c02_46    -20
    x#46#46   c04_46    1
    x#40#46   c01_46    -3
    x#40#46   c01_87    3
    x#40#46   c02_40    -16
    x#40#46   c04_40    1
    x#36#46   c01_46    -4
    x#36#46   c01_63    4
    x#36#46   c02_36    -24
    x#36#46   c04_36    1
    x#33#46   c01_46    -4
    x#33#46   c01_59    4
    x#33#46   c02_33    -15
    x#33#46   c04_33    1
    x#25#46   c01_46    -2
    x#25#46   c01_70    2
    x#25#46   c02_25    -43
    x#25#46   c04_25    1
    x#22#46   c01_46    -2
    x#22#46   c01_68    2
    x#22#46   c02_22    -25
    x#22#46   c04_22    1
    x#19#46   c01_46    -3
    x#19#46   c01_65    3
    x#19#46   c02_19    -33
    x#19#46   c04_19    1
    x#16#46   c01_46    -3
    x#16#46   c01_82    3
    x#16#46   c02_16    -5
    x#16#46   c04_16    1
    x#15#46   c01_46    -2
    x#15#46   c01_66    2
    x#15#46   c04_15    1
    x#11#46   c01_46    -5
    x#11#46   c01_55    5
    x#11#46   c02_11    -16
    x#11#46   c04_11    1
    z#46      c01_46    1
    z#46      c01_47    -1
    x#48#47   c01_47    -2
    x#48#47   c01_63    2
    x#48#47   c02_48    -2
    x#48#47   c04_48    1
    x#46#47   c01_47    -3
    x#46#47   c01_87    3
    x#46#47   c02_46    -21
    x#46#47   c04_46    1
    x#40#47   c01_47    -3
    x#40#47   c01_88    3
    x#40#47   c02_40    -17
    x#40#47   c04_40    1
    x#36#47   c01_47    -4
    x#36#47   c01_64    4
    x#36#47   c02_36    -25
    x#36#47   c04_36    1
    x#33#47   c01_47    -4
    x#33#47   c01_60    4
    x#33#47   c02_33    -16
    x#33#47   c04_33    1
    x#25#47   c01_47    -2
    x#25#47   c01_71    2
    x#25#47   c02_25    -44
    x#25#47   c04_25    1
    x#22#47   c01_47    -2
    x#22#47   c01_69    2
    x#22#47   c02_22    -26
    x#22#47   c04_22    1
    x#19#47   c01_47    -3
    x#19#47   c01_66    3
    x#19#47   c02_19    -34
    x#19#47   c04_19    1
    x#16#47   c01_47    -3
    x#16#47   c01_83    3
    x#16#47   c02_16    -6
    x#16#47   c04_16    1
    x#15#47   c01_47    -2
    x#15#47   c01_67    2
    x#15#47   c02_15    -1
    x#15#47   c04_15    1
    x#11#47   c01_47    -5
    x#11#47   c01_56    5
    x#11#47   c02_11    -17
    x#11#47   c04_11    1
    z#47      c01_47    1
    z#47      c01_48    -1
    x#48#48   c01_48    -2
    x#48#48   c01_64    2
    x#48#48   c02_48    -3
    x#48#48   c04_48    1
    x#46#48   c01_48    -3
    x#46#48   c01_88    3
    x#46#48   c02_46    -22
    x#46#48   c04_46    1
    x#40#48   c01_48    -3
    x#40#48   c01_89    3
    x#40#48   c02_40    -18
    x#40#48   c04_40    1
    x#36#48   c01_48    -4
    x#36#48   c01_65    4
    x#36#48   c02_36    -26
    x#36#48   c04_36    1
    x#33#48   c01_48    -4
    x#33#48   c01_61    4
    x#33#48   c02_33    -17
    x#33#48   c04_33    1
    x#25#48   c01_48    -2
    x#25#48   c01_72    2
    x#25#48   c02_25    -45
    x#25#48   c04_25    1
    x#24#48   c01_48    -1
    x#24#48   c01_79    1
    x#24#48   c04_24    1
    x#19#48   c01_48    -3
    x#19#48   c01_67    3
    x#19#48   c02_19    -35
    x#19#48   c04_19    1
    x#16#48   c01_48    -3
    x#16#48   c01_84    3
    x#16#48   c02_16    -7
    x#16#48   c04_16    1
    x#15#48   c01_48    -2
    x#15#48   c01_68    2
    x#15#48   c02_15    -2
    x#15#48   c04_15    1
    x#11#48   c01_48    -5
    x#11#48   c01_57    5
    x#11#48   c02_11    -18
    x#11#48   c04_11    1
    z#48      c01_48    1
    z#48      c01_49    -1
    x#48#49   c01_49    -2
    x#48#49   c01_65    2
    x#48#49   c02_48    -4
    x#48#49   c04_48    1
    x#46#49   c01_49    -3
    x#46#49   c01_89    3
    x#46#49   c02_46    -23
    x#46#49   c04_46    1
    x#40#49   c01_49    -3
    x#40#49   c01_90    3
    x#40#49   c02_40    -19
    x#40#49   c04_40    1
    x#36#49   c01_49    -4
    x#36#49   c01_66    4
    x#36#49   c02_36    -27
    x#36#49   c04_36    1
    x#33#49   c01_49    -4
    x#33#49   c01_62    4
    x#33#49   c02_33    -18
    x#33#49   c04_33    1
    x#24#49   c01_49    -1
    x#24#49   c01_80    1
    x#24#49   c02_24    -1
    x#24#49   c04_24    1
    x#19#49   c01_49    -3
    x#19#49   c01_68    3
    x#19#49   c02_19    -36
    x#19#49   c04_19    1
    x#16#49   c01_49    -3
    x#16#49   c01_85    3
    x#16#49   c02_16    -8
    x#16#49   c04_16    1
    x#15#49   c01_49    -2
    x#15#49   c01_69    2
    x#15#49   c02_15    -3
    x#15#49   c04_15    1
    x#11#49   c01_49    -5
    x#11#49   c01_58    5
    x#11#49   c02_11    -19
    x#11#49   c04_11    1
    z#49      c01_49    1
    z#49      c01_50    -1
    x#48#50   c01_50    -2
    x#48#50   c01_66    2
    x#48#50   c02_48    -5
    x#48#50   c04_48    1
    x#46#50   c01_50    -3
    x#46#50   c01_90    3
    x#46#50   c02_46    -24
    x#46#50   c04_46    1
    x#40#50   c01_50    -3
    x#40#50   c01_91    3
    x#40#50   c02_40    -20
    x#40#50   c04_40    1
    x#36#50   c01_50    -4
    x#36#50   c01_67    4
    x#36#50   c02_36    -28
    x#36#50   c04_36    1
    x#33#50   c01_50    -4
    x#33#50   c01_63    4
    x#33#50   c02_33    -19
    x#33#50   c04_33    1
    x#24#50   c01_50    -1
    x#24#50   c01_81    1
    x#24#50   c02_24    -2
    x#24#50   c04_24    1
    x#19#50   c01_50    -3
    x#19#50   c01_69    3
    x#19#50   c02_19    -37
    x#19#50   c04_19    1
    x#16#50   c01_50    -3
    x#16#50   c01_86    3
    x#16#50   c02_16    -9
    x#16#50   c04_16    1
    x#15#50   c01_50    -2
    x#15#50   c01_70    2
    x#15#50   c02_15    -4
    x#15#50   c04_15    1
    z#50      c01_50    1
    z#50      c01_51    -1
    x#48#51   c01_51    -2
    x#48#51   c01_67    2
    x#48#51   c02_48    -6
    x#48#51   c04_48    1
    x#46#51   c01_51    -3
    x#46#51   c01_91    3
    x#46#51   c02_46    -25
    x#46#51   c04_46    1
    x#45#51   c01_51    -1
    x#45#51   c01_60    1
    x#45#51   c04_45    1
    x#36#51   c01_51    -4
    x#36#51   c01_68    4
    x#36#51   c02_36    -29
    x#36#51   c04_36    1
    x#33#51   c01_51    -4
    x#33#51   c01_64    4
    x#33#51   c02_33    -20
    x#33#51   c04_33    1
    x#24#51   c01_51    -1
    x#24#51   c01_82    1
    x#24#51   c02_24    -3
    x#24#51   c04_24    1
    x#19#51   c01_51    -3
    x#19#51   c01_70    3
    x#19#51   c02_19    -38
    x#19#51   c04_19    1
    x#16#51   c01_51    -3
    x#16#51   c01_87    3
    x#16#51   c02_16    -10
    x#16#51   c04_16    1
    x#15#51   c01_51    -2
    x#15#51   c01_71    2
    x#15#51   c02_15    -5
    x#15#51   c04_15    1
    z#51      c01_51    1
    z#51      c01_52    -1
    x#48#52   c01_52    -2
    x#48#52   c01_68    2
    x#48#52   c02_48    -7
    x#48#52   c04_48    1
    x#46#52   c01_52    -3
    x#46#52   c01_92    3
    x#46#52   c02_46    -26
    x#46#52   c04_46    1
    x#45#52   c01_52    -1
    x#45#52   c01_61    1
    x#45#52   c02_45    -1
    x#45#52   c04_45    1
    x#36#52   c01_52    -4
    x#36#52   c01_69    4
    x#36#52   c02_36    -30
    x#36#52   c04_36    1
    x#33#52   c01_52    -4
    x#33#52   c01_65    4
    x#33#52   c02_33    -21
    x#33#52   c04_33    1
    x#24#52   c01_52    -1
    x#24#52   c01_83    1
    x#24#52   c02_24    -4
    x#24#52   c04_24    1
    x#23#52   c01_52    -4
    x#23#52   c01_110   4
    x#23#52   c04_23    1
    x#19#52   c01_52    -3
    x#19#52   c01_71    3
    x#19#52   c02_19    -39
    x#19#52   c04_19    1
    x#16#52   c01_52    -3
    x#16#52   c01_88    3
    x#16#52   c02_16    -11
    x#16#52   c04_16    1
    x#15#52   c01_52    -2
    x#15#52   c01_72    2
    x#15#52   c02_15    -6
    x#15#52   c04_15    1
    z#52      c01_52    1
    z#52      c01_53    -1
    x#48#53   c01_53    -2
    x#48#53   c01_69    2
    x#48#53   c02_48    -8
    x#48#53   c04_48    1
    x#46#53   c01_53    -3
    x#46#53   c01_93    3
    x#46#53   c02_46    -27
    x#46#53   c04_46    1
    x#45#53   c01_53    -1
    x#45#53   c01_62    1
    x#45#53   c02_45    -2
    x#45#53   c04_45    1
    x#36#53   c01_53    -4
    x#36#53   c01_70    4
    x#36#53   c02_36    -31
    x#36#53   c04_36    1
    x#33#53   c01_53    -4
    x#33#53   c01_66    4
    x#33#53   c02_33    -22
    x#33#53   c04_33    1
    x#24#53   c01_53    -1
    x#24#53   c01_84    1
    x#24#53   c02_24    -5
    x#24#53   c04_24    1
    x#23#53   c01_53    -4
    x#23#53   c01_111   4
    x#23#53   c02_23    -1
    x#23#53   c04_23    1
    x#19#53   c01_53    -3
    x#19#53   c01_72    3
    x#19#53   c02_19    -40
    x#19#53   c04_19    1
    x#16#53   c01_53    -3
    x#16#53   c01_89    3
    x#16#53   c02_16    -12
    x#16#53   c04_16    1
    x#15#53   c01_53    -2
    x#15#53   c01_73    2
    x#15#53   c02_15    -7
    x#15#53   c04_15    1
    z#53      c01_53    1
    z#53      c01_54    -1
    x#48#54   c01_54    -2
    x#48#54   c01_70    2
    x#48#54   c02_48    -9
    x#48#54   c04_48    1
    x#46#54   c01_54    -3
    x#46#54   c01_94    3
    x#46#54   c02_46    -28
    x#46#54   c04_46    1
    x#45#54   c01_54    -1
    x#45#54   c01_63    1
    x#45#54   c02_45    -3
    x#45#54   c04_45    1
    x#36#54   c01_54    -4
    x#36#54   c01_71    4
    x#36#54   c02_36    -32
    x#36#54   c04_36    1
    x#33#54   c01_54    -4
    x#33#54   c01_67    4
    x#33#54   c02_33    -23
    x#33#54   c04_33    1
    x#24#54   c01_54    -1
    x#24#54   c01_85    1
    x#24#54   c02_24    -6
    x#24#54   c04_24    1
    x#23#54   c01_54    -4
    x#23#54   c01_112   4
    x#23#54   c02_23    -2
    x#23#54   c04_23    1
    x#19#54   c01_54    -3
    x#19#54   c01_73    3
    x#19#54   c02_19    -41
    x#19#54   c04_19    1
    x#16#54   c01_54    -3
    x#16#54   c01_90    3
    x#16#54   c02_16    -13
    x#16#54   c04_16    1
    x#15#54   c01_54    -2
    x#15#54   c01_74    2
    x#15#54   c02_15    -8
    x#15#54   c04_15    1
    z#54      c01_54    1
    z#54      c01_55    -1
    x#48#55   c01_55    -2
    x#48#55   c01_71    2
    x#48#55   c02_48    -10
    x#48#55   c04_48    1
    x#45#55   c01_55    -1
    x#45#55   c01_64    1
    x#45#55   c02_45    -4
    x#45#55   c04_45    1
    x#36#55   c01_55    -4
    x#36#55   c01_72    4
    x#36#55   c02_36    -33
    x#36#55   c04_36    1
    x#24#55   c01_55    -1
    x#24#55   c01_86    1
    x#24#55   c02_24    -7
    x#24#55   c04_24    1
    x#23#55   c01_55    -4
    x#23#55   c01_113   4
    x#23#55   c02_23    -3
    x#23#55   c04_23    1
    x#19#55   c01_55    -3
    x#19#55   c01_74    3
    x#19#55   c02_19    -42
    x#19#55   c04_19    1
    x#16#55   c01_55    -3
    x#16#55   c01_91    3
    x#16#55   c02_16    -14
    x#16#55   c04_16    1
    x#15#55   c01_55    -2
    x#15#55   c01_75    2
    x#15#55   c02_15    -9
    x#15#55   c04_15    1
    z#55      c01_55    1
    z#55      c01_56    -1
    x#48#56   c01_56    -2
    x#48#56   c01_72    2
    x#48#56   c02_48    -11
    x#48#56   c04_48    1
    x#45#56   c01_56    -1
    x#45#56   c01_65    1
    x#45#56   c02_45    -5
    x#45#56   c04_45    1
    x#36#56   c01_56    -4
    x#36#56   c01_73    4
    x#36#56   c02_36    -34
    x#36#56   c04_36    1
    x#24#56   c01_56    -1
    x#24#56   c01_87    1
    x#24#56   c02_24    -8
    x#24#56   c04_24    1
    x#23#56   c01_56    -4
    x#23#56   c01_114   4
    x#23#56   c02_23    -4
    x#23#56   c04_23    1
    x#19#56   c01_56    -3
    x#19#56   c01_75    3
    x#19#56   c02_19    -43
    x#19#56   c04_19    1
    x#16#56   c01_56    -3
    x#16#56   c01_92    3
    x#16#56   c02_16    -15
    x#16#56   c04_16    1
    x#15#56   c01_56    -2
    x#15#56   c01_76    2
    x#15#56   c02_15    -10
    x#15#56   c04_15    1
    x#7#56    c01_56    -5
    x#7#56    c01_96    5
    x#7#56    c04_7     1
    x#3#56    c01_56    -4
    x#3#56    c01_67    4
    x#3#56    c04_3     1
    z#56      c01_56    1
    z#56      c01_57    -1
    x#48#57   c01_57    -2
    x#48#57   c01_73    2
    x#48#57   c02_48    -12
    x#48#57   c04_48    1
    x#45#57   c01_57    -1
    x#45#57   c01_66    1
    x#45#57   c02_45    -6
    x#45#57   c04_45    1
    x#36#57   c01_57    -4
    x#36#57   c01_74    4
    x#36#57   c02_36    -35
    x#36#57   c04_36    1
    x#24#57   c01_57    -1
    x#24#57   c01_88    1
    x#24#57   c02_24    -9
    x#24#57   c04_24    1
    x#23#57   c01_57    -4
    x#23#57   c01_115   4
    x#23#57   c02_23    -5
    x#23#57   c04_23    1
    x#19#57   c01_57    -3
    x#19#57   c01_76    3
    x#19#57   c02_19    -44
    x#19#57   c04_19    1
    x#16#57   c01_57    -3
    x#16#57   c01_93    3
    x#16#57   c02_16    -16
    x#16#57   c04_16    1
    x#15#57   c01_57    -2
    x#15#57   c01_77    2
    x#15#57   c02_15    -11
    x#15#57   c04_15    1
    x#7#57    c01_57    -5
    x#7#57    c01_97    5
    x#7#57    c02_7     -1
    x#7#57    c04_7     1
    x#3#57    c01_57    -4
    x#3#57    c01_68    4
    x#3#57    c02_3     -1
    x#3#57    c04_3     1
    z#57      c01_57    1
    z#57      c01_58    -1
    x#48#58   c01_58    -2
    x#48#58   c01_74    2
    x#48#58   c02_48    -13
    x#48#58   c04_48    1
    x#45#58   c01_58    -1
    x#45#58   c01_67    1
    x#45#58   c02_45    -7
    x#45#58   c04_45    1
    x#36#58   c01_58    -4
    x#36#58   c01_75    4
    x#36#58   c02_36    -36
    x#36#58   c04_36    1
    x#24#58   c01_58    -1
    x#24#58   c01_89    1
    x#24#58   c02_24    -10
    x#24#58   c04_24    1
    x#23#58   c01_58    -4
    x#23#58   c01_116   4
    x#23#58   c02_23    -6
    x#23#58   c04_23    1
    x#19#58   c01_58    -3
    x#19#58   c01_77    3
    x#19#58   c02_19    -45
    x#19#58   c04_19    1
    x#16#58   c01_58    -3
    x#16#58   c01_94    3
    x#16#58   c02_16    -17
    x#16#58   c04_16    1
    x#15#58   c01_58    -2
    x#15#58   c01_78    2
    x#15#58   c02_15    -12
    x#15#58   c04_15    1
    x#7#58    c01_58    -5
    x#7#58    c01_98    5
    x#7#58    c02_7     -2
    x#7#58    c04_7     1
    x#3#58    c01_58    -4
    x#3#58    c01_69    4
    x#3#58    c02_3     -2
    x#3#58    c04_3     1
    z#58      c01_58    1
    z#58      c01_59    -1
    x#48#59   c01_59    -2
    x#48#59   c01_75    2
    x#48#59   c02_48    -14
    x#48#59   c04_48    1
    x#45#59   c01_59    -1
    x#45#59   c01_68    1
    x#45#59   c02_45    -8
    x#45#59   c04_45    1
    x#36#59   c01_59    -4
    x#36#59   c01_76    4
    x#36#59   c02_36    -37
    x#36#59   c04_36    1
    x#24#59   c01_59    -1
    x#24#59   c01_90    1
    x#24#59   c02_24    -11
    x#24#59   c04_24    1
    x#23#59   c01_59    -4
    x#23#59   c01_117   4
    x#23#59   c02_23    -7
    x#23#59   c04_23    1
    x#19#59   c01_59    -3
    x#19#59   c01_78    3
    x#19#59   c02_19    -46
    x#19#59   c04_19    1
    x#16#59   c01_59    -3
    x#16#59   c01_95    3
    x#16#59   c02_16    -18
    x#16#59   c04_16    1
    x#15#59   c01_59    -2
    x#15#59   c01_79    2
    x#15#59   c02_15    -13
    x#15#59   c04_15    1
    x#7#59    c01_59    -5
    x#7#59    c01_99    5
    x#7#59    c02_7     -3
    x#7#59    c04_7     1
    x#3#59    c01_59    -4
    x#3#59    c01_70    4
    x#3#59    c02_3     -3
    x#3#59    c04_3     1
    z#59      c01_59    1
    z#59      c01_60    -1
    x#48#60   c01_60    -2
    x#48#60   c01_76    2
    x#48#60   c02_48    -15
    x#48#60   c04_48    1
    x#45#60   c01_60    -1
    x#45#60   c01_69    1
    x#45#60   c02_45    -9
    x#45#60   c04_45    1
    x#44#60   c01_60    -2
    x#44#60   c01_82    2
    x#44#60   c04_44    1
    x#36#60   c01_60    -4
    x#36#60   c01_77    4
    x#36#60   c02_36    -38
    x#36#60   c04_36    1
    x#24#60   c01_60    -1
    x#24#60   c01_91    1
    x#24#60   c02_24    -12
    x#24#60   c04_24    1
    x#23#60   c01_60    -4
    x#23#60   c01_118   4
    x#23#60   c02_23    -8
    x#23#60   c04_23    1
    x#19#60   c01_60    -3
    x#19#60   c01_79    3
    x#19#60   c02_19    -47
    x#19#60   c04_19    1
    x#16#60   c01_60    -3
    x#16#60   c01_96    3
    x#16#60   c02_16    -19
    x#16#60   c04_16    1
    x#15#60   c01_60    -2
    x#15#60   c01_80    2
    x#15#60   c02_15    -14
    x#15#60   c04_15    1
    x#7#60    c01_60    -5
    x#7#60    c01_100   5
    x#7#60    c02_7     -4
    x#7#60    c04_7     1
    x#3#60    c01_60    -4
    x#3#60    c01_71    4
    x#3#60    c02_3     -4
    x#3#60    c04_3     1
    z#60      c01_60    1
    z#60      c01_61    -1
    x#48#61   c01_61    -2
    x#48#61   c01_77    2
    x#48#61   c02_48    -16
    x#48#61   c04_48    1
    x#45#61   c01_61    -1
    x#45#61   c01_70    1
    x#45#61   c02_45    -10
    x#45#61   c04_45    1
    x#44#61   c01_61    -2
    x#44#61   c01_83    2
    x#44#61   c02_44    -1
    x#44#61   c04_44    1
    x#36#61   c01_61    -4
    x#36#61   c01_78    4
    x#36#61   c02_36    -39
    x#36#61   c04_36    1
    x#24#61   c01_61    -1
    x#24#61   c01_92    1
    x#24#61   c02_24    -13
    x#24#61   c04_24    1
    x#23#61   c01_61    -4
    x#23#61   c01_119   4
    x#23#61   c02_23    -9
    x#23#61   c04_23    1
    x#21#61   c01_61    -5
    x#21#61   c01_99    5
    x#21#61   c04_21    1
    x#19#61   c01_61    -3
    x#19#61   c01_80    3
    x#19#61   c02_19    -48
    x#19#61   c04_19    1
    x#16#61   c01_61    -3
    x#16#61   c01_97    3
    x#16#61   c02_16    -20
    x#16#61   c04_16    1
    x#15#61   c01_61    -2
    x#15#61   c01_81    2
    x#15#61   c02_15    -15
    x#15#61   c04_15    1
    x#7#61    c01_61    -5
    x#7#61    c01_101   5
    x#7#61    c02_7     -5
    x#7#61    c04_7     1
    x#3#61    c01_61    -4
    x#3#61    c01_72    4
    x#3#61    c02_3     -5
    x#3#61    c04_3     1
    z#61      c01_61    1
    z#61      c01_62    -1
    x#48#62   c01_62    -2
    x#48#62   c01_78    2
    x#48#62   c02_48    -17
    x#48#62   c04_48    1
    x#45#62   c01_62    -1
    x#45#62   c01_71    1
    x#45#62   c02_45    -11
    x#45#62   c04_45    1
    x#44#62   c01_62    -2
    x#44#62   c01_84    2
    x#44#62   c02_44    -2
    x#44#62   c04_44    1
    x#36#62   c01_62    -4
    x#36#62   c01_79    4
    x#36#62   c02_36    -40
    x#36#62   c04_36    1
    x#24#62   c01_62    -1
    x#24#62   c01_93    1
    x#24#62   c02_24    -14
    x#24#62   c04_24    1
    x#23#62   c01_62    -4
    x#23#62   c01_120   4
    x#23#62   c02_23    -10
    x#23#62   c04_23    1
    x#21#62   c01_62    -5
    x#21#62   c01_100   5
    x#21#62   c02_21    -1
    x#21#62   c04_21    1
    x#19#62   c01_62    -3
    x#19#62   c01_81    3
    x#19#62   c02_19    -49
    x#19#62   c04_19    1
    x#16#62   c01_62    -3
    x#16#62   c01_98    3
    x#16#62   c02_16    -21
    x#16#62   c04_16    1
    x#15#62   c01_62    -2
    x#15#62   c01_82    2
    x#15#62   c02_15    -16
    x#15#62   c04_15    1
    x#7#62    c01_62    -5
    x#7#62    c01_102   5
    x#7#62    c02_7     -6
    x#7#62    c04_7     1
    x#3#62    c01_62    -4
    x#3#62    c01_73    4
    x#3#62    c02_3     -6
    x#3#62    c04_3     1
    z#62      c01_62    1
    z#62      c01_63    -1
    x#48#63   c01_63    -2
    x#48#63   c01_79    2
    x#48#63   c02_48    -18
    x#48#63   c04_48    1
    x#45#63   c01_63    -1
    x#45#63   c01_72    1
    x#45#63   c02_45    -12
    x#45#63   c04_45    1
    x#44#63   c01_63    -2
    x#44#63   c01_85    2
    x#44#63   c02_44    -3
    x#44#63   c04_44    1
    x#36#63   c01_63    -4
    x#36#63   c01_80    4
    x#36#63   c02_36    -41
    x#36#63   c04_36    1
    x#24#63   c01_63    -1
    x#24#63   c01_94    1
    x#24#63   c02_24    -15
    x#24#63   c04_24    1
    x#23#63   c01_63    -4
    x#23#63   c01_121   4
    x#23#63   c02_23    -11
    x#23#63   c04_23    1
    x#21#63   c01_63    -5
    x#21#63   c01_101   5
    x#21#63   c02_21    -2
    x#21#63   c04_21    1
    x#19#63   c01_63    -3
    x#19#63   c01_82    3
    x#19#63   c02_19    -50
    x#19#63   c04_19    1
    x#16#63   c01_63    -3
    x#16#63   c01_99    3
    x#16#63   c02_16    -22
    x#16#63   c04_16    1
    x#15#63   c01_63    -2
    x#15#63   c01_83    2
    x#15#63   c02_15    -17
    x#15#63   c04_15    1
    x#7#63    c01_63    -5
    x#7#63    c01_103   5
    x#7#63    c02_7     -7
    x#7#63    c04_7     1
    x#3#63    c01_63    -4
    x#3#63    c01_74    4
    x#3#63    c02_3     -7
    x#3#63    c04_3     1
    z#63      c01_63    1
    z#63      c01_64    -1
    x#48#64   c01_64    -2
    x#48#64   c01_80    2
    x#48#64   c02_48    -19
    x#48#64   c04_48    1
    x#45#64   c01_64    -1
    x#45#64   c01_73    1
    x#45#64   c02_45    -13
    x#45#64   c04_45    1
    x#44#64   c01_64    -2
    x#44#64   c01_86    2
    x#44#64   c02_44    -4
    x#44#64   c04_44    1
    x#36#64   c01_64    -4
    x#36#64   c01_81    4
    x#36#64   c02_36    -42
    x#36#64   c04_36    1
    x#24#64   c01_64    -1
    x#24#64   c01_95    1
    x#24#64   c02_24    -16
    x#24#64   c04_24    1
    x#23#64   c01_64    -4
    x#23#64   c01_122   4
    x#23#64   c02_23    -12
    x#23#64   c04_23    1
    x#21#64   c01_64    -5
    x#21#64   c01_102   5
    x#21#64   c02_21    -3
    x#21#64   c04_21    1
    x#19#64   c01_64    -3
    x#19#64   c01_83    3
    x#19#64   c02_19    -51
    x#19#64   c04_19    1
    x#16#64   c01_64    -3
    x#16#64   c01_100   3
    x#16#64   c02_16    -23
    x#16#64   c04_16    1
    x#15#64   c01_64    -2
    x#15#64   c01_84    2
    x#15#64   c02_15    -18
    x#15#64   c04_15    1
    x#7#64    c01_64    -5
    x#7#64    c01_104   5
    x#7#64    c02_7     -8
    x#7#64    c04_7     1
    x#3#64    c01_64    -4
    x#3#64    c01_75    4
    x#3#64    c02_3     -8
    x#3#64    c04_3     1
    z#64      c01_64    1
    z#64      c01_65    -1
    x#48#65   c01_65    -2
    x#48#65   c01_81    2
    x#48#65   c02_48    -20
    x#48#65   c04_48    1
    x#44#65   c01_65    -2
    x#44#65   c01_87    2
    x#44#65   c02_44    -5
    x#44#65   c04_44    1
    x#36#65   c01_65    -4
    x#36#65   c01_82    4
    x#36#65   c02_36    -43
    x#36#65   c04_36    1
    x#24#65   c01_65    -1
    x#24#65   c01_96    1
    x#24#65   c02_24    -17
    x#24#65   c04_24    1
    x#23#65   c01_65    -4
    x#23#65   c01_123   4
    x#23#65   c02_23    -13
    x#23#65   c04_23    1
    x#21#65   c01_65    -5
    x#21#65   c01_103   5
    x#21#65   c02_21    -4
    x#21#65   c04_21    1
    x#19#65   c01_65    -3
    x#19#65   c01_84    3
    x#19#65   c02_19    -52
    x#19#65   c04_19    1
    x#16#65   c01_65    -3
    x#16#65   c01_101   3
    x#16#65   c02_16    -24
    x#16#65   c04_16    1
    x#15#65   c01_65    -2
    x#15#65   c01_85    2
    x#15#65   c02_15    -19
    x#15#65   c04_15    1
    x#7#65    c01_65    -5
    x#7#65    c01_105   5
    x#7#65    c02_7     -9
    x#7#65    c04_7     1
    x#3#65    c01_65    -4
    x#3#65    c01_76    4
    x#3#65    c02_3     -9
    x#3#65    c04_3     1
    x#2#65    c01_65    -1
    x#2#65    c01_88    1
    x#2#65    c04_2     1
    z#65      c01_65    1
    z#65      c01_66    -1
    x#48#66   c01_66    -2
    x#48#66   c01_82    2
    x#48#66   c02_48    -21
    x#48#66   c04_48    1
    x#44#66   c01_66    -2
    x#44#66   c01_88    2
    x#44#66   c02_44    -6
    x#44#66   c04_44    1
    x#36#66   c01_66    -4
    x#36#66   c01_83    4
    x#36#66   c02_36    -44
    x#36#66   c04_36    1
    x#31#66   c01_66    -5
    x#31#66   c01_92    5
    x#31#66   c04_31    1
    x#24#66   c01_66    -1
    x#24#66   c01_97    1
    x#24#66   c02_24    -18
    x#24#66   c04_24    1
    x#23#66   c01_66    -4
    x#23#66   c01_124   4
    x#23#66   c02_23    -14
    x#23#66   c04_23    1
    x#21#66   c01_66    -5
    x#21#66   c01_104   5
    x#21#66   c02_21    -5
    x#21#66   c04_21    1
    x#19#66   c01_66    -3
    x#19#66   c01_85    3
    x#19#66   c02_19    -53
    x#19#66   c04_19    1
    x#16#66   c01_66    -3
    x#16#66   c01_102   3
    x#16#66   c02_16    -25
    x#16#66   c04_16    1
    x#15#66   c01_66    -2
    x#15#66   c01_86    2
    x#15#66   c02_15    -20
    x#15#66   c04_15    1
    x#7#66    c01_66    -5
    x#7#66    c01_106   5
    x#7#66    c02_7     -10
    x#7#66    c04_7     1
    x#3#66    c01_66    -4
    x#3#66    c01_77    4
    x#3#66    c02_3     -10
    x#3#66    c04_3     1
    x#2#66    c01_66    -1
    x#2#66    c01_89    1
    x#2#66    c02_2     -1
    x#2#66    c04_2     1
    z#66      c01_66    1
    z#66      c01_67    -1
    x#48#67   c01_67    -2
    x#48#67   c01_83    2
    x#48#67   c02_48    -22
    x#48#67   c04_48    1
    x#44#67   c01_67    -2
    x#44#67   c01_89    2
    x#44#67   c02_44    -7
    x#44#67   c04_44    1
    x#36#67   c01_67    -4
    x#36#67   c01_84    4
    x#36#67   c02_36    -45
    x#36#67   c04_36    1
    x#31#67   c01_67    -5
    x#31#67   c01_93    5
    x#31#67   c02_31    -1
    x#31#67   c04_31    1
    x#24#67   c01_67    -1
    x#24#67   c01_98    1
    x#24#67   c02_24    -19
    x#24#67   c04_24    1
    x#23#67   c01_67    -4
    x#23#67   c01_125   4
    x#23#67   c02_23    -15
    x#23#67   c04_23    1
    x#21#67   c01_67    -5
    x#21#67   c01_105   5
    x#21#67   c02_21    -6
    x#21#67   c04_21    1
    x#19#67   c01_67    -3
    x#19#67   c01_86    3
    x#19#67   c02_19    -54
    x#19#67   c04_19    1
    x#16#67   c01_67    -3
    x#16#67   c01_103   3
    x#16#67   c02_16    -26
    x#16#67   c04_16    1
    x#15#67   c01_67    -2
    x#15#67   c01_87    2
    x#15#67   c02_15    -21
    x#15#67   c04_15    1
    x#7#67    c01_67    -5
    x#7#67    c01_107   5
    x#7#67    c02_7     -11
    x#7#67    c04_7     1
    x#3#67    c01_67    -4
    x#3#67    c01_78    4
    x#3#67    c02_3     -11
    x#3#67    c04_3     1
    x#2#67    c01_67    -1
    x#2#67    c01_90    1
    x#2#67    c02_2     -2
    x#2#67    c04_2     1
    z#67      c01_67    1
    z#67      c01_68    -1
    x#48#68   c01_68    -2
    x#48#68   c01_84    2
    x#48#68   c02_48    -23
    x#48#68   c04_48    1
    x#44#68   c01_68    -2
    x#44#68   c01_90    2
    x#44#68   c02_44    -8
    x#44#68   c04_44    1
    x#36#68   c01_68    -4
    x#36#68   c01_85    4
    x#36#68   c02_36    -46
    x#36#68   c04_36    1
    x#31#68   c01_68    -5
    x#31#68   c01_94    5
    x#31#68   c02_31    -2
    x#31#68   c04_31    1
    x#24#68   c01_68    -1
    x#24#68   c01_99    1
    x#24#68   c02_24    -20
    x#24#68   c04_24    1
    x#23#68   c01_68    -4
    x#23#68   c01_126   4
    x#23#68   c02_23    -16
    x#23#68   c04_23    1
    x#21#68   c01_68    -5
    x#21#68   c01_106   5
    x#21#68   c02_21    -7
    x#21#68   c04_21    1
    x#19#68   c01_68    -3
    x#19#68   c01_87    3
    x#19#68   c02_19    -55
    x#19#68   c04_19    1
    x#18#68   c01_68    -3
    x#18#68   c01_103   3
    x#18#68   c04_18    1
    x#16#68   c01_68    -3
    x#16#68   c01_104   3
    x#16#68   c02_16    -27
    x#16#68   c04_16    1
    x#15#68   c01_68    -2
    x#15#68   c01_88    2
    x#15#68   c02_15    -22
    x#15#68   c04_15    1
    x#7#68    c01_68    -5
    x#7#68    c01_108   5
    x#7#68    c02_7     -12
    x#7#68    c04_7     1
    x#3#68    c01_68    -4
    x#3#68    c01_79    4
    x#3#68    c02_3     -12
    x#3#68    c04_3     1
    x#2#68    c01_68    -1
    x#2#68    c01_91    1
    x#2#68    c02_2     -3
    x#2#68    c04_2     1
    z#68      c01_68    1
    z#68      c01_69    -1
    x#48#69   c01_69    -2
    x#48#69   c01_85    2
    x#48#69   c02_48    -24
    x#48#69   c04_48    1
    x#44#69   c01_69    -2
    x#44#69   c01_91    2
    x#44#69   c02_44    -9
    x#44#69   c04_44    1
    x#36#69   c01_69    -4
    x#36#69   c01_86    4
    x#36#69   c02_36    -47
    x#36#69   c04_36    1
    x#31#69   c01_69    -5
    x#31#69   c01_95    5
    x#31#69   c02_31    -3
    x#31#69   c04_31    1
    x#24#69   c01_69    -1
    x#24#69   c01_100   1
    x#24#69   c02_24    -21
    x#24#69   c04_24    1
    x#23#69   c01_69    -4
    x#23#69   c01_127   4
    x#23#69   c02_23    -17
    x#23#69   c04_23    1
    x#21#69   c01_69    -5
    x#21#69   c01_107   5
    x#21#69   c02_21    -8
    x#21#69   c04_21    1
    x#19#69   c01_69    -3
    x#19#69   c01_88    3
    x#19#69   c02_19    -56
    x#19#69   c04_19    1
    x#18#69   c01_69    -3
    x#18#69   c01_104   3
    x#18#69   c02_18    -1
    x#18#69   c04_18    1
    x#16#69   c01_69    -3
    x#16#69   c01_105   3
    x#16#69   c02_16    -28
    x#16#69   c04_16    1
    x#15#69   c01_69    -2
    x#15#69   c01_89    2
    x#15#69   c02_15    -23
    x#15#69   c04_15    1
    x#7#69    c01_69    -5
    x#7#69    c01_109   5
    x#7#69    c02_7     -13
    x#7#69    c04_7     1
    x#3#69    c01_69    -4
    x#3#69    c01_80    4
    x#3#69    c02_3     -13
    x#3#69    c04_3     1
    x#2#69    c01_69    -1
    x#2#69    c01_92    1
    x#2#69    c02_2     -4
    x#2#69    c04_2     1
    z#69      c01_69    1
    z#69      c01_70    -1
    x#48#70   c01_70    -2
    x#48#70   c01_86    2
    x#48#70   c02_48    -25
    x#48#70   c04_48    1
    x#44#70   c01_70    -2
    x#44#70   c01_92    2
    x#44#70   c02_44    -10
    x#44#70   c04_44    1
    x#36#70   c01_70    -4
    x#36#70   c01_87    4
    x#36#70   c02_36    -48
    x#36#70   c04_36    1
    x#31#70   c01_70    -5
    x#31#70   c01_96    5
    x#31#70   c02_31    -4
    x#31#70   c04_31    1
    x#24#70   c01_70    -1
    x#24#70   c01_101   1
    x#24#70   c02_24    -22
    x#24#70   c04_24    1
    x#23#70   c01_70    -4
    x#23#70   c01_128   4
    x#23#70   c02_23    -18
    x#23#70   c04_23    1
    x#21#70   c01_70    -5
    x#21#70   c01_108   5
    x#21#70   c02_21    -9
    x#21#70   c04_21    1
    x#19#70   c01_70    -3
    x#19#70   c01_89    3
    x#19#70   c02_19    -57
    x#19#70   c04_19    1
    x#18#70   c01_70    -3
    x#18#70   c01_105   3
    x#18#70   c02_18    -2
    x#18#70   c04_18    1
    x#16#70   c01_70    -3
    x#16#70   c01_106   3
    x#16#70   c02_16    -29
    x#16#70   c04_16    1
    x#15#70   c01_70    -2
    x#15#70   c01_90    2
    x#15#70   c02_15    -24
    x#15#70   c04_15    1
    x#7#70    c01_70    -5
    x#7#70    c01_110   5
    x#7#70    c02_7     -14
    x#7#70    c04_7     1
    x#2#70    c01_70    -1
    x#2#70    c01_93    1
    x#2#70    c02_2     -5
    x#2#70    c04_2     1
    z#70      c01_70    1
    z#70      c01_71    -1
    x#48#71   c01_71    -2
    x#48#71   c01_87    2
    x#48#71   c02_48    -26
    x#48#71   c04_48    1
    x#44#71   c01_71    -2
    x#44#71   c01_93    2
    x#44#71   c02_44    -11
    x#44#71   c04_44    1
    x#36#71   c01_71    -4
    x#36#71   c01_88    4
    x#36#71   c02_36    -49
    x#36#71   c04_36    1
    x#31#71   c01_71    -5
    x#31#71   c01_97    5
    x#31#71   c02_31    -5
    x#31#71   c04_31    1
    x#24#71   c01_71    -1
    x#24#71   c01_102   1
    x#24#71   c02_24    -23
    x#24#71   c04_24    1
    x#23#71   c01_71    -4
    x#23#71   c01_129   4
    x#23#71   c02_23    -19
    x#23#71   c04_23    1
    x#21#71   c01_71    -5
    x#21#71   c01_109   5
    x#21#71   c02_21    -10
    x#21#71   c04_21    1
    x#19#71   c01_71    -3
    x#19#71   c01_90    3
    x#19#71   c02_19    -58
    x#19#71   c04_19    1
    x#18#71   c01_71    -3
    x#18#71   c01_106   3
    x#18#71   c02_18    -3
    x#18#71   c04_18    1
    x#15#71   c01_71    -2
    x#15#71   c01_91    2
    x#15#71   c02_15    -25
    x#15#71   c04_15    1
    x#7#71    c01_71    -5
    x#7#71    c01_111   5
    x#7#71    c02_7     -15
    x#7#71    c04_7     1
    x#2#71    c01_71    -1
    x#2#71    c01_94    1
    x#2#71    c02_2     -6
    x#2#71    c04_2     1
    z#71      c01_71    1
    z#71      c01_72    -1
    x#48#72   c01_72    -2
    x#48#72   c01_88    2
    x#48#72   c02_48    -27
    x#48#72   c04_48    1
    x#44#72   c01_72    -2
    x#44#72   c01_94    2
    x#44#72   c02_44    -12
    x#44#72   c04_44    1
    x#41#72   c01_72    -4
    x#41#72   c01_116   4
    x#41#72   c04_41    1
    x#36#72   c01_72    -4
    x#36#72   c01_89    4
    x#36#72   c02_36    -50
    x#36#72   c04_36    1
    x#31#72   c01_72    -5
    x#31#72   c01_98    5
    x#31#72   c02_31    -6
    x#31#72   c04_31    1
    x#24#72   c01_72    -1
    x#24#72   c01_103   1
    x#24#72   c02_24    -24
    x#24#72   c04_24    1
    x#23#72   c01_72    -4
    x#23#72   c01_130   4
    x#23#72   c02_23    -20
    x#23#72   c04_23    1
    x#21#72   c01_72    -5
    x#21#72   c01_110   5
    x#21#72   c02_21    -11
    x#21#72   c04_21    1
    x#19#72   c01_72    -3
    x#19#72   c01_91    3
    x#19#72   c02_19    -59
    x#19#72   c04_19    1
    x#18#72   c01_72    -3
    x#18#72   c01_107   3
    x#18#72   c02_18    -4
    x#18#72   c04_18    1
    x#15#72   c01_72    -2
    x#15#72   c01_92    2
    x#15#72   c02_15    -26
    x#15#72   c04_15    1
    x#9#72    c01_72    -3
    x#9#72    c01_116   3
    x#9#72    c04_9     1
    x#7#72    c01_72    -5
    x#7#72    c01_112   5
    x#7#72    c02_7     -16
    x#7#72    c04_7     1
    x#2#72    c01_72    -1
    x#2#72    c01_95    1
    x#2#72    c02_2     -7
    x#2#72    c04_2     1
    x#1#72    c01_72    -2
    x#1#72    c01_113   2
    x#1#72    c04_1     1
    z#72      c01_72    1
    z#72      c01_73    -1
    x#48#73   c01_73    -2
    x#48#73   c01_89    2
    x#48#73   c02_48    -28
    x#48#73   c04_48    1
    x#44#73   c01_73    -2
    x#44#73   c01_95    2
    x#44#73   c02_44    -13
    x#44#73   c04_44    1
    x#41#73   c01_73    -4
    x#41#73   c01_117   4
    x#41#73   c02_41    -1
    x#41#73   c04_41    1
    x#36#73   c01_73    -4
    x#36#73   c01_90    4
    x#36#73   c02_36    -51
    x#36#73   c04_36    1
    x#31#73   c01_73    -5
    x#31#73   c01_99    5
    x#31#73   c02_31    -7
    x#31#73   c04_31    1
    x#24#73   c01_73    -1
    x#24#73   c01_104   1
    x#24#73   c02_24    -25
    x#24#73   c04_24    1
    x#23#73   c01_73    -4
    x#23#73   c01_131   4
    x#23#73   c02_23    -21
    x#23#73   c04_23    1
    x#21#73   c01_73    -5
    x#21#73   c01_111   5
    x#21#73   c02_21    -12
    x#21#73   c04_21    1
    x#19#73   c01_73    -3
    x#19#73   c01_92    3
    x#19#73   c02_19    -60
    x#19#73   c04_19    1
    x#18#73   c01_73    -3
    x#18#73   c01_108   3
    x#18#73   c02_18    -5
    x#18#73   c04_18    1
    x#15#73   c01_73    -2
    x#15#73   c01_93    2
    x#15#73   c02_15    -27
    x#15#73   c04_15    1
    x#9#73    c01_73    -3
    x#9#73    c01_117   3
    x#9#73    c02_9     -1
    x#9#73    c04_9     1
    x#7#73    c01_73    -5
    x#7#73    c01_113   5
    x#7#73    c02_7     -17
    x#7#73    c04_7     1
    x#2#73    c01_73    -1
    x#2#73    c01_96    1
    x#2#73    c02_2     -8
    x#2#73    c04_2     1
    x#1#73    c01_73    -2
    x#1#73    c01_114   2
    x#1#73    c02_1     -1
    x#1#73    c04_1     1
    z#73      c01_73    1
    z#73      c01_74    -1
    x#48#74   c01_74    -2
    x#48#74   c01_90    2
    x#48#74   c02_48    -29
    x#48#74   c04_48    1
    x#44#74   c01_74    -2
    x#44#74   c01_96    2
    x#44#74   c02_44    -14
    x#44#74   c04_44    1
    x#41#74   c01_74    -4
    x#41#74   c01_118   4
    x#41#74   c02_41    -2
    x#41#74   c04_41    1
    x#36#74   c01_74    -4
    x#36#74   c01_91    4
    x#36#74   c02_36    -52
    x#36#74   c04_36    1
    x#35#74   c01_74    -1
    x#35#74   c01_82    1
    x#35#74   c04_35    1
    x#31#74   c01_74    -5
    x#31#74   c01_100   5
    x#31#74   c02_31    -8
    x#31#74   c04_31    1
    x#24#74   c01_74    -1
    x#24#74   c01_105   1
    x#24#74   c02_24    -26
    x#24#74   c04_24    1
    x#23#74   c01_74    -4
    x#23#74   c01_132   4
    x#23#74   c02_23    -22
    x#23#74   c04_23    1
    x#21#74   c01_74    -5
    x#21#74   c01_112   5
    x#21#74   c02_21    -13
    x#21#74   c04_21    1
    x#18#74   c01_74    -3
    x#18#74   c01_109   3
    x#18#74   c02_18    -6
    x#18#74   c04_18    1
    x#15#74   c01_74    -2
    x#15#74   c01_94    2
    x#15#74   c02_15    -28
    x#15#74   c04_15    1
    x#9#74    c01_74    -3
    x#9#74    c01_118   3
    x#9#74    c02_9     -2
    x#9#74    c04_9     1
    x#7#74    c01_74    -5
    x#7#74    c01_114   5
    x#7#74    c02_7     -18
    x#7#74    c04_7     1
    x#2#74    c01_74    -1
    x#2#74    c01_97    1
    x#2#74    c02_2     -9
    x#2#74    c04_2     1
    x#1#74    c01_74    -2
    x#1#74    c01_115   2
    x#1#74    c02_1     -2
    x#1#74    c04_1     1
    z#74      c01_74    1
    z#74      c01_75    -1
    x#48#75   c01_75    -2
    x#48#75   c01_91    2
    x#48#75   c02_48    -30
    x#48#75   c04_48    1
    x#44#75   c01_75    -2
    x#44#75   c01_97    2
    x#44#75   c02_44    -15
    x#44#75   c04_44    1
    x#41#75   c01_75    -4
    x#41#75   c01_119   4
    x#41#75   c02_41    -3
    x#41#75   c04_41    1
    x#36#75   c01_75    -4
    x#36#75   c01_92    4
    x#36#75   c02_36    -53
    x#36#75   c04_36    1
    x#35#75   c01_75    -1
    x#35#75   c01_83    1
    x#35#75   c02_35    -1
    x#35#75   c04_35    1
    x#31#75   c01_75    -5
    x#31#75   c01_101   5
    x#31#75   c02_31    -9
    x#31#75   c04_31    1
    x#24#75   c01_75    -1
    x#24#75   c01_106   1
    x#24#75   c02_24    -27
    x#24#75   c04_24    1
    x#21#75   c01_75    -5
    x#21#75   c01_113   5
    x#21#75   c02_21    -14
    x#21#75   c04_21    1
    x#18#75   c01_75    -3
    x#18#75   c01_110   3
    x#18#75   c02_18    -7
    x#18#75   c04_18    1
    x#15#75   c01_75    -2
    x#15#75   c01_95    2
    x#15#75   c02_15    -29
    x#15#75   c04_15    1
    x#9#75    c01_75    -3
    x#9#75    c01_119   3
    x#9#75    c02_9     -3
    x#9#75    c04_9     1
    x#7#75    c01_75    -5
    x#7#75    c01_115   5
    x#7#75    c02_7     -19
    x#7#75    c04_7     1
    x#2#75    c01_75    -1
    x#2#75    c01_98    1
    x#2#75    c02_2     -10
    x#2#75    c04_2     1
    x#1#75    c01_75    -2
    x#1#75    c01_116   2
    x#1#75    c02_1     -3
    x#1#75    c04_1     1
    z#75      c01_75    1
    z#75      c01_76    -1
    x#48#76   c01_76    -2
    x#48#76   c01_92    2
    x#48#76   c02_48    -31
    x#48#76   c04_48    1
    x#44#76   c01_76    -2
    x#44#76   c01_98    2
    x#44#76   c02_44    -16
    x#44#76   c04_44    1
    x#41#76   c01_76    -4
    x#41#76   c01_120   4
    x#41#76   c02_41    -4
    x#41#76   c04_41    1
    x#35#76   c01_76    -1
    x#35#76   c01_84    1
    x#35#76   c02_35    -2
    x#35#76   c04_35    1
    x#31#76   c01_76    -5
    x#31#76   c01_102   5
    x#31#76   c02_31    -10
    x#31#76   c04_31    1
    x#24#76   c01_76    -1
    x#24#76   c01_107   1
    x#24#76   c02_24    -28
    x#24#76   c04_24    1
    x#21#76   c01_76    -5
    x#21#76   c01_114   5
    x#21#76   c02_21    -15
    x#21#76   c04_21    1
    x#18#76   c01_76    -3
    x#18#76   c01_111   3
    x#18#76   c02_18    -8
    x#18#76   c04_18    1
    x#15#76   c01_76    -2
    x#15#76   c01_96    2
    x#15#76   c02_15    -30
    x#15#76   c04_15    1
    x#9#76    c01_76    -3
    x#9#76    c01_120   3
    x#9#76    c02_9     -4
    x#9#76    c04_9     1
    x#7#76    c01_76    -5
    x#7#76    c01_116   5
    x#7#76    c02_7     -20
    x#7#76    c04_7     1
    x#2#76    c01_76    -1
    x#2#76    c01_99    1
    x#2#76    c02_2     -11
    x#2#76    c04_2     1
    x#1#76    c01_76    -2
    x#1#76    c01_117   2
    x#1#76    c02_1     -4
    x#1#76    c04_1     1
    z#76      c01_76    1
    z#76      c01_77    -1
    x#48#77   c01_77    -2
    x#48#77   c01_93    2
    x#48#77   c02_48    -32
    x#48#77   c04_48    1
    x#44#77   c01_77    -2
    x#44#77   c01_99    2
    x#44#77   c02_44    -17
    x#44#77   c04_44    1
    x#41#77   c01_77    -4
    x#41#77   c01_121   4
    x#41#77   c02_41    -5
    x#41#77   c04_41    1
    x#35#77   c01_77    -1
    x#35#77   c01_85    1
    x#35#77   c02_35    -3
    x#35#77   c04_35    1
    x#31#77   c01_77    -5
    x#31#77   c01_103   5
    x#31#77   c02_31    -11
    x#31#77   c04_31    1
    x#24#77   c01_77    -1
    x#24#77   c01_108   1
    x#24#77   c02_24    -29
    x#24#77   c04_24    1
    x#21#77   c01_77    -5
    x#21#77   c01_115   5
    x#21#77   c02_21    -16
    x#21#77   c04_21    1
    x#18#77   c01_77    -3
    x#18#77   c01_112   3
    x#18#77   c02_18    -9
    x#18#77   c04_18    1
    x#15#77   c01_77    -2
    x#15#77   c01_97    2
    x#15#77   c02_15    -31
    x#15#77   c04_15    1
    x#9#77    c01_77    -3
    x#9#77    c01_121   3
    x#9#77    c02_9     -5
    x#9#77    c04_9     1
    x#7#77    c01_77    -5
    x#7#77    c01_117   5
    x#7#77    c02_7     -21
    x#7#77    c04_7     1
    x#2#77    c01_77    -1
    x#2#77    c01_100   1
    x#2#77    c02_2     -12
    x#2#77    c04_2     1
    x#1#77    c01_77    -2
    x#1#77    c01_118   2
    x#1#77    c02_1     -5
    x#1#77    c04_1     1
    z#77      c01_77    1
    z#77      c01_78    -1
    x#48#78   c01_78    -2
    x#48#78   c01_94    2
    x#48#78   c02_48    -33
    x#48#78   c04_48    1
    x#44#78   c01_78    -2
    x#44#78   c01_100   2
    x#44#78   c02_44    -18
    x#44#78   c04_44    1
    x#41#78   c01_78    -4
    x#41#78   c01_122   4
    x#41#78   c02_41    -6
    x#41#78   c04_41    1
    x#35#78   c01_78    -1
    x#35#78   c01_86    1
    x#35#78   c02_35    -4
    x#35#78   c04_35    1
    x#31#78   c01_78    -5
    x#31#78   c01_104   5
    x#31#78   c02_31    -12
    x#31#78   c04_31    1
    x#24#78   c01_78    -1
    x#24#78   c01_109   1
    x#24#78   c02_24    -30
    x#24#78   c04_24    1
    x#21#78   c01_78    -5
    x#21#78   c01_116   5
    x#21#78   c02_21    -17
    x#21#78   c04_21    1
    x#18#78   c01_78    -3
    x#18#78   c01_113   3
    x#18#78   c02_18    -10
    x#18#78   c04_18    1
    x#15#78   c01_78    -2
    x#15#78   c01_98    2
    x#15#78   c02_15    -32
    x#15#78   c04_15    1
    x#9#78    c01_78    -3
    x#9#78    c01_122   3
    x#9#78    c02_9     -6
    x#9#78    c04_9     1
    x#7#78    c01_78    -5
    x#7#78    c01_118   5
    x#7#78    c02_7     -22
    x#7#78    c04_7     1
    x#2#78    c01_78    -1
    x#2#78    c01_101   1
    x#2#78    c02_2     -13
    x#2#78    c04_2     1
    x#1#78    c01_78    -2
    x#1#78    c01_119   2
    x#1#78    c02_1     -6
    x#1#78    c04_1     1
    z#78      c01_78    1
    z#78      c01_79    -1
    x#48#79   c01_79    -2
    x#48#79   c01_95    2
    x#48#79   c02_48    -34
    x#48#79   c04_48    1
    x#44#79   c01_79    -2
    x#44#79   c01_101   2
    x#44#79   c02_44    -19
    x#44#79   c04_44    1
    x#41#79   c01_79    -4
    x#41#79   c01_123   4
    x#41#79   c02_41    -7
    x#41#79   c04_41    1
    x#35#79   c01_79    -1
    x#35#79   c01_87    1
    x#35#79   c02_35    -5
    x#35#79   c04_35    1
    x#31#79   c01_79    -5
    x#31#79   c01_105   5
    x#31#79   c02_31    -13
    x#31#79   c04_31    1
    x#26#79   c01_79    -1
    x#26#79   c01_111   1
    x#26#79   c04_26    1
    x#24#79   c01_79    -1
    x#24#79   c01_110   1
    x#24#79   c02_24    -31
    x#24#79   c04_24    1
    x#21#79   c01_79    -5
    x#21#79   c01_117   5
    x#21#79   c02_21    -18
    x#21#79   c04_21    1
    x#18#79   c01_79    -3
    x#18#79   c01_114   3
    x#18#79   c02_18    -11
    x#18#79   c04_18    1
    x#15#79   c01_79    -2
    x#15#79   c01_99    2
    x#15#79   c02_15    -33
    x#15#79   c04_15    1
    x#9#79    c01_79    -3
    x#9#79    c01_123   3
    x#9#79    c02_9     -7
    x#9#79    c04_9     1
    x#7#79    c01_79    -5
    x#7#79    c01_119   5
    x#7#79    c02_7     -23
    x#7#79    c04_7     1
    x#2#79    c01_79    -1
    x#2#79    c01_102   1
    x#2#79    c02_2     -14
    x#2#79    c04_2     1
    x#1#79    c01_79    -2
    x#1#79    c01_120   2
    x#1#79    c02_1     -7
    x#1#79    c04_1     1
    z#79      c01_79    1
    z#79      c01_80    -1
    x#50#80   c01_80    -2
    x#50#80   c01_97    2
    x#50#80   c04_50    1
    x#48#80   c01_80    -2
    x#48#80   c01_96    2
    x#48#80   c02_48    -35
    x#48#80   c04_48    1
    x#44#80   c01_80    -2
    x#44#80   c01_102   2
    x#44#80   c02_44    -20
    x#44#80   c04_44    1
    x#41#80   c01_80    -4
    x#41#80   c01_124   4
    x#41#80   c02_41    -8
    x#41#80   c04_41    1
    x#35#80   c01_80    -1
    x#35#80   c01_88    1
    x#35#80   c02_35    -6
    x#35#80   c04_35    1
    x#31#80   c01_80    -5
    x#31#80   c01_106   5
    x#31#80   c02_31    -14
    x#31#80   c04_31    1
    x#26#80   c01_80    -1
    x#26#80   c01_112   1
    x#26#80   c02_26    -1
    x#26#80   c04_26    1
    x#24#80   c01_80    -1
    x#24#80   c01_111   1
    x#24#80   c02_24    -32
    x#24#80   c04_24    1
    x#21#80   c01_80    -5
    x#21#80   c01_118   5
    x#21#80   c02_21    -19
    x#21#80   c04_21    1
    x#18#80   c01_80    -3
    x#18#80   c01_115   3
    x#18#80   c02_18    -12
    x#18#80   c04_18    1
    x#15#80   c01_80    -2
    x#15#80   c01_100   2
    x#15#80   c02_15    -34
    x#15#80   c04_15    1
    x#9#80    c01_80    -3
    x#9#80    c01_124   3
    x#9#80    c02_9     -8
    x#9#80    c04_9     1
    x#7#80    c01_80    -5
    x#7#80    c01_120   5
    x#7#80    c02_7     -24
    x#7#80    c04_7     1
    x#2#80    c01_80    -1
    x#2#80    c01_103   1
    x#2#80    c02_2     -15
    x#2#80    c04_2     1
    x#1#80    c01_80    -2
    x#1#80    c01_121   2
    x#1#80    c02_1     -8
    x#1#80    c04_1     1
    z#80      c01_80    1
    z#80      c01_81    -1
    x#50#81   c01_81    -2
    x#50#81   c01_98    2
    x#50#81   c02_50    -1
    x#50#81   c04_50    1
    x#48#81   c01_81    -2
    x#48#81   c01_97    2
    x#48#81   c02_48    -36
    x#48#81   c04_48    1
    x#44#81   c01_81    -2
    x#44#81   c01_103   2
    x#44#81   c02_44    -21
    x#44#81   c04_44    1
    x#41#81   c01_81    -4
    x#41#81   c01_125   4
    x#41#81   c02_41    -9
    x#41#81   c04_41    1
    x#35#81   c01_81    -1
    x#35#81   c01_89    1
    x#35#81   c02_35    -7
    x#35#81   c04_35    1
    x#31#81   c01_81    -5
    x#31#81   c01_107   5
    x#31#81   c02_31    -15
    x#31#81   c04_31    1
    x#26#81   c01_81    -1
    x#26#81   c01_113   1
    x#26#81   c02_26    -2
    x#26#81   c04_26    1
    x#21#81   c01_81    -5
    x#21#81   c01_119   5
    x#21#81   c02_21    -20
    x#21#81   c04_21    1
    x#18#81   c01_81    -3
    x#18#81   c01_116   3
    x#18#81   c02_18    -13
    x#18#81   c04_18    1
    x#15#81   c01_81    -2
    x#15#81   c01_101   2
    x#15#81   c02_15    -35
    x#15#81   c04_15    1
    x#9#81    c01_81    -3
    x#9#81    c01_125   3
    x#9#81    c02_9     -9
    x#9#81    c04_9     1
    x#7#81    c01_81    -5
    x#7#81    c01_121   5
    x#7#81    c02_7     -25
    x#7#81    c04_7     1
    x#2#81    c01_81    -1
    x#2#81    c01_104   1
    x#2#81    c02_2     -16
    x#2#81    c04_2     1
    x#1#81    c01_81    -2
    x#1#81    c01_122   2
    x#1#81    c02_1     -9
    x#1#81    c04_1     1
    z#81      c01_81    1
    z#81      c01_82    -1
    x#50#82   c01_82    -2
    x#50#82   c01_99    2
    x#50#82   c02_50    -2
    x#50#82   c04_50    1
    x#48#82   c01_82    -2
    x#48#82   c01_98    2
    x#48#82   c02_48    -37
    x#48#82   c04_48    1
    x#44#82   c01_82    -2
    x#44#82   c01_104   2
    x#44#82   c02_44    -22
    x#44#82   c04_44    1
    x#41#82   c01_82    -4
    x#41#82   c01_126   4
    x#41#82   c02_41    -10
    x#41#82   c04_41    1
    x#35#82   c01_82    -1
    x#35#82   c01_90    1
    x#35#82   c02_35    -8
    x#35#82   c04_35    1
    x#31#82   c01_82    -5
    x#31#82   c01_108   5
    x#31#82   c02_31    -16
    x#31#82   c04_31    1
    x#26#82   c01_82    -1
    x#26#82   c01_114   1
    x#26#82   c02_26    -3
    x#26#82   c04_26    1
    x#21#82   c01_82    -5
    x#21#82   c01_120   5
    x#21#82   c02_21    -21
    x#21#82   c04_21    1
    x#18#82   c01_82    -3
    x#18#82   c01_117   3
    x#18#82   c02_18    -14
    x#18#82   c04_18    1
    x#15#82   c01_82    -2
    x#15#82   c01_102   2
    x#15#82   c02_15    -36
    x#15#82   c04_15    1
    x#9#82    c01_82    -3
    x#9#82    c01_126   3
    x#9#82    c02_9     -10
    x#9#82    c04_9     1
    x#7#82    c01_82    -5
    x#7#82    c01_122   5
    x#7#82    c02_7     -26
    x#7#82    c04_7     1
    x#2#82    c01_82    -1
    x#2#82    c01_105   1
    x#2#82    c02_2     -17
    x#2#82    c04_2     1
    x#1#82    c01_82    -2
    x#1#82    c01_123   2
    x#1#82    c02_1     -10
    x#1#82    c04_1     1
    z#82      c01_82    1
    z#82      c01_83    -1
    x#50#83   c01_83    -2
    x#50#83   c01_100   2
    x#50#83   c02_50    -3
    x#50#83   c04_50    1
    x#48#83   c01_83    -2
    x#48#83   c01_99    2
    x#48#83   c02_48    -38
    x#48#83   c04_48    1
    x#44#83   c01_83    -2
    x#44#83   c01_105   2
    x#44#83   c02_44    -23
    x#44#83   c04_44    1
    x#41#83   c01_83    -4
    x#41#83   c01_127   4
    x#41#83   c02_41    -11
    x#41#83   c04_41    1
    x#35#83   c01_83    -1
    x#35#83   c01_91    1
    x#35#83   c02_35    -9
    x#35#83   c04_35    1
    x#31#83   c01_83    -5
    x#31#83   c01_109   5
    x#31#83   c02_31    -17
    x#31#83   c04_31    1
    x#26#83   c01_83    -1
    x#26#83   c01_115   1
    x#26#83   c02_26    -4
    x#26#83   c04_26    1
    x#21#83   c01_83    -5
    x#21#83   c01_121   5
    x#21#83   c02_21    -22
    x#21#83   c04_21    1
    x#18#83   c01_83    -3
    x#18#83   c01_118   3
    x#18#83   c02_18    -15
    x#18#83   c04_18    1
    x#15#83   c01_83    -2
    x#15#83   c01_103   2
    x#15#83   c02_15    -37
    x#15#83   c04_15    1
    x#9#83    c01_83    -3
    x#9#83    c01_127   3
    x#9#83    c02_9     -11
    x#9#83    c04_9     1
    x#7#83    c01_83    -5
    x#7#83    c01_123   5
    x#7#83    c02_7     -27
    x#7#83    c04_7     1
    x#2#83    c01_83    -1
    x#2#83    c01_106   1
    x#2#83    c02_2     -18
    x#2#83    c04_2     1
    x#1#83    c01_83    -2
    x#1#83    c01_124   2
    x#1#83    c02_1     -11
    x#1#83    c04_1     1
    z#83      c01_83    1
    z#83      c01_84    -1
    x#50#84   c01_84    -2
    x#50#84   c01_101   2
    x#50#84   c02_50    -4
    x#50#84   c04_50    1
    x#48#84   c01_84    -2
    x#48#84   c01_100   2
    x#48#84   c02_48    -39
    x#48#84   c04_48    1
    x#44#84   c01_84    -2
    x#44#84   c01_106   2
    x#44#84   c02_44    -24
    x#44#84   c04_44    1
    x#41#84   c01_84    -4
    x#41#84   c01_128   4
    x#41#84   c02_41    -12
    x#41#84   c04_41    1
    x#35#84   c01_84    -1
    x#35#84   c01_92    1
    x#35#84   c02_35    -10
    x#35#84   c04_35    1
    x#31#84   c01_84    -5
    x#31#84   c01_110   5
    x#31#84   c02_31    -18
    x#31#84   c04_31    1
    x#26#84   c01_84    -1
    x#26#84   c01_116   1
    x#26#84   c02_26    -5
    x#26#84   c04_26    1
    x#18#84   c01_84    -3
    x#18#84   c01_119   3
    x#18#84   c02_18    -16
    x#18#84   c04_18    1
    x#15#84   c01_84    -2
    x#15#84   c01_104   2
    x#15#84   c02_15    -38
    x#15#84   c04_15    1
    x#9#84    c01_84    -3
    x#9#84    c01_128   3
    x#9#84    c02_9     -12
    x#9#84    c04_9     1
    x#7#84    c01_84    -5
    x#7#84    c01_124   5
    x#7#84    c02_7     -28
    x#7#84    c04_7     1
    x#2#84    c01_84    -1
    x#2#84    c01_107   1
    x#2#84    c02_2     -19
    x#2#84    c04_2     1
    x#1#84    c01_84    -2
    x#1#84    c01_125   2
    x#1#84    c02_1     -12
    x#1#84    c04_1     1
    z#84      c01_84    1
    z#84      c01_85    -1
    x#50#85   c01_85    -2
    x#50#85   c01_102   2
    x#50#85   c02_50    -5
    x#50#85   c04_50    1
    x#48#85   c01_85    -2
    x#48#85   c01_101   2
    x#48#85   c02_48    -40
    x#48#85   c04_48    1
    x#44#85   c01_85    -2
    x#44#85   c01_107   2
    x#44#85   c02_44    -25
    x#44#85   c04_44    1
    x#41#85   c01_85    -4
    x#41#85   c01_129   4
    x#41#85   c02_41    -13
    x#41#85   c04_41    1
    x#35#85   c01_85    -1
    x#35#85   c01_93    1
    x#35#85   c02_35    -11
    x#35#85   c04_35    1
    x#31#85   c01_85    -5
    x#31#85   c01_111   5
    x#31#85   c02_31    -19
    x#31#85   c04_31    1
    x#26#85   c01_85    -1
    x#26#85   c01_117   1
    x#26#85   c02_26    -6
    x#26#85   c04_26    1
    x#18#85   c01_85    -3
    x#18#85   c01_120   3
    x#18#85   c02_18    -17
    x#18#85   c04_18    1
    x#15#85   c01_85    -2
    x#15#85   c01_105   2
    x#15#85   c02_15    -39
    x#15#85   c04_15    1
    x#9#85    c01_85    -3
    x#9#85    c01_129   3
    x#9#85    c02_9     -13
    x#9#85    c04_9     1
    x#7#85    c01_85    -5
    x#7#85    c01_125   5
    x#7#85    c02_7     -29
    x#7#85    c04_7     1
    x#2#85    c01_85    -1
    x#2#85    c01_108   1
    x#2#85    c02_2     -20
    x#2#85    c04_2     1
    x#1#85    c01_85    -2
    x#1#85    c01_126   2
    x#1#85    c02_1     -13
    x#1#85    c04_1     1
    z#85      c01_85    1
    z#85      c01_86    -1
    x#50#86   c01_86    -2
    x#50#86   c01_103   2
    x#50#86   c02_50    -6
    x#50#86   c04_50    1
    x#48#86   c01_86    -2
    x#48#86   c01_102   2
    x#48#86   c02_48    -41
    x#48#86   c04_48    1
    x#44#86   c01_86    -2
    x#44#86   c01_108   2
    x#44#86   c02_44    -26
    x#44#86   c04_44    1
    x#41#86   c01_86    -4
    x#41#86   c01_130   4
    x#41#86   c02_41    -14
    x#41#86   c04_41    1
    x#35#86   c01_86    -1
    x#35#86   c01_94    1
    x#35#86   c02_35    -12
    x#35#86   c04_35    1
    x#31#86   c01_86    -5
    x#31#86   c01_112   5
    x#31#86   c02_31    -20
    x#31#86   c04_31    1
    x#30#86   c01_86    -4
    x#30#86   c01_113   4
    x#30#86   c04_30    1
    x#26#86   c01_86    -1
    x#26#86   c01_118   1
    x#26#86   c02_26    -7
    x#26#86   c04_26    1
    x#18#86   c01_86    -3
    x#18#86   c01_121   3
    x#18#86   c02_18    -18
    x#18#86   c04_18    1
    x#15#86   c01_86    -2
    x#15#86   c01_106   2
    x#15#86   c02_15    -40
    x#15#86   c04_15    1
    x#9#86    c01_86    -3
    x#9#86    c01_130   3
    x#9#86    c02_9     -14
    x#9#86    c04_9     1
    x#7#86    c01_86    -5
    x#7#86    c01_126   5
    x#7#86    c02_7     -30
    x#7#86    c04_7     1
    x#2#86    c01_86    -1
    x#2#86    c01_109   1
    x#2#86    c02_2     -21
    x#2#86    c04_2     1
    x#1#86    c01_86    -2
    x#1#86    c01_127   2
    x#1#86    c02_1     -14
    x#1#86    c04_1     1
    z#86      c01_86    1
    z#86      c01_87    -1
    x#50#87   c01_87    -2
    x#50#87   c01_104   2
    x#50#87   c02_50    -7
    x#50#87   c04_50    1
    x#48#87   c01_87    -2
    x#48#87   c01_103   2
    x#48#87   c02_48    -42
    x#48#87   c04_48    1
    x#44#87   c01_87    -2
    x#44#87   c01_109   2
    x#44#87   c02_44    -27
    x#44#87   c04_44    1
    x#41#87   c01_87    -4
    x#41#87   c01_131   4
    x#41#87   c02_41    -15
    x#41#87   c04_41    1
    x#35#87   c01_87    -1
    x#35#87   c01_95    1
    x#35#87   c02_35    -13
    x#35#87   c04_35    1
    x#31#87   c01_87    -5
    x#31#87   c01_113   5
    x#31#87   c02_31    -21
    x#31#87   c04_31    1
    x#30#87   c01_87    -4
    x#30#87   c01_114   4
    x#30#87   c02_30    -1
    x#30#87   c04_30    1
    x#26#87   c01_87    -1
    x#26#87   c01_119   1
    x#26#87   c02_26    -8
    x#26#87   c04_26    1
    x#18#87   c01_87    -3
    x#18#87   c01_122   3
    x#18#87   c02_18    -19
    x#18#87   c04_18    1
    x#15#87   c01_87    -2
    x#15#87   c01_107   2
    x#15#87   c02_15    -41
    x#15#87   c04_15    1
    x#9#87    c01_87    -3
    x#9#87    c01_131   3
    x#9#87    c02_9     -15
    x#9#87    c04_9     1
    x#2#87    c01_87    -1
    x#2#87    c01_110   1
    x#2#87    c02_2     -22
    x#2#87    c04_2     1
    x#1#87    c01_87    -2
    x#1#87    c01_128   2
    x#1#87    c02_1     -15
    x#1#87    c04_1     1
    z#87      c01_87    1
    z#87      c01_88    -1
    x#50#88   c01_88    -2
    x#50#88   c01_105   2
    x#50#88   c02_50    -8
    x#50#88   c04_50    1
    x#48#88   c01_88    -2
    x#48#88   c01_104   2
    x#48#88   c02_48    -43
    x#48#88   c04_48    1
    x#44#88   c01_88    -2
    x#44#88   c01_110   2
    x#44#88   c02_44    -28
    x#44#88   c04_44    1
    x#41#88   c01_88    -4
    x#41#88   c01_132   4
    x#41#88   c02_41    -16
    x#41#88   c04_41    1
    x#31#88   c01_88    -5
    x#31#88   c01_114   5
    x#31#88   c02_31    -22
    x#31#88   c04_31    1
    x#30#88   c01_88    -4
    x#30#88   c01_115   4
    x#30#88   c02_30    -2
    x#30#88   c04_30    1
    x#26#88   c01_88    -1
    x#26#88   c01_120   1
    x#26#88   c02_26    -9
    x#26#88   c04_26    1
    x#18#88   c01_88    -3
    x#18#88   c01_123   3
    x#18#88   c02_18    -20
    x#18#88   c04_18    1
    x#15#88   c01_88    -2
    x#15#88   c01_108   2
    x#15#88   c02_15    -42
    x#15#88   c04_15    1
    x#9#88    c01_88    -3
    x#9#88    c01_132   3
    x#9#88    c02_9     -16
    x#9#88    c04_9     1
    x#2#88    c01_88    -1
    x#2#88    c01_111   1
    x#2#88    c02_2     -23
    x#2#88    c04_2     1
    x#1#88    c01_88    -2
    x#1#88    c01_129   2
    x#1#88    c02_1     -16
    x#1#88    c04_1     1
    z#88      c01_88    1
    z#88      c01_89    -1
    x#50#89   c01_89    -2
    x#50#89   c01_106   2
    x#50#89   c02_50    -9
    x#50#89   c04_50    1
    x#48#89   c01_89    -2
    x#48#89   c01_105   2
    x#48#89   c02_48    -44
    x#48#89   c04_48    1
    x#44#89   c01_89    -2
    x#44#89   c01_111   2
    x#44#89   c02_44    -29
    x#44#89   c04_44    1
    x#41#89   c01_89    -4
    x#41#89   c01_133   4
    x#41#89   c02_41    -17
    x#41#89   c04_41    1
    x#31#89   c01_89    -5
    x#31#89   c01_115   5
    x#31#89   c02_31    -23
    x#31#89   c04_31    1
    x#30#89   c01_89    -4
    x#30#89   c01_116   4
    x#30#89   c02_30    -3
    x#30#89   c04_30    1
    x#26#89   c01_89    -1
    x#26#89   c01_121   1
    x#26#89   c02_26    -10
    x#26#89   c04_26    1
    x#18#89   c01_89    -3
    x#18#89   c01_124   3
    x#18#89   c02_18    -21
    x#18#89   c04_18    1
    x#15#89   c01_89    -2
    x#15#89   c01_109   2
    x#15#89   c02_15    -43
    x#15#89   c04_15    1
    x#9#89    c01_89    -3
    x#9#89    c01_133   3
    x#9#89    c02_9     -17
    x#9#89    c04_9     1
    x#2#89    c01_89    -1
    x#2#89    c01_112   1
    x#2#89    c02_2     -24
    x#2#89    c04_2     1
    x#1#89    c01_89    -2
    x#1#89    c01_130   2
    x#1#89    c02_1     -17
    x#1#89    c04_1     1
    z#89      c01_89    1
    z#89      c01_90    -1
    x#50#90   c01_90    -2
    x#50#90   c01_107   2
    x#50#90   c02_50    -10
    x#50#90   c04_50    1
    x#48#90   c01_90    -2
    x#48#90   c01_106   2
    x#48#90   c02_48    -45
    x#48#90   c04_48    1
    x#44#90   c01_90    -2
    x#44#90   c01_112   2
    x#44#90   c02_44    -30
    x#44#90   c04_44    1
    x#41#90   c01_90    -4
    x#41#90   c01_134   4
    x#41#90   c02_41    -18
    x#41#90   c04_41    1
    x#39#90   c01_90    -4
    x#39#90   c01_99    4
    x#39#90   c04_39    1
    x#31#90   c01_90    -5
    x#31#90   c01_116   5
    x#31#90   c02_31    -24
    x#31#90   c04_31    1
    x#30#90   c01_90    -4
    x#30#90   c01_117   4
    x#30#90   c02_30    -4
    x#30#90   c04_30    1
    x#26#90   c01_90    -1
    x#26#90   c01_122   1
    x#26#90   c02_26    -11
    x#26#90   c04_26    1
    x#18#90   c01_90    -3
    x#18#90   c01_125   3
    x#18#90   c02_18    -22
    x#18#90   c04_18    1
    x#15#90   c01_90    -2
    x#15#90   c01_110   2
    x#15#90   c02_15    -44
    x#15#90   c04_15    1
    x#9#90    c01_90    -3
    x#9#90    c01_134   3
    x#9#90    c02_9     -18
    x#9#90    c04_9     1
    x#2#90    c01_90    -1
    x#2#90    c01_113   1
    x#2#90    c02_2     -25
    x#2#90    c04_2     1
    x#1#90    c01_90    -2
    x#1#90    c01_131   2
    x#1#90    c02_1     -18
    x#1#90    c04_1     1
    z#90      c01_90    1
    z#90      c01_91    -1
    x#50#91   c01_91    -2
    x#50#91   c01_108   2
    x#50#91   c02_50    -11
    x#50#91   c04_50    1
    x#48#91   c01_91    -2
    x#48#91   c01_107   2
    x#48#91   c02_48    -46
    x#48#91   c04_48    1
    x#44#91   c01_91    -2
    x#44#91   c01_113   2
    x#44#91   c02_44    -31
    x#44#91   c04_44    1
    x#41#91   c01_91    -4
    x#41#91   c01_135   4
    x#41#91   c02_41    -19
    x#41#91   c04_41    1
    x#39#91   c01_91    -4
    x#39#91   c01_100   4
    x#39#91   c02_39    -1
    x#39#91   c04_39    1
    x#31#91   c01_91    -5
    x#31#91   c01_117   5
    x#31#91   c02_31    -25
    x#31#91   c04_31    1
    x#30#91   c01_91    -4
    x#30#91   c01_118   4
    x#30#91   c02_30    -5
    x#30#91   c04_30    1
    x#26#91   c01_91    -1
    x#26#91   c01_123   1
    x#26#91   c02_26    -12
    x#26#91   c04_26    1
    x#18#91   c01_91    -3
    x#18#91   c01_126   3
    x#18#91   c02_18    -23
    x#18#91   c04_18    1
    x#15#91   c01_91    -2
    x#15#91   c01_111   2
    x#15#91   c02_15    -45
    x#15#91   c04_15    1
    x#9#91    c01_91    -3
    x#9#91    c01_135   3
    x#9#91    c02_9     -19
    x#9#91    c04_9     1
    x#2#91    c01_91    -1
    x#2#91    c01_114   1
    x#2#91    c02_2     -26
    x#2#91    c04_2     1
    x#1#91    c01_91    -2
    x#1#91    c01_132   2
    x#1#91    c02_1     -19
    x#1#91    c04_1     1
    z#91      c01_91    1
    z#91      c01_92    -1
    x#50#92   c01_92    -2
    x#50#92   c01_109   2
    x#50#92   c02_50    -12
    x#50#92   c04_50    1
    x#48#92   c01_92    -2
    x#48#92   c01_108   2
    x#48#92   c02_48    -47
    x#48#92   c04_48    1
    x#44#92   c01_92    -2
    x#44#92   c01_114   2
    x#44#92   c02_44    -32
    x#44#92   c04_44    1
    x#41#92   c01_92    -4
    x#41#92   c01_136   4
    x#41#92   c02_41    -20
    x#41#92   c04_41    1
    x#39#92   c01_92    -4
    x#39#92   c01_101   4
    x#39#92   c02_39    -2
    x#39#92   c04_39    1
    x#31#92   c01_92    -5
    x#31#92   c01_118   5
    x#31#92   c02_31    -26
    x#31#92   c04_31    1
    x#30#92   c01_92    -4
    x#30#92   c01_119   4
    x#30#92   c02_30    -6
    x#30#92   c04_30    1
    x#26#92   c01_92    -1
    x#26#92   c01_124   1
    x#26#92   c02_26    -13
    x#26#92   c04_26    1
    x#18#92   c01_92    -3
    x#18#92   c01_127   3
    x#18#92   c02_18    -24
    x#18#92   c04_18    1
    x#15#92   c01_92    -2
    x#15#92   c01_112   2
    x#15#92   c02_15    -46
    x#15#92   c04_15    1
    x#9#92    c01_92    -3
    x#9#92    c01_136   3
    x#9#92    c02_9     -20
    x#9#92    c04_9     1
    x#2#92    c01_92    -1
    x#2#92    c01_115   1
    x#2#92    c02_2     -27
    x#2#92    c04_2     1
    x#1#92    c01_92    -2
    x#1#92    c01_133   2
    x#1#92    c02_1     -20
    x#1#92    c04_1     1
    z#92      c01_92    1
    z#92      c01_93    -1
    x#50#93   c01_93    -2
    x#50#93   c01_110   2
    x#50#93   c02_50    -13
    x#50#93   c04_50    1
    x#48#93   c01_93    -2
    x#48#93   c01_109   2
    x#48#93   c02_48    -48
    x#48#93   c04_48    1
    x#44#93   c01_93    -2
    x#44#93   c01_115   2
    x#44#93   c02_44    -33
    x#44#93   c04_44    1
    x#41#93   c01_93    -4
    x#41#93   c01_137   4
    x#41#93   c02_41    -21
    x#41#93   c04_41    1
    x#39#93   c01_93    -4
    x#39#93   c01_102   4
    x#39#93   c02_39    -3
    x#39#93   c04_39    1
    x#31#93   c01_93    -5
    x#31#93   c01_119   5
    x#31#93   c02_31    -27
    x#31#93   c04_31    1
    x#30#93   c01_93    -4
    x#30#93   c01_120   4
    x#30#93   c02_30    -7
    x#30#93   c04_30    1
    x#26#93   c01_93    -1
    x#26#93   c01_125   1
    x#26#93   c02_26    -14
    x#26#93   c04_26    1
    x#15#93   c01_93    -2
    x#15#93   c01_113   2
    x#15#93   c02_15    -47
    x#15#93   c04_15    1
    x#9#93    c01_93    -3
    x#9#93    c01_137   3
    x#9#93    c02_9     -21
    x#9#93    c04_9     1
    x#2#93    c01_93    -1
    x#2#93    c01_116   1
    x#2#93    c02_2     -28
    x#2#93    c04_2     1
    x#1#93    c01_93    -2
    x#1#93    c01_134   2
    x#1#93    c02_1     -21
    x#1#93    c04_1     1
    z#93      c01_93    1
    z#93      c01_94    -1
    x#50#94   c01_94    -2
    x#50#94   c01_111   2
    x#50#94   c02_50    -14
    x#50#94   c04_50    1
    x#48#94   c01_94    -2
    x#48#94   c01_110   2
    x#48#94   c02_48    -49
    x#48#94   c04_48    1
    x#44#94   c01_94    -2
    x#44#94   c01_116   2
    x#44#94   c02_44    -34
    x#44#94   c04_44    1
    x#41#94   c01_94    -4
    x#41#94   c01_138   4
    x#41#94   c02_41    -22
    x#41#94   c04_41    1
    x#39#94   c01_94    -4
    x#39#94   c01_103   4
    x#39#94   c02_39    -4
    x#39#94   c04_39    1
    x#31#94   c01_94    -5
    x#31#94   c01_120   5
    x#31#94   c02_31    -28
    x#31#94   c04_31    1
    x#30#94   c01_94    -4
    x#30#94   c01_121   4
    x#30#94   c02_30    -8
    x#30#94   c04_30    1
    x#26#94   c01_94    -1
    x#26#94   c01_126   1
    x#26#94   c02_26    -15
    x#26#94   c04_26    1
    x#15#94   c01_94    -2
    x#15#94   c01_114   2
    x#15#94   c02_15    -48
    x#15#94   c04_15    1
    x#9#94    c01_94    -3
    x#9#94    c01_138   3
    x#9#94    c02_9     -22
    x#9#94    c04_9     1
    x#2#94    c01_94    -1
    x#2#94    c01_117   1
    x#2#94    c02_2     -29
    x#2#94    c04_2     1
    x#1#94    c01_94    -2
    x#1#94    c01_135   2
    x#1#94    c02_1     -22
    x#1#94    c04_1     1
    z#94      c01_94    1
    z#94      c01_95    -1
    x#50#95   c01_95    -2
    x#50#95   c01_112   2
    x#50#95   c02_50    -15
    x#50#95   c04_50    1
    x#48#95   c01_95    -2
    x#48#95   c01_111   2
    x#48#95   c02_48    -50
    x#48#95   c04_48    1
    x#44#95   c01_95    -2
    x#44#95   c01_117   2
    x#44#95   c02_44    -35
    x#44#95   c04_44    1
    x#41#95   c01_95    -4
    x#41#95   c01_139   4
    x#41#95   c02_41    -23
    x#41#95   c04_41    1
    x#39#95   c01_95    -4
    x#39#95   c01_104   4
    x#39#95   c02_39    -5
    x#39#95   c04_39    1
    x#31#95   c01_95    -5
    x#31#95   c01_121   5
    x#31#95   c02_31    -29
    x#31#95   c04_31    1
    x#30#95   c01_95    -4
    x#30#95   c01_122   4
    x#30#95   c02_30    -9
    x#30#95   c04_30    1
    x#27#95   c01_95    -1
    x#27#95   c01_127   1
    x#27#95   c04_27    1
    x#26#95   c01_95    -1
    x#26#95   c01_127   1
    x#26#95   c02_26    -16
    x#26#95   c04_26    1
    x#15#95   c01_95    -2
    x#15#95   c01_115   2
    x#15#95   c02_15    -49
    x#15#95   c04_15    1
    x#9#95    c01_95    -3
    x#9#95    c01_139   3
    x#9#95    c02_9     -23
    x#9#95    c04_9     1
    x#2#95    c01_95    -1
    x#2#95    c01_118   1
    x#2#95    c02_2     -30
    x#2#95    c04_2     1
    x#1#95    c01_95    -2
    x#1#95    c01_136   2
    x#1#95    c02_1     -23
    x#1#95    c04_1     1
    z#95      c01_95    1
    z#95      c01_96    -1
    x#50#96   c01_96    -2
    x#50#96   c01_113   2
    x#50#96   c02_50    -16
    x#50#96   c04_50    1
    x#48#96   c01_96    -2
    x#48#96   c01_112   2
    x#48#96   c02_48    -51
    x#48#96   c04_48    1
    x#44#96   c01_96    -2
    x#44#96   c01_118   2
    x#44#96   c02_44    -36
    x#44#96   c04_44    1
    x#39#96   c01_96    -4
    x#39#96   c01_105   4
    x#39#96   c02_39    -6
    x#39#96   c04_39    1
    x#31#96   c01_96    -5
    x#31#96   c01_122   5
    x#31#96   c02_31    -30
    x#31#96   c04_31    1
    x#30#96   c01_96    -4
    x#30#96   c01_123   4
    x#30#96   c02_30    -10
    x#30#96   c04_30    1
    x#27#96   c01_96    -1
    x#27#96   c01_128   1
    x#27#96   c02_27    -1
    x#27#96   c04_27    1
    x#26#96   c01_96    -1
    x#26#96   c01_128   1
    x#26#96   c02_26    -17
    x#26#96   c04_26    1
    x#15#96   c01_96    -2
    x#15#96   c01_116   2
    x#15#96   c02_15    -50
    x#15#96   c04_15    1
    x#9#96    c01_96    -3
    x#9#96    c01_140   3
    x#9#96    c02_9     -24
    x#9#96    c04_9     1
    x#2#96    c01_96    -1
    x#2#96    c01_119   1
    x#2#96    c02_2     -31
    x#2#96    c04_2     1
    x#1#96    c01_96    -2
    x#1#96    c01_137   2
    x#1#96    c02_1     -24
    x#1#96    c04_1     1
    z#96      c01_96    1
    z#96      c01_97    -1
    x#50#97   c01_97    -2
    x#50#97   c01_114   2
    x#50#97   c02_50    -17
    x#50#97   c04_50    1
    x#48#97   c01_97    -2
    x#48#97   c01_113   2
    x#48#97   c02_48    -52
    x#48#97   c04_48    1
    x#44#97   c01_97    -2
    x#44#97   c01_119   2
    x#44#97   c02_44    -37
    x#44#97   c04_44    1
    x#39#97   c01_97    -4
    x#39#97   c01_106   4
    x#39#97   c02_39    -7
    x#39#97   c04_39    1
    x#31#97   c01_97    -5
    x#31#97   c01_123   5
    x#31#97   c02_31    -31
    x#31#97   c04_31    1
    x#30#97   c01_97    -4
    x#30#97   c01_124   4
    x#30#97   c02_30    -11
    x#30#97   c04_30    1
    x#27#97   c01_97    -1
    x#27#97   c01_129   1
    x#27#97   c02_27    -2
    x#27#97   c04_27    1
    x#26#97   c01_97    -1
    x#26#97   c01_129   1
    x#26#97   c02_26    -18
    x#26#97   c04_26    1
    x#15#97   c01_97    -2
    x#15#97   c01_117   2
    x#15#97   c02_15    -51
    x#15#97   c04_15    1
    x#9#97    c01_97    -3
    x#9#97    c01_141   3
    x#9#97    c02_9     -25
    x#9#97    c04_9     1
    x#2#97    c01_97    -1
    x#2#97    c01_120   1
    x#2#97    c02_2     -32
    x#2#97    c04_2     1
    x#1#97    c01_97    -2
    x#1#97    c01_138   2
    x#1#97    c02_1     -25
    x#1#97    c04_1     1
    z#97      c01_97    1
    z#97      c01_98    -1
    x#50#98   c01_98    -2
    x#50#98   c01_115   2
    x#50#98   c02_50    -18
    x#50#98   c04_50    1
    x#48#98   c01_98    -2
    x#48#98   c01_114   2
    x#48#98   c02_48    -53
    x#48#98   c04_48    1
    x#44#98   c01_98    -2
    x#44#98   c01_120   2
    x#44#98   c02_44    -38
    x#44#98   c04_44    1
    x#39#98   c01_98    -4
    x#39#98   c01_107   4
    x#39#98   c02_39    -8
    x#39#98   c04_39    1
    x#31#98   c01_98    -5
    x#31#98   c01_124   5
    x#31#98   c02_31    -32
    x#31#98   c04_31    1
    x#30#98   c01_98    -4
    x#30#98   c01_125   4
    x#30#98   c02_30    -12
    x#30#98   c04_30    1
    x#27#98   c01_98    -1
    x#27#98   c01_130   1
    x#27#98   c02_27    -3
    x#27#98   c04_27    1
    x#26#98   c01_98    -1
    x#26#98   c01_130   1
    x#26#98   c02_26    -19
    x#26#98   c04_26    1
    x#15#98   c01_98    -2
    x#15#98   c01_118   2
    x#15#98   c02_15    -52
    x#15#98   c04_15    1
    x#9#98    c01_98    -3
    x#9#98    c01_142   3
    x#9#98    c02_9     -26
    x#9#98    c04_9     1
    x#2#98    c01_98    -1
    x#2#98    c01_121   1
    x#2#98    c02_2     -33
    x#2#98    c04_2     1
    x#1#98    c01_98    -2
    x#1#98    c01_139   2
    x#1#98    c02_1     -26
    x#1#98    c04_1     1
    z#98      c01_98    1
    z#98      c01_99    -1
    x#50#99   c01_99    -2
    x#50#99   c01_116   2
    x#50#99   c02_50    -19
    x#50#99   c04_50    1
    x#48#99   c01_99    -2
    x#48#99   c01_115   2
    x#48#99   c02_48    -54
    x#48#99   c04_48    1
    x#44#99   c01_99    -2
    x#44#99   c01_121   2
    x#44#99   c02_44    -39
    x#44#99   c04_44    1
    x#39#99   c01_99    -4
    x#39#99   c01_108   4
    x#39#99   c02_39    -9
    x#39#99   c04_39    1
    x#31#99   c01_99    -5
    x#31#99   c01_125   5
    x#31#99   c02_31    -33
    x#31#99   c04_31    1
    x#30#99   c01_99    -4
    x#30#99   c01_126   4
    x#30#99   c02_30    -13
    x#30#99   c04_30    1
    x#27#99   c01_99    -1
    x#27#99   c01_131   1
    x#27#99   c02_27    -4
    x#27#99   c04_27    1
    x#26#99   c01_99    -1
    x#26#99   c01_131   1
    x#26#99   c02_26    -20
    x#26#99   c04_26    1
    x#9#99    c01_99    -3
    x#9#99    c01_143   3
    x#9#99    c02_9     -27
    x#9#99    c04_9     1
    x#2#99    c01_99    -1
    x#2#99    c01_122   1
    x#2#99    c02_2     -34
    x#2#99    c04_2     1
    x#1#99    c01_99    -2
    x#1#99    c01_140   2
    x#1#99    c02_1     -27
    x#1#99    c04_1     1
    z#99      c01_99    1
    z#99      c01_100   -1
    x#50#100  c01_100   -2
    x#50#100  c01_117   2
    x#50#100  c02_50    -20
    x#50#100  c04_50    1
    x#48#100  c01_100   -2
    x#48#100  c01_116   2
    x#48#100  c02_48    -55
    x#48#100  c04_48    1
    x#44#100  c01_100   -2
    x#44#100  c01_122   2
    x#44#100  c02_44    -40
    x#44#100  c04_44    1
    x#39#100  c01_100   -4
    x#39#100  c01_109   4
    x#39#100  c02_39    -10
    x#39#100  c04_39    1
    x#31#100  c01_100   -5
    x#31#100  c01_126   5
    x#31#100  c02_31    -34
    x#31#100  c04_31    1
    x#30#100  c01_100   -4
    x#30#100  c01_127   4
    x#30#100  c02_30    -14
    x#30#100  c04_30    1
    x#27#100  c01_100   -1
    x#27#100  c01_132   1
    x#27#100  c02_27    -5
    x#27#100  c04_27    1
    x#26#100  c01_100   -1
    x#26#100  c01_132   1
    x#26#100  c02_26    -21
    x#26#100  c04_26    1
    x#9#100   c01_100   -3
    x#9#100   c01_144   3
    x#9#100   c02_9     -28
    x#9#100   c04_9     1
    x#2#100   c01_100   -1
    x#2#100   c01_123   1
    x#2#100   c02_2     -35
    x#2#100   c04_2     1
    x#1#100   c01_100   -2
    x#1#100   c01_141   2
    x#1#100   c02_1     -28
    x#1#100   c04_1     1
    z#100     c01_100   1
    z#100     c01_101   -1
    x#50#101  c01_101   -2
    x#50#101  c01_118   2
    x#50#101  c02_50    -21
    x#50#101  c04_50    1
    x#48#101  c01_101   -2
    x#48#101  c01_117   2
    x#48#101  c02_48    -56
    x#48#101  c04_48    1
    x#44#101  c01_101   -2
    x#44#101  c01_123   2
    x#44#101  c02_44    -41
    x#44#101  c04_44    1
    x#39#101  c01_101   -4
    x#39#101  c01_110   4
    x#39#101  c02_39    -11
    x#39#101  c04_39    1
    x#31#101  c01_101   -5
    x#31#101  c01_127   5
    x#31#101  c02_31    -35
    x#31#101  c04_31    1
    x#30#101  c01_101   -4
    x#30#101  c01_128   4
    x#30#101  c02_30    -15
    x#30#101  c04_30    1
    x#27#101  c01_101   -1
    x#27#101  c01_133   1
    x#27#101  c02_27    -6
    x#27#101  c04_27    1
    x#26#101  c01_101   -1
    x#26#101  c01_133   1
    x#26#101  c02_26    -22
    x#26#101  c04_26    1
    x#9#101   c01_101   -3
    x#9#101   c01_145   3
    x#9#101   c02_9     -29
    x#9#101   c04_9     1
    x#2#101   c01_101   -1
    x#2#101   c01_124   1
    x#2#101   c02_2     -36
    x#2#101   c04_2     1
    x#1#101   c01_101   -2
    x#1#101   c01_142   2
    x#1#101   c02_1     -29
    x#1#101   c04_1     1
    z#101     c01_101   1
    z#101     c01_102   -1
    x#50#102  c01_102   -2
    x#50#102  c01_119   2
    x#50#102  c02_50    -22
    x#50#102  c04_50    1
    x#48#102  c01_102   -2
    x#48#102  c01_118   2
    x#48#102  c02_48    -57
    x#48#102  c04_48    1
    x#44#102  c01_102   -2
    x#44#102  c01_124   2
    x#44#102  c02_44    -42
    x#44#102  c04_44    1
    x#39#102  c01_102   -4
    x#39#102  c01_111   4
    x#39#102  c02_39    -12
    x#39#102  c04_39    1
    x#31#102  c01_102   -5
    x#31#102  c01_128   5
    x#31#102  c02_31    -36
    x#31#102  c04_31    1
    x#30#102  c01_102   -4
    x#30#102  c01_129   4
    x#30#102  c02_30    -16
    x#30#102  c04_30    1
    x#27#102  c01_102   -1
    x#27#102  c01_134   1
    x#27#102  c02_27    -7
    x#27#102  c04_27    1
    x#26#102  c01_102   -1
    x#26#102  c01_134   1
    x#26#102  c02_26    -23
    x#26#102  c04_26    1
    x#9#102   c01_102   -3
    x#9#102   c01_146   3
    x#9#102   c02_9     -30
    x#9#102   c04_9     1
    x#2#102   c01_102   -1
    x#2#102   c01_125   1
    x#2#102   c02_2     -37
    x#2#102   c04_2     1
    x#1#102   c01_102   -2
    x#1#102   c01_143   2
    x#1#102   c02_1     -30
    x#1#102   c04_1     1
    z#102     c01_102   1
    z#102     c01_103   -1
    x#50#103  c01_103   -2
    x#50#103  c01_120   2
    x#50#103  c02_50    -23
    x#50#103  c04_50    1
    x#48#103  c01_103   -2
    x#48#103  c01_119   2
    x#48#103  c02_48    -58
    x#48#103  c04_48    1
    x#44#103  c01_103   -2
    x#44#103  c01_125   2
    x#44#103  c02_44    -43
    x#44#103  c04_44    1
    x#39#103  c01_103   -4
    x#39#103  c01_112   4
    x#39#103  c02_39    -13
    x#39#103  c04_39    1
    x#31#103  c01_103   -5
    x#31#103  c01_129   5
    x#31#103  c02_31    -37
    x#31#103  c04_31    1
    x#30#103  c01_103   -4
    x#30#103  c01_130   4
    x#30#103  c02_30    -17
    x#30#103  c04_30    1
    x#27#103  c01_103   -1
    x#27#103  c01_135   1
    x#27#103  c02_27    -8
    x#27#103  c04_27    1
    x#26#103  c01_103   -1
    x#26#103  c01_135   1
    x#26#103  c02_26    -24
    x#26#103  c04_26    1
    x#9#103   c01_103   -3
    x#9#103   c01_147   3
    x#9#103   c02_9     -31
    x#9#103   c04_9     1
    x#2#103   c01_103   -1
    x#2#103   c01_126   1
    x#2#103   c02_2     -38
    x#2#103   c04_2     1
    x#1#103   c01_103   -2
    x#1#103   c01_144   2
    x#1#103   c02_1     -31
    x#1#103   c04_1     1
    z#103     c01_103   1
    z#103     c01_104   -1
    x#50#104  c01_104   -2
    x#50#104  c01_121   2
    x#50#104  c02_50    -24
    x#50#104  c04_50    1
    x#48#104  c01_104   -2
    x#48#104  c01_120   2
    x#48#104  c02_48    -59
    x#48#104  c04_48    1
    x#44#104  c01_104   -2
    x#44#104  c01_126   2
    x#44#104  c02_44    -44
    x#44#104  c04_44    1
    x#39#104  c01_104   -4
    x#39#104  c01_113   4
    x#39#104  c02_39    -14
    x#39#104  c04_39    1
    x#31#104  c01_104   -5
    x#31#104  c01_130   5
    x#31#104  c02_31    -38
    x#31#104  c04_31    1
    x#30#104  c01_104   -4
    x#30#104  c01_131   4
    x#30#104  c02_30    -18
    x#30#104  c04_30    1
    x#27#104  c01_104   -1
    x#27#104  c01_136   1
    x#27#104  c02_27    -9
    x#27#104  c04_27    1
    x#26#104  c01_104   -1
    x#26#104  c01_136   1
    x#26#104  c02_26    -25
    x#26#104  c04_26    1
    x#9#104   c01_104   -3
    x#9#104   c01_148   3
    x#9#104   c02_9     -32
    x#9#104   c04_9     1
    x#8#104   c01_104   -3
    x#8#104   c01_158   3
    x#8#104   c04_8     1
    x#2#104   c01_104   -1
    x#2#104   c01_127   1
    x#2#104   c02_2     -39
    x#2#104   c04_2     1
    z#104     c01_104   1
    z#104     c01_105   -1
    x#50#105  c01_105   -2
    x#50#105  c01_122   2
    x#50#105  c02_50    -25
    x#50#105  c04_50    1
    x#48#105  c01_105   -2
    x#48#105  c01_121   2
    x#48#105  c02_48    -60
    x#48#105  c04_48    1
    x#44#105  c01_105   -2
    x#44#105  c01_127   2
    x#44#105  c02_44    -45
    x#44#105  c04_44    1
    x#39#105  c01_105   -4
    x#39#105  c01_114   4
    x#39#105  c02_39    -15
    x#39#105  c04_39    1
    x#31#105  c01_105   -5
    x#31#105  c01_131   5
    x#31#105  c02_31    -39
    x#31#105  c04_31    1
    x#30#105  c01_105   -4
    x#30#105  c01_132   4
    x#30#105  c02_30    -19
    x#30#105  c04_30    1
    x#27#105  c01_105   -1
    x#27#105  c01_137   1
    x#27#105  c02_27    -10
    x#27#105  c04_27    1
    x#26#105  c01_105   -1
    x#26#105  c01_137   1
    x#26#105  c02_26    -26
    x#26#105  c04_26    1
    x#8#105   c01_105   -3
    x#8#105   c01_159   3
    x#8#105   c02_8     -1
    x#8#105   c04_8     1
    x#2#105   c01_105   -1
    x#2#105   c01_128   1
    x#2#105   c02_2     -40
    x#2#105   c04_2     1
    z#105     c01_105   1
    z#105     c01_106   -1
    x#50#106  c01_106   -2
    x#50#106  c01_123   2
    x#50#106  c02_50    -26
    x#50#106  c04_50    1
    x#48#106  c01_106   -2
    x#48#106  c01_122   2
    x#48#106  c02_48    -61
    x#48#106  c04_48    1
    x#44#106  c01_106   -2
    x#44#106  c01_128   2
    x#44#106  c02_44    -46
    x#44#106  c04_44    1
    x#39#106  c01_106   -4
    x#39#106  c01_115   4
    x#39#106  c02_39    -16
    x#39#106  c04_39    1
    x#31#106  c01_106   -5
    x#31#106  c01_132   5
    x#31#106  c02_31    -40
    x#31#106  c04_31    1
    x#30#106  c01_106   -4
    x#30#106  c01_133   4
    x#30#106  c02_30    -20
    x#30#106  c04_30    1
    x#27#106  c01_106   -1
    x#27#106  c01_138   1
    x#27#106  c02_27    -11
    x#27#106  c04_27    1
    x#26#106  c01_106   -1
    x#26#106  c01_138   1
    x#26#106  c02_26    -27
    x#26#106  c04_26    1
    x#8#106   c01_106   -3
    x#8#106   c01_160   3
    x#8#106   c02_8     -2
    x#8#106   c04_8     1
    x#4#106   c01_106   -3
    x#4#106   c01_139   3
    x#4#106   c04_4     1
    x#2#106   c01_106   -1
    x#2#106   c01_129   1
    x#2#106   c02_2     -41
    x#2#106   c04_2     1
    z#106     c01_106   1
    z#106     c01_107   -1
    x#50#107  c01_107   -2
    x#50#107  c01_124   2
    x#50#107  c02_50    -27
    x#50#107  c04_50    1
    x#48#107  c01_107   -2
    x#48#107  c01_123   2
    x#48#107  c02_48    -62
    x#48#107  c04_48    1
    x#44#107  c01_107   -2
    x#44#107  c01_129   2
    x#44#107  c02_44    -47
    x#44#107  c04_44    1
    x#39#107  c01_107   -4
    x#39#107  c01_116   4
    x#39#107  c02_39    -17
    x#39#107  c04_39    1
    x#31#107  c01_107   -5
    x#31#107  c01_133   5
    x#31#107  c02_31    -41
    x#31#107  c04_31    1
    x#30#107  c01_107   -4
    x#30#107  c01_134   4
    x#30#107  c02_30    -21
    x#30#107  c04_30    1
    x#27#107  c01_107   -1
    x#27#107  c01_139   1
    x#27#107  c02_27    -12
    x#27#107  c04_27    1
    x#26#107  c01_107   -1
    x#26#107  c01_139   1
    x#26#107  c02_26    -28
    x#26#107  c04_26    1
    x#8#107   c01_107   -3
    x#8#107   c01_161   3
    x#8#107   c02_8     -3
    x#8#107   c04_8     1
    x#4#107   c01_107   -3
    x#4#107   c01_140   3
    x#4#107   c02_4     -1
    x#4#107   c04_4     1
    x#2#107   c01_107   -1
    x#2#107   c01_130   1
    x#2#107   c02_2     -42
    x#2#107   c04_2     1
    z#107     c01_107   1
    z#107     c01_108   -1
    x#50#108  c01_108   -2
    x#50#108  c01_125   2
    x#50#108  c02_50    -28
    x#50#108  c04_50    1
    x#48#108  c01_108   -2
    x#48#108  c01_124   2
    x#48#108  c02_48    -63
    x#48#108  c04_48    1
    x#44#108  c01_108   -2
    x#44#108  c01_130   2
    x#44#108  c02_44    -48
    x#44#108  c04_44    1
    x#39#108  c01_108   -4
    x#39#108  c01_117   4
    x#39#108  c02_39    -18
    x#39#108  c04_39    1
    x#31#108  c01_108   -5
    x#31#108  c01_134   5
    x#31#108  c02_31    -42
    x#31#108  c04_31    1
    x#30#108  c01_108   -4
    x#30#108  c01_135   4
    x#30#108  c02_30    -22
    x#30#108  c04_30    1
    x#27#108  c01_108   -1
    x#27#108  c01_140   1
    x#27#108  c02_27    -13
    x#27#108  c04_27    1
    x#26#108  c01_108   -1
    x#26#108  c01_140   1
    x#26#108  c02_26    -29
    x#26#108  c04_26    1
    x#8#108   c01_108   -3
    x#8#108   c01_162   3
    x#8#108   c02_8     -4
    x#8#108   c04_8     1
    x#4#108   c01_108   -3
    x#4#108   c01_141   3
    x#4#108   c02_4     -2
    x#4#108   c04_4     1
    x#2#108   c01_108   -1
    x#2#108   c01_131   1
    x#2#108   c02_2     -43
    x#2#108   c04_2     1
    z#108     c01_108   1
    z#108     c01_109   -1
    x#50#109  c01_109   -2
    x#50#109  c01_126   2
    x#50#109  c02_50    -29
    x#50#109  c04_50    1
    x#44#109  c01_109   -2
    x#44#109  c01_131   2
    x#44#109  c02_44    -49
    x#44#109  c04_44    1
    x#39#109  c01_109   -4
    x#39#109  c01_118   4
    x#39#109  c02_39    -19
    x#39#109  c04_39    1
    x#31#109  c01_109   -5
    x#31#109  c01_135   5
    x#31#109  c02_31    -43
    x#31#109  c04_31    1
    x#30#109  c01_109   -4
    x#30#109  c01_136   4
    x#30#109  c02_30    -23
    x#30#109  c04_30    1
    x#27#109  c01_109   -1
    x#27#109  c01_141   1
    x#27#109  c02_27    -14
    x#27#109  c04_27    1
    x#26#109  c01_109   -1
    x#26#109  c01_141   1
    x#26#109  c02_26    -30
    x#26#109  c04_26    1
    x#8#109   c01_109   -3
    x#8#109   c01_163   3
    x#8#109   c02_8     -5
    x#8#109   c04_8     1
    x#4#109   c01_109   -3
    x#4#109   c01_142   3
    x#4#109   c02_4     -3
    x#4#109   c04_4     1
    z#109     c01_109   1
    z#109     c01_110   -1
    x#50#110  c01_110   -2
    x#50#110  c01_127   2
    x#50#110  c02_50    -30
    x#50#110  c04_50    1
    x#44#110  c01_110   -2
    x#44#110  c01_132   2
    x#44#110  c02_44    -50
    x#44#110  c04_44    1
    x#39#110  c01_110   -4
    x#39#110  c01_119   4
    x#39#110  c02_39    -20
    x#39#110  c04_39    1
    x#31#110  c01_110   -5
    x#31#110  c01_136   5
    x#31#110  c02_31    -44
    x#31#110  c04_31    1
    x#30#110  c01_110   -4
    x#30#110  c01_137   4
    x#30#110  c02_30    -24
    x#30#110  c04_30    1
    x#27#110  c01_110   -1
    x#27#110  c01_142   1
    x#27#110  c02_27    -15
    x#27#110  c04_27    1
    x#26#110  c01_110   -1
    x#26#110  c01_142   1
    x#26#110  c02_26    -31
    x#26#110  c04_26    1
    x#8#110   c01_110   -3
    x#8#110   c01_164   3
    x#8#110   c02_8     -6
    x#8#110   c04_8     1
    x#4#110   c01_110   -3
    x#4#110   c01_143   3
    x#4#110   c02_4     -4
    x#4#110   c04_4     1
    z#110     c01_110   1
    z#110     c01_111   -1
    x#50#111  c01_111   -2
    x#50#111  c01_128   2
    x#50#111  c02_50    -31
    x#50#111  c04_50    1
    x#47#111  c01_111   -4
    x#47#111  c01_129   4
    x#47#111  c04_47    1
    x#44#111  c01_111   -2
    x#44#111  c01_133   2
    x#44#111  c02_44    -51
    x#44#111  c04_44    1
    x#39#111  c01_111   -4
    x#39#111  c01_120   4
    x#39#111  c02_39    -21
    x#39#111  c04_39    1
    x#30#111  c01_111   -4
    x#30#111  c01_138   4
    x#30#111  c02_30    -25
    x#30#111  c04_30    1
    x#27#111  c01_111   -1
    x#27#111  c01_143   1
    x#27#111  c02_27    -16
    x#27#111  c04_27    1
    x#26#111  c01_111   -1
    x#26#111  c01_143   1
    x#26#111  c02_26    -32
    x#26#111  c04_26    1
    x#8#111   c01_111   -3
    x#8#111   c01_165   3
    x#8#111   c02_8     -7
    x#8#111   c04_8     1
    x#6#111   c01_111   -4
    x#6#111   c01_134   4
    x#6#111   c04_6     1
    x#4#111   c01_111   -3
    x#4#111   c01_144   3
    x#4#111   c02_4     -5
    x#4#111   c04_4     1
    z#111     c01_111   1
    z#111     c01_112   -1
    x#50#112  c01_112   -2
    x#50#112  c01_129   2
    x#50#112  c02_50    -32
    x#50#112  c04_50    1
    x#47#112  OBJ       1
    x#47#112  c01_112   -4
    x#47#112  c01_130   4
    x#47#112  c04_47    1
    x#44#112  c01_112   -2
    x#44#112  c01_134   2
    x#44#112  c02_44    -52
    x#44#112  c04_44    1
    x#39#112  c01_112   -4
    x#39#112  c01_121   4
    x#39#112  c02_39    -22
    x#39#112  c04_39    1
    x#30#112  c01_112   -4
    x#30#112  c01_139   4
    x#30#112  c02_30    -26
    x#30#112  c04_30    1
    x#27#112  c01_112   -1
    x#27#112  c01_144   1
    x#27#112  c02_27    -17
    x#27#112  c04_27    1
    x#26#112  c01_112   -1
    x#26#112  c01_144   1
    x#26#112  c02_26    -33
    x#26#112  c04_26    1
    x#8#112   c01_112   -3
    x#8#112   c01_166   3
    x#8#112   c02_8     -8
    x#8#112   c04_8     1
    x#6#112   c01_112   -4
    x#6#112   c01_135   4
    x#6#112   c02_6     -1
    x#6#112   c04_6     1
    x#4#112   c01_112   -3
    x#4#112   c01_145   3
    x#4#112   c02_4     -6
    x#4#112   c04_4     1
    z#112     c01_112   1
    z#112     c01_113   -1
    x#50#113  c01_113   -2
    x#50#113  c01_130   2
    x#50#113  c02_50    -33
    x#50#113  c04_50    1
    x#47#113  OBJ       2
    x#47#113  c01_113   -4
    x#47#113  c01_131   4
    x#47#113  c04_47    1
    x#44#113  c01_113   -2
    x#44#113  c01_135   2
    x#44#113  c02_44    -53
    x#44#113  c04_44    1
    x#39#113  c01_113   -4
    x#39#113  c01_122   4
    x#39#113  c02_39    -23
    x#39#113  c04_39    1
    x#30#113  c01_113   -4
    x#30#113  c01_140   4
    x#30#113  c02_30    -27
    x#30#113  c04_30    1
    x#27#113  c01_113   -1
    x#27#113  c01_145   1
    x#27#113  c02_27    -18
    x#27#113  c04_27    1
    x#26#113  c01_113   -1
    x#26#113  c01_145   1
    x#26#113  c02_26    -34
    x#26#113  c04_26    1
    x#8#113   c01_113   -3
    x#8#113   c01_167   3
    x#8#113   c02_8     -9
    x#8#113   c04_8     1
    x#6#113   c01_113   -4
    x#6#113   c01_136   4
    x#6#113   c02_6     -2
    x#6#113   c04_6     1
    x#4#113   c01_113   -3
    x#4#113   c01_146   3
    x#4#113   c02_4     -7
    x#4#113   c04_4     1
    z#113     c01_113   1
    z#113     c01_114   -1
    x#50#114  c01_114   -2
    x#50#114  c01_131   2
    x#50#114  c02_50    -34
    x#50#114  c04_50    1
    x#47#114  OBJ       3
    x#47#114  c01_114   -4
    x#47#114  c01_132   4
    x#47#114  c04_47    1
    x#44#114  c01_114   -2
    x#44#114  c01_136   2
    x#44#114  c02_44    -54
    x#44#114  c04_44    1
    x#39#114  c01_114   -4
    x#39#114  c01_123   4
    x#39#114  c02_39    -24
    x#39#114  c04_39    1
    x#30#114  c01_114   -4
    x#30#114  c01_141   4
    x#30#114  c02_30    -28
    x#30#114  c04_30    1
    x#27#114  c01_114   -1
    x#27#114  c01_146   1
    x#27#114  c02_27    -19
    x#27#114  c04_27    1
    x#26#114  c01_114   -1
    x#26#114  c01_146   1
    x#26#114  c02_26    -35
    x#26#114  c04_26    1
    x#8#114   c01_114   -3
    x#8#114   c01_168   3
    x#8#114   c02_8     -10
    x#8#114   c04_8     1
    x#6#114   c01_114   -4
    x#6#114   c01_137   4
    x#6#114   c02_6     -3
    x#6#114   c04_6     1
    x#4#114   c01_114   -3
    x#4#114   c01_147   3
    x#4#114   c02_4     -8
    x#4#114   c04_4     1
    z#114     c01_114   1
    z#114     c01_115   -1
    x#50#115  c01_115   -2
    x#50#115  c01_132   2
    x#50#115  c02_50    -35
    x#50#115  c04_50    1
    x#47#115  OBJ       4
    x#47#115  c01_115   -4
    x#47#115  c01_133   4
    x#47#115  c04_47    1
    x#44#115  c01_115   -2
    x#44#115  c01_137   2
    x#44#115  c02_44    -55
    x#44#115  c04_44    1
    x#30#115  c01_115   -4
    x#30#115  c01_142   4
    x#30#115  c02_30    -29
    x#30#115  c04_30    1
    x#27#115  c01_115   -1
    x#27#115  c01_147   1
    x#27#115  c02_27    -20
    x#27#115  c04_27    1
    x#26#115  c01_115   -1
    x#26#115  c01_147   1
    x#26#115  c02_26    -36
    x#26#115  c04_26    1
    x#8#115   c01_115   -3
    x#8#115   c01_169   3
    x#8#115   c02_8     -11
    x#8#115   c04_8     1
    x#6#115   c01_115   -4
    x#6#115   c01_138   4
    x#6#115   c02_6     -4
    x#6#115   c04_6     1
    x#4#115   c01_115   -3
    x#4#115   c01_148   3
    x#4#115   c02_4     -9
    x#4#115   c04_4     1
    z#115     c01_115   1
    z#115     c01_116   -1
    x#50#116  c01_116   -2
    x#50#116  c01_133   2
    x#50#116  c02_50    -36
    x#50#116  c04_50    1
    x#47#116  OBJ       5
    x#47#116  c01_116   -4
    x#47#116  c01_134   4
    x#47#116  c04_47    1
    x#30#116  c01_116   -4
    x#30#116  c01_143   4
    x#30#116  c02_30    -30
    x#30#116  c04_30    1
    x#27#116  c01_116   -1
    x#27#116  c01_148   1
    x#27#116  c02_27    -21
    x#27#116  c04_27    1
    x#8#116   c01_116   -3
    x#8#116   c01_170   3
    x#8#116   c02_8     -12
    x#8#116   c04_8     1
    x#6#116   c01_116   -4
    x#6#116   c01_139   4
    x#6#116   c02_6     -5
    x#6#116   c04_6     1
    x#4#116   c01_116   -3
    x#4#116   c01_149   3
    x#4#116   c02_4     -10
    x#4#116   c04_4     1
    z#116     c01_116   1
    z#116     c01_117   -1
    x#50#117  c01_117   -2
    x#50#117  c01_134   2
    x#50#117  c02_50    -37
    x#50#117  c04_50    1
    x#47#117  OBJ       6
    x#47#117  c01_117   -4
    x#47#117  c01_135   4
    x#47#117  c04_47    1
    x#30#117  c01_117   -4
    x#30#117  c01_144   4
    x#30#117  c02_30    -31
    x#30#117  c04_30    1
    x#27#117  c01_117   -1
    x#27#117  c01_149   1
    x#27#117  c02_27    -22
    x#27#117  c04_27    1
    x#8#117   c01_117   -3
    x#8#117   c01_171   3
    x#8#117   c02_8     -13
    x#8#117   c04_8     1
    x#6#117   c01_117   -4
    x#6#117   c01_140   4
    x#6#117   c02_6     -6
    x#6#117   c04_6     1
    x#4#117   c01_117   -3
    x#4#117   c01_150   3
    x#4#117   c02_4     -11
    x#4#117   c04_4     1
    z#117     c01_117   1
    z#117     c01_118   -1
    x#50#118  c01_118   -2
    x#50#118  c01_135   2
    x#50#118  c02_50    -38
    x#50#118  c04_50    1
    x#30#118  c01_118   -4
    x#30#118  c01_145   4
    x#30#118  c02_30    -32
    x#30#118  c04_30    1
    x#28#118  c01_118   -3
    x#28#118  c01_153   3
    x#28#118  c04_28    1
    x#27#118  c01_118   -1
    x#27#118  c01_150   1
    x#27#118  c02_27    -23
    x#27#118  c04_27    1
    x#8#118   c01_118   -3
    x#8#118   c01_172   3
    x#8#118   c02_8     -14
    x#8#118   c04_8     1
    x#6#118   c01_118   -4
    x#6#118   c01_141   4
    x#6#118   c02_6     -7
    x#6#118   c04_6     1
    x#4#118   c01_118   -3
    x#4#118   c01_151   3
    x#4#118   c02_4     -12
    x#4#118   c04_4     1
    z#118     c01_118   1
    z#118     c01_119   -1
    x#50#119  c01_119   -2
    x#50#119  c01_136   2
    x#50#119  c02_50    -39
    x#50#119  c04_50    1
    x#49#119  c01_119   -3
    x#49#119  c01_129   3
    x#49#119  c04_49    1
    x#30#119  c01_119   -4
    x#30#119  c01_146   4
    x#30#119  c02_30    -33
    x#30#119  c04_30    1
    x#28#119  c01_119   -3
    x#28#119  c01_154   3
    x#28#119  c02_28    -1
    x#28#119  c04_28    1
    x#27#119  c01_119   -1
    x#27#119  c01_151   1
    x#27#119  c02_27    -24
    x#27#119  c04_27    1
    x#8#119   c01_119   -3
    x#8#119   c01_173   3
    x#8#119   c02_8     -15
    x#8#119   c04_8     1
    x#6#119   c01_119   -4
    x#6#119   c01_142   4
    x#6#119   c02_6     -8
    x#6#119   c04_6     1
    x#4#119   c01_119   -3
    x#4#119   c01_152   3
    x#4#119   c02_4     -13
    x#4#119   c04_4     1
    z#119     c01_119   1
    z#119     c01_120   -1
    x#50#120  c01_120   -2
    x#50#120  c01_137   2
    x#50#120  c02_50    -40
    x#50#120  c04_50    1
    x#49#120  c01_120   -3
    x#49#120  c01_130   3
    x#49#120  c02_49    -1
    x#49#120  c04_49    1
    x#30#120  c01_120   -4
    x#30#120  c01_147   4
    x#30#120  c02_30    -34
    x#30#120  c04_30    1
    x#28#120  c01_120   -3
    x#28#120  c01_155   3
    x#28#120  c02_28    -2
    x#28#120  c04_28    1
    x#27#120  c01_120   -1
    x#27#120  c01_152   1
    x#27#120  c02_27    -25
    x#27#120  c04_27    1
    x#8#120   c01_120   -3
    x#8#120   c01_174   3
    x#8#120   c02_8     -16
    x#8#120   c04_8     1
    x#6#120   c01_120   -4
    x#6#120   c01_143   4
    x#6#120   c02_6     -9
    x#6#120   c04_6     1
    x#4#120   c01_120   -3
    x#4#120   c01_153   3
    x#4#120   c02_4     -14
    x#4#120   c04_4     1
    z#120     c01_120   1
    z#120     c01_121   -1
    x#50#121  c01_121   -2
    x#50#121  c01_138   2
    x#50#121  c02_50    -41
    x#50#121  c04_50    1
    x#49#121  c01_121   -3
    x#49#121  c01_131   3
    x#49#121  c02_49    -2
    x#49#121  c04_49    1
    x#30#121  c01_121   -4
    x#30#121  c01_148   4
    x#30#121  c02_30    -35
    x#30#121  c04_30    1
    x#28#121  c01_121   -3
    x#28#121  c01_156   3
    x#28#121  c02_28    -3
    x#28#121  c04_28    1
    x#27#121  c01_121   -1
    x#27#121  c01_153   1
    x#27#121  c02_27    -26
    x#27#121  c04_27    1
    x#8#121   c01_121   -3
    x#8#121   c01_175   3
    x#8#121   c02_8     -17
    x#8#121   c04_8     1
    x#6#121   c01_121   -4
    x#6#121   c01_144   4
    x#6#121   c02_6     -10
    x#6#121   c04_6     1
    x#4#121   c01_121   -3
    x#4#121   c01_154   3
    x#4#121   c02_4     -15
    x#4#121   c04_4     1
    z#121     c01_121   1
    z#121     c01_122   -1
    x#50#122  c01_122   -2
    x#50#122  c01_139   2
    x#50#122  c02_50    -42
    x#50#122  c04_50    1
    x#49#122  c01_122   -3
    x#49#122  c01_132   3
    x#49#122  c02_49    -3
    x#49#122  c04_49    1
    x#30#122  c01_122   -4
    x#30#122  c01_149   4
    x#30#122  c02_30    -36
    x#30#122  c04_30    1
    x#28#122  c01_122   -3
    x#28#122  c01_157   3
    x#28#122  c02_28    -4
    x#28#122  c04_28    1
    x#27#122  c01_122   -1
    x#27#122  c01_154   1
    x#27#122  c02_27    -27
    x#27#122  c04_27    1
    x#20#122  c01_122   -5
    x#20#122  c01_146   5
    x#20#122  c04_20    1
    x#8#122   c01_122   -3
    x#8#122   c01_176   3
    x#8#122   c02_8     -18
    x#8#122   c04_8     1
    x#6#122   c01_122   -4
    x#6#122   c01_145   4
    x#6#122   c02_6     -11
    x#6#122   c04_6     1
    x#4#122   c01_122   -3
    x#4#122   c01_155   3
    x#4#122   c02_4     -16
    x#4#122   c04_4     1
    z#122     c01_122   1
    z#122     c01_123   -1
    x#50#123  c01_123   -2
    x#50#123  c01_140   2
    x#50#123  c02_50    -43
    x#50#123  c04_50    1
    x#49#123  c01_123   -3
    x#49#123  c01_133   3
    x#49#123  c02_49    -4
    x#49#123  c04_49    1
    x#30#123  c01_123   -4
    x#30#123  c01_150   4
    x#30#123  c02_30    -37
    x#30#123  c04_30    1
    x#28#123  c01_123   -3
    x#28#123  c01_158   3
    x#28#123  c02_28    -5
    x#28#123  c04_28    1
    x#27#123  c01_123   -1
    x#27#123  c01_155   1
    x#27#123  c02_27    -28
    x#27#123  c04_27    1
    x#20#123  c01_123   -5
    x#20#123  c01_147   5
    x#20#123  c02_20    -1
    x#20#123  c04_20    1
    x#8#123   c01_123   -3
    x#8#123   c01_177   3
    x#8#123   c02_8     -19
    x#8#123   c04_8     1
    x#6#123   c01_123   -4
    x#6#123   c01_146   4
    x#6#123   c02_6     -12
    x#6#123   c04_6     1
    x#4#123   c01_123   -3
    x#4#123   c01_156   3
    x#4#123   c02_4     -17
    x#4#123   c04_4     1
    z#123     c01_123   1
    z#123     c01_124   -1
    x#50#124  c01_124   -2
    x#50#124  c01_141   2
    x#50#124  c02_50    -44
    x#50#124  c04_50    1
    x#49#124  c01_124   -3
    x#49#124  c01_134   3
    x#49#124  c02_49    -5
    x#49#124  c04_49    1
    x#30#124  c01_124   -4
    x#30#124  c01_151   4
    x#30#124  c02_30    -38
    x#30#124  c04_30    1
    x#28#124  c01_124   -3
    x#28#124  c01_159   3
    x#28#124  c02_28    -6
    x#28#124  c04_28    1
    x#27#124  c01_124   -1
    x#27#124  c01_156   1
    x#27#124  c02_27    -29
    x#27#124  c04_27    1
    x#20#124  c01_124   -5
    x#20#124  c01_148   5
    x#20#124  c02_20    -2
    x#20#124  c04_20    1
    x#8#124   c01_124   -3
    x#8#124   c01_178   3
    x#8#124   c02_8     -20
    x#8#124   c04_8     1
    x#6#124   c01_124   -4
    x#6#124   c01_147   4
    x#6#124   c02_6     -13
    x#6#124   c04_6     1
    x#4#124   c01_124   -3
    x#4#124   c01_157   3
    x#4#124   c02_4     -18
    x#4#124   c04_4     1
    z#124     c01_124   1
    z#124     c01_125   -1
    x#50#125  c01_125   -2
    x#50#125  c01_142   2
    x#50#125  c02_50    -45
    x#50#125  c04_50    1
    x#49#125  c01_125   -3
    x#49#125  c01_135   3
    x#49#125  c02_49    -6
    x#49#125  c04_49    1
    x#28#125  c01_125   -3
    x#28#125  c01_160   3
    x#28#125  c02_28    -7
    x#28#125  c04_28    1
    x#27#125  c01_125   -1
    x#27#125  c01_157   1
    x#27#125  c02_27    -30
    x#27#125  c04_27    1
    x#20#125  c01_125   -5
    x#20#125  c01_149   5
    x#20#125  c02_20    -3
    x#20#125  c04_20    1
    x#8#125   c01_125   -3
    x#8#125   c01_179   3
    x#8#125   c02_8     -21
    x#8#125   c04_8     1
    x#6#125   c01_125   -4
    x#6#125   c01_148   4
    x#6#125   c02_6     -14
    x#6#125   c04_6     1
    x#4#125   c01_125   -3
    x#4#125   c01_158   3
    x#4#125   c02_4     -19
    x#4#125   c04_4     1
    z#125     c01_125   1
    z#125     c01_126   -1
    x#50#126  c01_126   -2
    x#50#126  c01_143   2
    x#50#126  c02_50    -46
    x#50#126  c04_50    1
    x#49#126  c01_126   -3
    x#49#126  c01_136   3
    x#49#126  c02_49    -7
    x#49#126  c04_49    1
    x#28#126  c01_126   -3
    x#28#126  c01_161   3
    x#28#126  c02_28    -8
    x#28#126  c04_28    1
    x#27#126  c01_126   -1
    x#27#126  c01_158   1
    x#27#126  c02_27    -31
    x#27#126  c04_27    1
    x#20#126  c01_126   -5
    x#20#126  c01_150   5
    x#20#126  c02_20    -4
    x#20#126  c04_20    1
    x#6#126   c01_126   -4
    x#6#126   c01_149   4
    x#6#126   c02_6     -15
    x#6#126   c04_6     1
    x#4#126   c01_126   -3
    x#4#126   c01_159   3
    x#4#126   c02_4     -20
    x#4#126   c04_4     1
    z#126     c01_126   1
    z#126     c01_127   -1
    x#50#127  c01_127   -2
    x#50#127  c01_144   2
    x#50#127  c02_50    -47
    x#50#127  c04_50    1
    x#49#127  c01_127   -3
    x#49#127  c01_137   3
    x#49#127  c02_49    -8
    x#49#127  c04_49    1
    x#28#127  c01_127   -3
    x#28#127  c01_162   3
    x#28#127  c02_28    -9
    x#28#127  c04_28    1
    x#27#127  c01_127   -1
    x#27#127  c01_159   1
    x#27#127  c02_27    -32
    x#27#127  c04_27    1
    x#20#127  c01_127   -5
    x#20#127  c01_151   5
    x#20#127  c02_20    -5
    x#20#127  c04_20    1
    x#6#127   c01_127   -4
    x#6#127   c01_150   4
    x#6#127   c02_6     -16
    x#6#127   c04_6     1
    x#4#127   c01_127   -3
    x#4#127   c01_160   3
    x#4#127   c02_4     -21
    x#4#127   c04_4     1
    z#127     c01_127   1
    z#127     c01_128   -1
    x#50#128  c01_128   -2
    x#50#128  c01_145   2
    x#50#128  c02_50    -48
    x#50#128  c04_50    1
    x#49#128  c01_128   -3
    x#49#128  c01_138   3
    x#49#128  c02_49    -9
    x#49#128  c04_49    1
    x#28#128  c01_128   -3
    x#28#128  c01_163   3
    x#28#128  c02_28    -10
    x#28#128  c04_28    1
    x#27#128  c01_128   -1
    x#27#128  c01_160   1
    x#27#128  c02_27    -33
    x#27#128  c04_27    1
    x#20#128  c01_128   -5
    x#20#128  c01_152   5
    x#20#128  c02_20    -6
    x#20#128  c04_20    1
    x#6#128   c01_128   -4
    x#6#128   c01_151   4
    x#6#128   c02_6     -17
    x#6#128   c04_6     1
    x#4#128   c01_128   -3
    x#4#128   c01_161   3
    x#4#128   c02_4     -22
    x#4#128   c04_4     1
    z#128     c01_128   1
    z#128     c01_129   -1
    x#50#129  c01_129   -2
    x#50#129  c01_146   2
    x#50#129  c02_50    -49
    x#50#129  c04_50    1
    x#49#129  c01_129   -3
    x#49#129  c01_139   3
    x#49#129  c02_49    -10
    x#49#129  c04_49    1
    x#28#129  c01_129   -3
    x#28#129  c01_164   3
    x#28#129  c02_28    -11
    x#28#129  c04_28    1
    x#27#129  c01_129   -1
    x#27#129  c01_161   1
    x#27#129  c02_27    -34
    x#27#129  c04_27    1
    x#20#129  c01_129   -5
    x#20#129  c01_153   5
    x#20#129  c02_20    -7
    x#20#129  c04_20    1
    x#6#129   c01_129   -4
    x#6#129   c01_152   4
    x#6#129   c02_6     -18
    x#6#129   c04_6     1
    x#4#129   c01_129   -3
    x#4#129   c01_162   3
    x#4#129   c02_4     -23
    x#4#129   c04_4     1
    z#129     c01_129   1
    z#129     c01_130   -1
    x#50#130  c01_130   -2
    x#50#130  c01_147   2
    x#50#130  c02_50    -50
    x#50#130  c04_50    1
    x#49#130  c01_130   -3
    x#49#130  c01_140   3
    x#49#130  c02_49    -11
    x#49#130  c04_49    1
    x#28#130  c01_130   -3
    x#28#130  c01_165   3
    x#28#130  c02_28    -12
    x#28#130  c04_28    1
    x#27#130  c01_130   -1
    x#27#130  c01_162   1
    x#27#130  c02_27    -35
    x#27#130  c04_27    1
    x#20#130  c01_130   -5
    x#20#130  c01_154   5
    x#20#130  c02_20    -8
    x#20#130  c04_20    1
    x#6#130   c01_130   -4
    x#6#130   c01_153   4
    x#6#130   c02_6     -19
    x#6#130   c04_6     1
    x#4#130   c01_130   -3
    x#4#130   c01_163   3
    x#4#130   c02_4     -24
    x#4#130   c04_4     1
    z#130     c01_130   1
    z#130     c01_131   -1
    x#49#131  c01_131   -3
    x#49#131  c01_141   3
    x#49#131  c02_49    -12
    x#49#131  c04_49    1
    x#28#131  c01_131   -3
    x#28#131  c01_166   3
    x#28#131  c02_28    -13
    x#28#131  c04_28    1
    x#27#131  c01_131   -1
    x#27#131  c01_163   1
    x#27#131  c02_27    -36
    x#27#131  c04_27    1
    x#20#131  c01_131   -5
    x#20#131  c01_155   5
    x#20#131  c02_20    -9
    x#20#131  c04_20    1
    x#6#131   c01_131   -4
    x#6#131   c01_154   4
    x#6#131   c02_6     -20
    x#6#131   c04_6     1
    x#4#131   c01_131   -3
    x#4#131   c01_164   3
    x#4#131   c02_4     -25
    x#4#131   c04_4     1
    z#131     c01_131   1
    z#131     c01_132   -1
    x#49#132  c01_132   -3
    x#49#132  c01_142   3
    x#49#132  c02_49    -13
    x#49#132  c04_49    1
    x#28#132  c01_132   -3
    x#28#132  c01_167   3
    x#28#132  c02_28    -14
    x#28#132  c04_28    1
    x#27#132  c01_132   -1
    x#27#132  c01_164   1
    x#27#132  c02_27    -37
    x#27#132  c04_27    1
    x#20#132  c01_132   -5
    x#20#132  c01_156   5
    x#20#132  c02_20    -10
    x#20#132  c04_20    1
    x#6#132   c01_132   -4
    x#6#132   c01_155   4
    x#6#132   c02_6     -21
    x#6#132   c04_6     1
    x#4#132   c01_132   -3
    x#4#132   c01_165   3
    x#4#132   c02_4     -26
    x#4#132   c04_4     1
    z#132     c01_132   1
    z#132     c01_133   -1
    x#49#133  c01_133   -3
    x#49#133  c01_143   3
    x#49#133  c02_49    -14
    x#49#133  c04_49    1
    x#28#133  c01_133   -3
    x#28#133  c01_168   3
    x#28#133  c02_28    -15
    x#28#133  c04_28    1
    x#27#133  c01_133   -1
    x#27#133  c01_165   1
    x#27#133  c02_27    -38
    x#27#133  c04_27    1
    x#6#133   c01_133   -4
    x#6#133   c01_156   4
    x#6#133   c02_6     -22
    x#6#133   c04_6     1
    x#4#133   c01_133   -3
    x#4#133   c01_166   3
    x#4#133   c02_4     -27
    x#4#133   c04_4     1
    z#133     c01_133   1
    z#133     c01_134   -1
    x#49#134  c01_134   -3
    x#49#134  c01_144   3
    x#49#134  c02_49    -15
    x#49#134  c04_49    1
    x#28#134  c01_134   -3
    x#28#134  c01_169   3
    x#28#134  c02_28    -16
    x#28#134  c04_28    1
    x#27#134  c01_134   -1
    x#27#134  c01_166   1
    x#27#134  c02_27    -39
    x#27#134  c04_27    1
    x#6#134   c01_134   -4
    x#6#134   c01_157   4
    x#6#134   c02_6     -23
    x#6#134   c04_6     1
    x#4#134   c01_134   -3
    x#4#134   c01_167   3
    x#4#134   c02_4     -28
    x#4#134   c04_4     1
    z#134     c01_134   1
    z#134     c01_135   -1
    x#49#135  c01_135   -3
    x#49#135  c01_145   3
    x#49#135  c02_49    -16
    x#49#135  c04_49    1
    x#32#135  c01_135   -5
    x#32#135  c01_139   5
    x#32#135  c04_32    1
    x#27#135  c01_135   -1
    x#27#135  c01_167   1
    x#27#135  c02_27    -40
    x#27#135  c04_27    1
    x#6#135   c01_135   -4
    x#6#135   c01_158   4
    x#6#135   c02_6     -24
    x#6#135   c04_6     1
    x#4#135   c01_135   -3
    x#4#135   c01_168   3
    x#4#135   c02_4     -29
    x#4#135   c04_4     1
    z#135     c01_135   1
    z#135     c01_136   -1
    x#49#136  c01_136   -3
    x#49#136  c01_146   3
    x#49#136  c02_49    -17
    x#49#136  c04_49    1
    x#32#136  c01_136   -5
    x#32#136  c01_140   5
    x#32#136  c02_32    -1
    x#32#136  c04_32    1
    x#27#136  c01_136   -1
    x#27#136  c01_168   1
    x#27#136  c02_27    -41
    x#27#136  c04_27    1
    x#6#136   c01_136   -4
    x#6#136   c01_159   4
    x#6#136   c02_6     -25
    x#6#136   c04_6     1
    x#4#136   c01_136   -3
    x#4#136   c01_169   3
    x#4#136   c02_4     -30
    x#4#136   c04_4     1
    z#136     c01_136   1
    z#136     c01_137   -1
    x#49#137  c01_137   -3
    x#49#137  c01_147   3
    x#49#137  c02_49    -18
    x#49#137  c04_49    1
    x#32#137  c01_137   -5
    x#32#137  c01_141   5
    x#32#137  c02_32    -2
    x#32#137  c04_32    1
    x#6#137   c01_137   -4
    x#6#137   c01_160   4
    x#6#137   c02_6     -26
    x#6#137   c04_6     1
    x#4#137   c01_137   -3
    x#4#137   c01_170   3
    x#4#137   c02_4     -31
    x#4#137   c04_4     1
    z#137     c01_137   1
    z#137     c01_138   -1
    x#49#138  c01_138   -3
    x#49#138  c01_148   3
    x#49#138  c02_49    -19
    x#49#138  c04_49    1
    x#32#138  c01_138   -5
    x#32#138  c01_142   5
    x#32#138  c02_32    -3
    x#32#138  c04_32    1
    x#6#138   c01_138   -4
    x#6#138   c01_161   4
    x#6#138   c02_6     -27
    x#6#138   c04_6     1
    x#4#138   c01_138   -3
    x#4#138   c01_171   3
    x#4#138   c02_4     -32
    x#4#138   c04_4     1
    z#138     c01_138   1
    z#138     c01_139   -1
    x#49#139  c01_139   -3
    x#49#139  c01_149   3
    x#49#139  c02_49    -20
    x#49#139  c04_49    1
    x#32#139  c01_139   -5
    x#32#139  c01_143   5
    x#32#139  c02_32    -4
    x#32#139  c04_32    1
    x#6#139   c01_139   -4
    x#6#139   c01_162   4
    x#6#139   c02_6     -28
    x#6#139   c04_6     1
    x#4#139   c01_139   -3
    x#4#139   c01_172   3
    x#4#139   c02_4     -33
    x#4#139   c04_4     1
    z#139     c01_139   1
    z#139     c01_140   -1
    x#49#140  c01_140   -3
    x#49#140  c01_150   3
    x#49#140  c02_49    -21
    x#49#140  c04_49    1
    x#32#140  c01_140   -5
    x#32#140  c01_144   5
    x#32#140  c02_32    -5
    x#32#140  c04_32    1
    x#6#140   c01_140   -4
    x#6#140   c01_163   4
    x#6#140   c02_6     -29
    x#6#140   c04_6     1
    x#4#140   c01_140   -3
    x#4#140   c01_173   3
    x#4#140   c02_4     -34
    x#4#140   c04_4     1
    z#140     c01_140   1
    z#140     c01_141   -1
    x#49#141  c01_141   -3
    x#49#141  c01_151   3
    x#49#141  c02_49    -22
    x#49#141  c04_49    1
    x#32#141  c01_141   -5
    x#32#141  c01_145   5
    x#32#141  c02_32    -6
    x#32#141  c04_32    1
    x#6#141   c01_141   -4
    x#6#141   c01_164   4
    x#6#141   c02_6     -30
    x#6#141   c04_6     1
    x#4#141   c01_141   -3
    x#4#141   c01_174   3
    x#4#141   c02_4     -35
    x#4#141   c04_4     1
    z#141     c01_141   1
    z#141     c01_142   -1
    x#49#142  c01_142   -3
    x#49#142  c01_152   3
    x#49#142  c02_49    -23
    x#49#142  c04_49    1
    x#32#142  c01_142   -5
    x#32#142  c01_146   5
    x#32#142  c02_32    -7
    x#32#142  c04_32    1
    x#6#142   c01_142   -4
    x#6#142   c01_165   4
    x#6#142   c02_6     -31
    x#6#142   c04_6     1
    x#4#142   c01_142   -3
    x#4#142   c01_175   3
    x#4#142   c02_4     -36
    x#4#142   c04_4     1
    z#142     c01_142   1
    z#142     c01_143   -1
    x#49#143  c01_143   -3
    x#49#143  c01_153   3
    x#49#143  c02_49    -24
    x#49#143  c04_49    1
    x#32#143  c01_143   -5
    x#32#143  c01_147   5
    x#32#143  c02_32    -8
    x#32#143  c04_32    1
    x#17#143  c01_143   -5
    x#17#143  c01_159   5
    x#17#143  c04_17    1
    x#13#143  c01_143   -1
    x#13#143  c01_167   1
    x#13#143  c04_13    1
    x#6#143   c01_143   -4
    x#6#143   c01_166   4
    x#6#143   c02_6     -32
    x#6#143   c04_6     1
    x#4#143   c01_143   -3
    x#4#143   c01_176   3
    x#4#143   c02_4     -37
    x#4#143   c04_4     1
    z#143     c01_143   1
    z#143     c01_144   -1
    x#49#144  c01_144   -3
    x#49#144  c01_154   3
    x#49#144  c02_49    -25
    x#49#144  c04_49    1
    x#32#144  c01_144   -5
    x#32#144  c01_148   5
    x#32#144  c02_32    -9
    x#32#144  c04_32    1
    x#17#144  c01_144   -5
    x#17#144  c01_160   5
    x#17#144  c02_17    -1
    x#17#144  c04_17    1
    x#13#144  c01_144   -1
    x#13#144  c01_168   1
    x#13#144  c02_13    -1
    x#13#144  c04_13    1
    x#6#144   c01_144   -4
    x#6#144   c01_167   4
    x#6#144   c02_6     -33
    x#6#144   c04_6     1
    x#4#144   c01_144   -3
    x#4#144   c01_177   3
    x#4#144   c02_4     -38
    x#4#144   c04_4     1
    z#144     c01_144   1
    z#144     c01_145   -1
    x#32#145  c01_145   -5
    x#32#145  c01_149   5
    x#32#145  c02_32    -10
    x#32#145  c04_32    1
    x#17#145  c01_145   -5
    x#17#145  c01_161   5
    x#17#145  c02_17    -2
    x#17#145  c04_17    1
    x#13#145  c01_145   -1
    x#13#145  c01_169   1
    x#13#145  c02_13    -2
    x#13#145  c04_13    1
    x#6#145   c01_145   -4
    x#6#145   c01_168   4
    x#6#145   c02_6     -34
    x#6#145   c04_6     1
    x#4#145   c01_145   -3
    x#4#145   c01_178   3
    x#4#145   c02_4     -39
    x#4#145   c04_4     1
    z#145     c01_145   1
    z#145     c01_146   -1
    x#32#146  c01_146   -5
    x#32#146  c01_150   5
    x#32#146  c02_32    -11
    x#32#146  c04_32    1
    x#17#146  c01_146   -5
    x#17#146  c01_162   5
    x#17#146  c02_17    -3
    x#17#146  c04_17    1
    x#13#146  c01_146   -1
    x#13#146  c01_170   1
    x#13#146  c02_13    -3
    x#13#146  c04_13    1
    x#6#146   c01_146   -4
    x#6#146   c01_169   4
    x#6#146   c02_6     -35
    x#6#146   c04_6     1
    x#4#146   c01_146   -3
    x#4#146   c01_179   3
    x#4#146   c02_4     -40
    x#4#146   c04_4     1
    z#146     c01_146   1
    z#146     c01_147   -1
    x#32#147  c01_147   -5
    x#32#147  c01_151   5
    x#32#147  c02_32    -12
    x#32#147  c04_32    1
    x#17#147  c01_147   -5
    x#17#147  c01_163   5
    x#17#147  c02_17    -4
    x#17#147  c04_17    1
    x#13#147  c01_147   -1
    x#13#147  c01_171   1
    x#13#147  c02_13    -4
    x#13#147  c04_13    1
    x#6#147   c01_147   -4
    x#6#147   c01_170   4
    x#6#147   c02_6     -36
    x#6#147   c04_6     1
    x#5#147   c01_147   -5
    x#5#147   c01_164   5
    x#5#147   c04_5     1
    x#4#147   c01_147   -3
    x#4#147   c01_180   3
    x#4#147   c02_4     -41
    x#4#147   c04_4     1
    z#147     c01_147   1
    z#147     c01_148   -1
    x#38#148  c01_148   -5
    x#38#148  c01_170   5
    x#38#148  c04_38    1
    x#32#148  c01_148   -5
    x#32#148  c01_152   5
    x#32#148  c02_32    -13
    x#32#148  c04_32    1
    x#17#148  c01_148   -5
    x#17#148  c01_164   5
    x#17#148  c02_17    -5
    x#17#148  c04_17    1
    x#13#148  c01_148   -1
    x#13#148  c01_172   1
    x#13#148  c02_13    -5
    x#13#148  c04_13    1
    x#6#148   c01_148   -4
    x#6#148   c01_171   4
    x#6#148   c02_6     -37
    x#6#148   c04_6     1
    x#5#148   OBJ       1
    x#5#148   c01_148   -5
    x#5#148   c01_165   5
    x#5#148   c04_5     1
    x#4#148   c01_148   -3
    x#4#148   c01_181   3
    x#4#148   c02_4     -42
    x#4#148   c04_4     1
    z#148     c01_148   1
    z#148     c01_149   -1
    x#38#149  OBJ       1
    x#38#149  c01_149   -5
    x#38#149  c01_171   5
    x#38#149  c04_38    1
    x#32#149  c01_149   -5
    x#32#149  c01_153   5
    x#32#149  c02_32    -14
    x#32#149  c04_32    1
    x#17#149  c01_149   -5
    x#17#149  c01_165   5
    x#17#149  c02_17    -6
    x#17#149  c04_17    1
    x#13#149  c01_149   -1
    x#13#149  c01_173   1
    x#13#149  c02_13    -6
    x#13#149  c04_13    1
    x#6#149   c01_149   -4
    x#6#149   c01_172   4
    x#6#149   c02_6     -38
    x#6#149   c04_6     1
    x#5#149   OBJ       2
    x#5#149   c01_149   -5
    x#5#149   c01_166   5
    x#5#149   c04_5     1
    x#4#149   c01_149   -3
    x#4#149   c01_182   3
    x#4#149   c02_4     -43
    x#4#149   c04_4     1
    z#149     c01_149   1
    z#149     c01_150   -1
    x#38#150  OBJ       2
    x#38#150  c01_150   -5
    x#38#150  c01_172   5
    x#38#150  c04_38    1
    x#32#150  c01_150   -5
    x#32#150  c01_154   5
    x#32#150  c02_32    -15
    x#32#150  c04_32    1
    x#17#150  c01_150   -5
    x#17#150  c01_166   5
    x#17#150  c02_17    -7
    x#17#150  c04_17    1
    x#13#150  c01_150   -1
    x#13#150  c01_174   1
    x#13#150  c02_13    -7
    x#13#150  c04_13    1
    x#6#150   c01_150   -4
    x#6#150   c01_173   4
    x#6#150   c02_6     -39
    x#6#150   c04_6     1
    x#5#150   OBJ       3
    x#5#150   c01_150   -5
    x#5#150   c01_167   5
    x#5#150   c04_5     1
    x#4#150   c01_150   -3
    x#4#150   c01_183   3
    x#4#150   c02_4     -44
    x#4#150   c04_4     1
    z#150     c01_150   1
    z#150     c01_151   -1
    x#38#151  OBJ       3
    x#38#151  c01_151   -5
    x#38#151  c01_173   5
    x#38#151  c04_38    1
    x#32#151  c01_151   -5
    x#32#151  c01_155   5
    x#32#151  c02_32    -16
    x#32#151  c04_32    1
    x#17#151  c01_151   -5
    x#17#151  c01_167   5
    x#17#151  c02_17    -8
    x#17#151  c04_17    1
    x#13#151  c01_151   -1
    x#13#151  c01_175   1
    x#13#151  c02_13    -8
    x#13#151  c04_13    1
    x#6#151   c01_151   -4
    x#6#151   c01_174   4
    x#6#151   c02_6     -40
    x#6#151   c04_6     1
    x#5#151   OBJ       4
    x#5#151   c01_151   -5
    x#5#151   c01_168   5
    x#5#151   c04_5     1
    x#4#151   c01_151   -3
    x#4#151   c01_184   3
    x#4#151   c02_4     -45
    x#4#151   c04_4     1
    z#151     c01_151   1
    z#151     c01_152   -1
    x#38#152  OBJ       4
    x#38#152  c01_152   -5
    x#38#152  c01_174   5
    x#38#152  c04_38    1
    x#17#152  c01_152   -5
    x#17#152  c01_168   5
    x#17#152  c02_17    -9
    x#17#152  c04_17    1
    x#13#152  c01_152   -1
    x#13#152  c01_176   1
    x#13#152  c02_13    -9
    x#13#152  c04_13    1
    x#6#152   c01_152   -4
    x#6#152   c01_175   4
    x#6#152   c02_6     -41
    x#6#152   c04_6     1
    x#5#152   OBJ       5
    x#5#152   c01_152   -5
    x#5#152   c01_169   5
    x#5#152   c04_5     1
    x#4#152   c01_152   -3
    x#4#152   c01_185   3
    x#4#152   c02_4     -46
    x#4#152   c04_4     1
    z#152     c01_152   1
    z#152     c01_153   -1
    x#38#153  OBJ       5
    x#38#153  c01_153   -5
    x#38#153  c01_175   5
    x#38#153  c04_38    1
    x#17#153  c01_153   -5
    x#17#153  c01_169   5
    x#17#153  c02_17    -10
    x#17#153  c04_17    1
    x#13#153  c01_153   -1
    x#13#153  c01_177   1
    x#13#153  c02_13    -10
    x#13#153  c04_13    1
    x#6#153   c01_153   -4
    x#6#153   c01_176   4
    x#6#153   c02_6     -42
    x#6#153   c04_6     1
    x#5#153   OBJ       6
    x#5#153   c01_153   -5
    x#5#153   c01_170   5
    x#5#153   c04_5     1
    x#4#153   c01_153   -3
    x#4#153   c01_186   3
    x#4#153   c02_4     -47
    x#4#153   c04_4     1
    z#153     c01_153   1
    z#153     c01_154   -1
    x#38#154  OBJ       6
    x#38#154  c01_154   -5
    x#38#154  c01_176   5
    x#38#154  c04_38    1
    x#17#154  c01_154   -5
    x#17#154  c01_170   5
    x#17#154  c02_17    -11
    x#17#154  c04_17    1
    x#13#154  c01_154   -1
    x#13#154  c01_178   1
    x#13#154  c02_13    -11
    x#13#154  c04_13    1
    x#6#154   c01_154   -4
    x#6#154   c01_177   4
    x#6#154   c02_6     -43
    x#6#154   c04_6     1
    x#5#154   OBJ       7
    x#5#154   c01_154   -5
    x#5#154   c01_171   5
    x#5#154   c04_5     1
    z#154     c01_154   1
    z#154     c01_155   -1
    x#38#155  OBJ       7
    x#38#155  c01_155   -5
    x#38#155  c01_177   5
    x#38#155  c04_38    1
    x#17#155  c01_155   -5
    x#17#155  c01_171   5
    x#17#155  c02_17    -12
    x#17#155  c04_17    1
    x#13#155  c01_155   -1
    x#13#155  c01_179   1
    x#13#155  c02_13    -12
    x#13#155  c04_13    1
    x#6#155   c01_155   -4
    x#6#155   c01_178   4
    x#6#155   c02_6     -44
    x#6#155   c04_6     1
    x#5#155   OBJ       8
    x#5#155   c01_155   -5
    x#5#155   c01_172   5
    x#5#155   c04_5     1
    z#155     c01_155   1
    z#155     c01_156   -1
    x#43#156  c01_156   -2
    x#43#156  c01_174   2
    x#43#156  c04_43    1
    x#38#156  OBJ       8
    x#38#156  c01_156   -5
    x#38#156  c01_178   5
    x#38#156  c04_38    1
    x#17#156  c01_156   -5
    x#17#156  c01_172   5
    x#17#156  c02_17    -13
    x#17#156  c04_17    1
    x#13#156  c01_156   -1
    x#13#156  c01_180   1
    x#13#156  c02_13    -13
    x#13#156  c04_13    1
    x#6#156   c01_156   -4
    x#6#156   c01_179   4
    x#6#156   c02_6     -45
    x#6#156   c04_6     1
    x#5#156   OBJ       9
    x#5#156   c01_156   -5
    x#5#156   c01_173   5
    x#5#156   c04_5     1
    z#156     c01_156   1
    z#156     c01_157   -1
    x#43#157  c01_157   -2
    x#43#157  c01_175   2
    x#43#157  c02_43    -1
    x#43#157  c04_43    1
    x#17#157  c01_157   -5
    x#17#157  c01_173   5
    x#17#157  c02_17    -14
    x#17#157  c04_17    1
    x#13#157  c01_157   -1
    x#13#157  c01_181   1
    x#13#157  c02_13    -14
    x#13#157  c04_13    1
    x#12#157  c01_157   -3
    x#12#157  c01_186   3
    x#12#157  c04_12    1
    x#6#157   c01_157   -4
    x#6#157   c01_180   4
    x#6#157   c02_6     -46
    x#6#157   c04_6     1
    z#157     c01_157   1
    z#157     c01_158   -1
    x#43#158  c01_158   -2
    x#43#158  c01_176   2
    x#43#158  c02_43    -2
    x#43#158  c04_43    1
    x#17#158  c01_158   -5
    x#17#158  c01_174   5
    x#17#158  c02_17    -15
    x#17#158  c04_17    1
    x#13#158  c01_158   -1
    x#13#158  c01_182   1
    x#13#158  c02_13    -15
    x#13#158  c04_13    1
    x#12#158  c01_200   3
    x#12#158  c01_158   -3
    x#12#158  c02_12    -1
    x#12#158  c04_12    1
    x#6#158   c01_158   -4
    x#6#158   c01_181   4
    x#6#158   c02_6     -47
    x#6#158   c04_6     1
    z#158     c01_158   1
    z#158     c01_159   -1
    x#43#159  c01_159   -2
    x#43#159  c01_177   2
    x#43#159  c02_43    -3
    x#43#159  c04_43    1
    x#17#159  c01_159   -5
    x#17#159  c01_175   5
    x#17#159  c02_17    -16
    x#17#159  c04_17    1
    x#13#159  c01_159   -1
    x#13#159  c01_183   1
    x#13#159  c02_13    -16
    x#13#159  c04_13    1
    x#12#159  c01_200   3
    x#12#159  c01_159   -3
    x#12#159  c02_12    -2
    x#12#159  c04_12    1
    z#159     c01_159   1
    z#159     c01_160   -1
    x#43#160  c01_160   -2
    x#43#160  c01_178   2
    x#43#160  c02_43    -4
    x#43#160  c04_43    1
    x#17#160  c01_160   -5
    x#17#160  c01_176   5
    x#17#160  c02_17    -17
    x#17#160  c04_17    1
    x#13#160  c01_160   -1
    x#13#160  c01_184   1
    x#13#160  c02_13    -17
    x#13#160  c04_13    1
    x#12#160  c01_200   3
    x#12#160  c01_160   -3
    x#12#160  c02_12    -3
    x#12#160  c04_12    1
    z#160     c01_160   1
    z#160     c01_161   -1
    x#43#161  c01_161   -2
    x#43#161  c01_179   2
    x#43#161  c02_43    -5
    x#43#161  c04_43    1
    x#17#161  c01_161   -5
    x#17#161  c01_177   5
    x#17#161  c02_17    -18
    x#17#161  c04_17    1
    x#13#161  c01_161   -1
    x#13#161  c01_185   1
    x#13#161  c02_13    -18
    x#13#161  c04_13    1
    x#12#161  c01_200   3
    x#12#161  c01_161   -3
    x#12#161  c02_12    -4
    x#12#161  c04_12    1
    z#161     c01_161   1
    z#161     c01_162   -1
    x#43#162  c01_162   -2
    x#43#162  c01_180   2
    x#43#162  c02_43    -6
    x#43#162  c04_43    1
    x#17#162  c01_162   -5
    x#17#162  c01_178   5
    x#17#162  c02_17    -19
    x#17#162  c04_17    1
    x#13#162  c01_162   -1
    x#13#162  c01_186   1
    x#13#162  c02_13    -19
    x#13#162  c04_13    1
    x#12#162  c01_200   3
    x#12#162  c01_162   -3
    x#12#162  c02_12    -5
    x#12#162  c04_12    1
    z#162     c01_162   1
    z#162     c01_163   -1
    x#43#163  c01_163   -2
    x#43#163  c01_181   2
    x#43#163  c02_43    -7
    x#43#163  c04_43    1
    x#17#163  c01_163   -5
    x#17#163  c01_179   5
    x#17#163  c02_17    -20
    x#17#163  c04_17    1
    x#12#163  c01_200   3
    x#12#163  c01_163   -3
    x#12#163  c02_12    -6
    x#12#163  c04_12    1
    z#163     c01_163   1
    z#163     c01_164   -1
    x#43#164  c01_164   -2
    x#43#164  c01_182   2
    x#43#164  c02_43    -8
    x#43#164  c04_43    1
    x#17#164  c01_164   -5
    x#17#164  c01_180   5
    x#17#164  c02_17    -21
    x#17#164  c04_17    1
    x#12#164  c01_200   3
    x#12#164  c01_164   -3
    x#12#164  c02_12    -7
    x#12#164  c04_12    1
    z#164     c01_164   1
    z#164     c01_165   -1
    x#43#165  c01_165   -2
    x#43#165  c01_183   2
    x#43#165  c02_43    -9
    x#43#165  c04_43    1
    x#17#165  c01_165   -5
    x#17#165  c01_181   5
    x#17#165  c02_17    -22
    x#17#165  c04_17    1
    x#12#165  c01_200   3
    x#12#165  c01_165   -3
    x#12#165  c02_12    -8
    x#12#165  c04_12    1
    z#165     c01_165   1
    z#165     c01_166   -1
    x#43#166  c01_166   -2
    x#43#166  c01_184   2
    x#43#166  c02_43    -10
    x#43#166  c04_43    1
    x#17#166  c01_166   -5
    x#17#166  c01_182   5
    x#17#166  c02_17    -23
    x#17#166  c04_17    1
    x#12#166  c01_200   3
    x#12#166  c01_166   -3
    x#12#166  c02_12    -9
    x#12#166  c04_12    1
    z#166     c01_166   1
    z#166     c01_167   -1
    x#43#167  c01_167   -2
    x#43#167  c01_185   2
    x#43#167  c02_43    -11
    x#43#167  c04_43    1
    x#17#167  c01_167   -5
    x#17#167  c01_183   5
    x#17#167  c02_17    -24
    x#17#167  c04_17    1
    x#12#167  c01_200   3
    x#12#167  c01_167   -3
    x#12#167  c02_12    -10
    x#12#167  c04_12    1
    z#167     c01_167   1
    z#167     c01_168   -1
    x#43#168  c01_168   -2
    x#43#168  c01_186   2
    x#43#168  c02_43    -12
    x#43#168  c04_43    1
    x#17#168  c01_168   -5
    x#17#168  c01_184   5
    x#17#168  c02_17    -25
    x#17#168  c04_17    1
    z#168     c01_168   1
    z#168     c01_169   -1
    x#43#169  c01_200   2
    x#43#169  c01_169   -2
    x#43#169  c02_43    -13
    x#43#169  c04_43    1
    x#17#169  c01_169   -5
    x#17#169  c01_185   5
    x#17#169  c02_17    -26
    x#17#169  c04_17    1
    z#169     c01_169   1
    z#169     c01_170   -1
    x#43#170  c01_200   2
    x#43#170  c01_170   -2
    x#43#170  c02_43    -14
    x#43#170  c04_43    1
    x#17#170  c01_170   -5
    x#17#170  c01_186   5
    x#17#170  c02_17    -27
    x#17#170  c04_17    1
    z#170     c01_170   1
    z#170     c01_171   -1
    x#43#171  c01_200   2
    x#43#171  c01_171   -2
    x#43#171  c02_43    -15
    x#43#171  c04_43    1
    x#17#171  c01_200   5
    x#17#171  c01_171   -5
    x#17#171  c02_17    -28
    x#17#171  c04_17    1
    z#171     c01_171   1
    z#171     c01_172   -1
    x#17#172  c01_200   5
    x#17#172  c01_172   -5
    x#17#172  c02_17    -29
    x#17#172  c04_17    1
    z#172     c01_172   1
    z#172     c01_173   -1
    x#17#173  c01_200   5
    x#17#173  c01_173   -5
    x#17#173  c02_17    -30
    x#17#173  c04_17    1
    z#173     c01_173   1
    z#173     c01_174   -1
    x#29#174  c01_174   -3
    x#29#174  c04_29    1
    x#17#174  c01_200   5
    x#17#174  c01_174   -5
    x#17#174  c02_17    -31
    x#17#174  c04_17    1
    z#174     c01_174   1
    z#174     c01_175   -1
    x#29#175  c01_175   -3
    x#29#175  c02_29    -1
    x#29#175  c04_29    1
    z#175     c01_175   1
    z#175     c01_176   -1
    x#29#176  c01_176   -3
    x#29#176  c02_29    -2
    x#29#176  c04_29    1
    z#176     c01_176   1
    z#176     c01_177   -1
    x#29#177  c01_177   -3
    x#29#177  c02_29    -3
    x#29#177  c04_29    1
    z#177     c01_177   1
    z#177     c01_178   -1
    x#29#178  c01_178   -3
    x#29#178  c02_29    -4
    x#29#178  c04_29    1
    z#178     c01_178   1
    z#178     c01_179   -1
    x#29#179  c01_179   -3
    x#29#179  c02_29    -5
    x#29#179  c04_29    1
    z#179     c01_179   1
    z#179     c01_180   -1
    x#29#180  c01_180   -3
    x#29#180  c02_29    -6
    x#29#180  c04_29    1
    z#180     c01_180   1
    z#180     c01_181   -1
    x#29#181  c01_181   -3
    x#29#181  c02_29    -7
    x#29#181  c04_29    1
    z#181     c01_181   1
    z#181     c01_182   -1
    x#29#182  c01_182   -3
    x#29#182  c02_29    -8
    x#29#182  c04_29    1
    z#182     c01_182   1
    z#182     c01_183   -1
    x#29#183  c01_183   -3
    x#29#183  c02_29    -9
    x#29#183  c04_29    1
    z#183     c01_183   1
    z#183     c01_184   -1
    x#29#184  c01_184   -3
    x#29#184  c02_29    -10
    x#29#184  c04_29    1
    z#184     c01_184   1
    z#184     c01_185   -1
    x#29#185  c01_185   -3
    x#29#185  c02_29    -11
    x#29#185  c04_29    1
    z#185     c01_185   1
    z#185     c01_186   -1
    x#29#186  c01_186   -3
    x#29#186  c02_29    -12
    x#29#186  c04_29    1
    z#186     c01_200   -1
    z#186     c01_186   1
    s#1       OBJ       1
    s#1       c02_1     1
    s#2       OBJ       1
    s#2       c02_2     1
    s#3       OBJ       1
    s#3       c02_3     1
    s#4       OBJ       1
    s#4       c02_4     1
    s#6       OBJ       1
    s#6       c02_6     1
    s#7       OBJ       1
    s#7       c02_7     1
    s#8       OBJ       1
    s#8       c02_8     1
    s#9       OBJ       1
    s#9       c02_9     1
    s#10      OBJ       1
    s#10      c02_10    1
    s#11      OBJ       1
    s#11      c02_11    1
    s#12      OBJ       1
    s#12      c02_12    1
    s#13      OBJ       1
    s#13      c02_13    1
    s#14      OBJ       1
    s#14      c02_14    1
    s#15      OBJ       1
    s#15      c02_15    1
    s#16      OBJ       1
    s#16      c02_16    1
    s#17      OBJ       1
    s#17      c02_17    1
    s#18      OBJ       1
    s#18      c02_18    1
    s#19      OBJ       1
    s#19      c02_19    1
    s#20      OBJ       1
    s#20      c02_20    1
    s#21      OBJ       1
    s#21      c02_21    1
    s#22      OBJ       1
    s#22      c02_22    1
    s#23      OBJ       1
    s#23      c02_23    1
    s#24      OBJ       1
    s#24      c02_24    1
    s#25      OBJ       1
    s#25      c02_25    1
    s#26      OBJ       1
    s#26      c02_26    1
    s#27      OBJ       1
    s#27      c02_27    1
    s#28      OBJ       1
    s#28      c02_28    1
    s#29      OBJ       1
    s#29      c02_29    1
    s#30      OBJ       1
    s#30      c02_30    1
    s#31      OBJ       1
    s#31      c02_31    1
    s#32      OBJ       1
    s#32      c02_32    1
    s#33      OBJ       1
    s#33      c02_33    1
    s#34      OBJ       1
    s#34      c02_34    1
    s#35      OBJ       1
    s#35      c02_35    1
    s#36      OBJ       1
    s#36      c02_36    1
    s#37      OBJ       1
    s#37      c02_37    1
    s#39      OBJ       1
    s#39      c02_39    1
    s#40      OBJ       1
    s#40      c02_40    1
    s#41      OBJ       1
    s#41      c02_41    1
    s#42      OBJ       1
    s#42      c02_42    1
    s#43      OBJ       1
    s#43      c02_43    1
    s#44      OBJ       1
    s#44      c02_44    1
    s#45      OBJ       1
    s#45      c02_45    1
    s#46      OBJ       1
    s#46      c02_46    1
    s#48      OBJ       1
    s#48      c02_48    1
    s#49      OBJ       1
    s#49      c02_49    1
    s#50      OBJ       1
    s#50      c02_50    1
    MARKER    'MARKER'                 'INTEND'
RHS
    RHS1      OBJ       3242
    RHS1      c01_200   -3
    RHS1      c02_1     72
    RHS1      c02_2     65
    RHS1      c02_3     56
    RHS1      c02_4     106
    RHS1      c02_6     111
    RHS1      c02_7     56
    RHS1      c02_8     104
    RHS1      c02_9     72
    RHS1      c02_10    9
    RHS1      c02_11    30
    RHS1      c02_12    157
    RHS1      c02_13    143
    RHS1      c02_14    4
    RHS1      c02_15    46
    RHS1      c02_16    41
    RHS1      c02_17    143
    RHS1      c02_18    68
    RHS1      c02_19    13
    RHS1      c02_20    122
    RHS1      c02_21    61
    RHS1      c02_22    21
    RHS1      c02_23    52
    RHS1      c02_24    48
    RHS1      c02_25    3
    RHS1      c02_26    79
    RHS1      c02_27    95
    RHS1      c02_28    118
    RHS1      c02_29    174
    RHS1      c02_30    86
    RHS1      c02_31    66
    RHS1      c02_32    135
    RHS1      c02_33    31
    RHS1      c02_34    4
    RHS1      c02_35    74
    RHS1      c02_36    22
    RHS1      c02_37    14
    RHS1      c02_39    90
    RHS1      c02_40    30
    RHS1      c02_41    72
    RHS1      c02_42    12
    RHS1      c02_43    156
    RHS1      c02_44    60
    RHS1      c02_45    51
    RHS1      c02_46    26
    RHS1      c02_48    45
    RHS1      c02_49    119
    RHS1      c02_50    80
    RHS1      c04_1     1
    RHS1      c04_2     1
    RHS1      c04_3     1
    RHS1      c04_4     1
    RHS1      c04_5     1
    RHS1      c04_6     1
    RHS1      c04_7     1
    RHS1      c04_8     1
    RHS1      c04_9     1
    RHS1      c04_10    1
    RHS1      c04_11    1
    RHS1      c04_12    1
    RHS1      c04_13    1
    RHS1      c04_14    1
    RHS1      c04_15    1
    RHS1      c04_16    1
    RHS1      c04_17    1
    RHS1      c04_18    1
    RHS1      c04_19    1
    RHS1      c04_20    1
    RHS1      c04_21    1
    RHS1      c04_22    1
    RHS1      c04_23    1
    RHS1      c04_24    1
    RHS1      c04_25    1
    RHS1      c04_26    1
    RHS1      c04_27    1
    RHS1      c04_28    1
    RHS1      c04_29    1
    RHS1      c04_30    1
    RHS1      c04_31    1
    RHS1      c04_32    1
    RHS1      c04_33    1
    RHS1      c04_34    1
    RHS1      c04_35    1
    RHS1      c04_36    1
    RHS1      c04_37    1
    RHS1      c04_38    1
    RHS1      c04_39    1
    RHS1      c04_40    1
    RHS1      c04_41    1
    RHS1      c04_42    1
    RHS1      c04_43    1
    RHS1      c04_44    1
    RHS1      c04_45    1
    RHS1      c04_46    1
    RHS1      c04_47    1
    RHS1      c04_48    1
    RHS1      c04_49    1
    RHS1      c04_50    1
BOUNDS
 BV BND1      x#25#3  
 BV BND1      x#34#4  
 BV BND1      x#25#4  
 BV BND1      x#14#4  
 BV BND1      x#34#5  
 BV BND1      x#25#5  
 BV BND1      x#14#5  
 BV BND1      x#34#6  
 BV BND1      x#25#6  
 BV BND1      x#14#6  
 BV BND1      x#34#7  
 BV BND1      x#25#7  
 BV BND1      x#14#7  
 BV BND1      x#34#8  
 BV BND1      x#25#8  
 BV BND1      x#14#8  
 BV BND1      x#34#9  
 BV BND1      x#25#9  
 BV BND1      x#14#9  
 BV BND1      x#10#9  
 BV BND1      x#34#10 
 BV BND1      x#25#10 
 BV BND1      x#14#10 
 BV BND1      x#10#10 
 BV BND1      x#34#11 
 BV BND1      x#25#11 
 BV BND1      x#14#11 
 BV BND1      x#10#11 
 BV BND1      x#42#12 
 BV BND1      x#34#12 
 BV BND1      x#25#12 
 BV BND1      x#14#12 
 BV BND1      x#10#12 
 UP BND1      z#12      16
 BV BND1      x#42#13 
 BV BND1      x#34#13 
 BV BND1      x#25#13 
 BV BND1      x#19#13 
 BV BND1      x#14#13 
 BV BND1      x#10#13 
 UP BND1      z#13      25
 BV BND1      x#42#14 
 BV BND1      x#37#14 
 BV BND1      x#34#14 
 BV BND1      x#25#14 
 BV BND1      x#19#14 
 BV BND1      x#14#14 
 BV BND1      x#10#14 
 UP BND1      z#14      25
 BV BND1      x#42#15 
 BV BND1      x#37#15 
 BV BND1      x#34#15 
 BV BND1      x#25#15 
 BV BND1      x#19#15 
 BV BND1      x#14#15 
 BV BND1      x#10#15 
 UP BND1      z#15      25
 BV BND1      x#42#16 
 BV BND1      x#37#16 
 BV BND1      x#34#16 
 BV BND1      x#25#16 
 BV BND1      x#19#16 
 BV BND1      x#14#16 
 BV BND1      x#10#16 
 UP BND1      z#16      25
 BV BND1      x#42#17 
 BV BND1      x#37#17 
 BV BND1      x#34#17 
 BV BND1      x#25#17 
 BV BND1      x#19#17 
 BV BND1      x#14#17 
 BV BND1      x#10#17 
 UP BND1      z#17      25
 BV BND1      x#42#18 
 BV BND1      x#37#18 
 BV BND1      x#34#18 
 BV BND1      x#25#18 
 BV BND1      x#19#18 
 BV BND1      x#14#18 
 BV BND1      x#10#18 
 UP BND1      z#18      25
 BV BND1      x#42#19 
 BV BND1      x#37#19 
 BV BND1      x#34#19 
 BV BND1      x#25#19 
 BV BND1      x#19#19 
 BV BND1      x#14#19 
 BV BND1      x#10#19 
 UP BND1      z#19      25
 BV BND1      x#42#20 
 BV BND1      x#37#20 
 BV BND1      x#34#20 
 BV BND1      x#25#20 
 BV BND1      x#19#20 
 BV BND1      x#14#20 
 BV BND1      x#10#20 
 UP BND1      z#20      25
 BV BND1      x#42#21 
 BV BND1      x#37#21 
 BV BND1      x#34#21 
 BV BND1      x#25#21 
 BV BND1      x#22#21 
 BV BND1      x#19#21 
 BV BND1      x#14#21 
 BV BND1      x#10#21 
 UP BND1      z#21      25
 BV BND1      x#42#22 
 BV BND1      x#37#22 
 BV BND1      x#36#22 
 BV BND1      x#34#22 
 BV BND1      x#25#22 
 BV BND1      x#22#22 
 BV BND1      x#19#22 
 BV BND1      x#14#22 
 BV BND1      x#10#22 
 UP BND1      z#22      25
 BV BND1      x#42#23 
 BV BND1      x#37#23 
 BV BND1      x#36#23 
 BV BND1      x#34#23 
 BV BND1      x#25#23 
 BV BND1      x#22#23 
 BV BND1      x#19#23 
 BV BND1      x#14#23 
 BV BND1      x#10#23 
 UP BND1      z#23      25
 BV BND1      x#42#24 
 BV BND1      x#37#24 
 BV BND1      x#36#24 
 BV BND1      x#34#24 
 BV BND1      x#25#24 
 BV BND1      x#22#24 
 BV BND1      x#19#24 
 BV BND1      x#14#24 
 BV BND1      x#10#24 
 UP BND1      z#24      25
 BV BND1      x#42#25 
 BV BND1      x#37#25 
 BV BND1      x#36#25 
 BV BND1      x#34#25 
 BV BND1      x#25#25 
 BV BND1      x#22#25 
 BV BND1      x#19#25 
 BV BND1      x#14#25 
 BV BND1      x#10#25 
 UP BND1      z#25      25
 BV BND1      x#46#26 
 BV BND1      x#42#26 
 BV BND1      x#37#26 
 BV BND1      x#36#26 
 BV BND1      x#34#26 
 BV BND1      x#25#26 
 BV BND1      x#22#26 
 BV BND1      x#19#26 
 BV BND1      x#14#26 
 UP BND1      z#26      25
 BV BND1      x#46#27 
 BV BND1      x#42#27 
 BV BND1      x#37#27 
 BV BND1      x#36#27 
 BV BND1      x#34#27 
 BV BND1      x#25#27 
 BV BND1      x#22#27 
 BV BND1      x#19#27 
 BV BND1      x#14#27 
 UP BND1      z#27      25
 BV BND1      x#46#28 
 BV BND1      x#42#28 
 BV BND1      x#37#28 
 BV BND1      x#36#28 
 BV BND1      x#34#28 
 BV BND1      x#25#28 
 BV BND1      x#22#28 
 BV BND1      x#19#28 
 BV BND1      x#14#28 
 UP BND1      z#28      25
 BV BND1      x#46#29 
 BV BND1      x#42#29 
 BV BND1      x#37#29 
 BV BND1      x#36#29 
 BV BND1      x#34#29 
 BV BND1      x#25#29 
 BV BND1      x#22#29 
 BV BND1      x#19#29 
 BV BND1      x#14#29 
 UP BND1      z#29      25
 BV BND1      x#46#30 
 BV BND1      x#42#30 
 BV BND1      x#40#30 
 BV BND1      x#37#30 
 BV BND1      x#36#30 
 BV BND1      x#34#30 
 BV BND1      x#25#30 
 BV BND1      x#22#30 
 BV BND1      x#19#30 
 BV BND1      x#14#30 
 BV BND1      x#11#30 
 UP BND1      z#30      25
 BV BND1      x#46#31 
 BV BND1      x#42#31 
 BV BND1      x#40#31 
 BV BND1      x#37#31 
 BV BND1      x#36#31 
 BV BND1      x#33#31 
 BV BND1      x#25#31 
 BV BND1      x#22#31 
 BV BND1      x#19#31 
 BV BND1      x#14#31 
 BV BND1      x#11#31 
 UP BND1      z#31      25
 BV BND1      x#46#32 
 BV BND1      x#42#32 
 BV BND1      x#40#32 
 BV BND1      x#37#32 
 BV BND1      x#36#32 
 BV BND1      x#33#32 
 BV BND1      x#25#32 
 BV BND1      x#22#32 
 BV BND1      x#19#32 
 BV BND1      x#14#32 
 BV BND1      x#11#32 
 UP BND1      z#32      25
 BV BND1      x#46#33 
 BV BND1      x#40#33 
 BV BND1      x#37#33 
 BV BND1      x#36#33 
 BV BND1      x#33#33 
 BV BND1      x#25#33 
 BV BND1      x#22#33 
 BV BND1      x#19#33 
 BV BND1      x#14#33 
 BV BND1      x#11#33 
 UP BND1      z#33      25
 BV BND1      x#46#34 
 BV BND1      x#40#34 
 BV BND1      x#37#34 
 BV BND1      x#36#34 
 BV BND1      x#33#34 
 BV BND1      x#25#34 
 BV BND1      x#22#34 
 BV BND1      x#19#34 
 BV BND1      x#11#34 
 UP BND1      z#34      25
 BV BND1      x#46#35 
 BV BND1      x#40#35 
 BV BND1      x#36#35 
 BV BND1      x#33#35 
 BV BND1      x#25#35 
 BV BND1      x#22#35 
 BV BND1      x#19#35 
 BV BND1      x#11#35 
 UP BND1      z#35      25
 BV BND1      x#46#36 
 BV BND1      x#40#36 
 BV BND1      x#36#36 
 BV BND1      x#33#36 
 BV BND1      x#25#36 
 BV BND1      x#22#36 
 BV BND1      x#19#36 
 BV BND1      x#11#36 
 UP BND1      z#36      25
 BV BND1      x#46#37 
 BV BND1      x#40#37 
 BV BND1      x#36#37 
 BV BND1      x#33#37 
 BV BND1      x#25#37 
 BV BND1      x#22#37 
 BV BND1      x#19#37 
 BV BND1      x#11#37 
 UP BND1      z#37      25
 BV BND1      x#46#38 
 BV BND1      x#40#38 
 BV BND1      x#36#38 
 BV BND1      x#33#38 
 BV BND1      x#25#38 
 BV BND1      x#22#38 
 BV BND1      x#19#38 
 BV BND1      x#11#38 
 UP BND1      z#38      25
 BV BND1      x#46#39 
 BV BND1      x#40#39 
 BV BND1      x#36#39 
 BV BND1      x#33#39 
 BV BND1      x#25#39 
 BV BND1      x#22#39 
 BV BND1      x#19#39 
 BV BND1      x#11#39 
 UP BND1      z#39      25
 BV BND1      x#46#40 
 BV BND1      x#40#40 
 BV BND1      x#36#40 
 BV BND1      x#33#40 
 BV BND1      x#25#40 
 BV BND1      x#22#40 
 BV BND1      x#19#40 
 BV BND1      x#11#40 
 UP BND1      z#40      25
 BV BND1      x#46#41 
 BV BND1      x#40#41 
 BV BND1      x#36#41 
 BV BND1      x#33#41 
 BV BND1      x#25#41 
 BV BND1      x#22#41 
 BV BND1      x#19#41 
 BV BND1      x#16#41 
 BV BND1      x#11#41 
 UP BND1      z#41      25
 BV BND1      x#46#42 
 BV BND1      x#40#42 
 BV BND1      x#36#42 
 BV BND1      x#33#42 
 BV BND1      x#25#42 
 BV BND1      x#22#42 
 BV BND1      x#19#42 
 BV BND1      x#16#42 
 BV BND1      x#11#42 
 UP BND1      z#42      25
 BV BND1      x#46#43 
 BV BND1      x#40#43 
 BV BND1      x#36#43 
 BV BND1      x#33#43 
 BV BND1      x#25#43 
 BV BND1      x#22#43 
 BV BND1      x#19#43 
 BV BND1      x#16#43 
 BV BND1      x#11#43 
 UP BND1      z#43      25
 BV BND1      x#46#44 
 BV BND1      x#40#44 
 BV BND1      x#36#44 
 BV BND1      x#33#44 
 BV BND1      x#25#44 
 BV BND1      x#22#44 
 BV BND1      x#19#44 
 BV BND1      x#16#44 
 BV BND1      x#11#44 
 UP BND1      z#44      25
 BV BND1      x#48#45 
 BV BND1      x#46#45 
 BV BND1      x#40#45 
 BV BND1      x#36#45 
 BV BND1      x#33#45 
 BV BND1      x#25#45 
 BV BND1      x#22#45 
 BV BND1      x#19#45 
 BV BND1      x#16#45 
 BV BND1      x#11#45 
 UP BND1      z#45      25
 BV BND1      x#48#46 
 BV BND1      x#46#46 
 BV BND1      x#40#46 
 BV BND1      x#36#46 
 BV BND1      x#33#46 
 BV BND1      x#25#46 
 BV BND1      x#22#46 
 BV BND1      x#19#46 
 BV BND1      x#16#46 
 BV BND1      x#15#46 
 BV BND1      x#11#46 
 UP BND1      z#46      25
 BV BND1      x#48#47 
 BV BND1      x#46#47 
 BV BND1      x#40#47 
 BV BND1      x#36#47 
 BV BND1      x#33#47 
 BV BND1      x#25#47 
 BV BND1      x#22#47 
 BV BND1      x#19#47 
 BV BND1      x#16#47 
 BV BND1      x#15#47 
 BV BND1      x#11#47 
 UP BND1      z#47      25
 BV BND1      x#48#48 
 BV BND1      x#46#48 
 BV BND1      x#40#48 
 BV BND1      x#36#48 
 BV BND1      x#33#48 
 BV BND1      x#25#48 
 BV BND1      x#24#48 
 BV BND1      x#19#48 
 BV BND1      x#16#48 
 BV BND1      x#15#48 
 BV BND1      x#11#48 
 UP BND1      z#48      25
 BV BND1      x#48#49 
 BV BND1      x#46#49 
 BV BND1      x#40#49 
 BV BND1      x#36#49 
 BV BND1      x#33#49 
 BV BND1      x#24#49 
 BV BND1      x#19#49 
 BV BND1      x#16#49 
 BV BND1      x#15#49 
 BV BND1      x#11#49 
 UP BND1      z#49      25
 BV BND1      x#48#50 
 BV BND1      x#46#50 
 BV BND1      x#40#50 
 BV BND1      x#36#50 
 BV BND1      x#33#50 
 BV BND1      x#24#50 
 BV BND1      x#19#50 
 BV BND1      x#16#50 
 BV BND1      x#15#50 
 UP BND1      z#50      25
 BV BND1      x#48#51 
 BV BND1      x#46#51 
 BV BND1      x#45#51 
 BV BND1      x#36#51 
 BV BND1      x#33#51 
 BV BND1      x#24#51 
 BV BND1      x#19#51 
 BV BND1      x#16#51 
 BV BND1      x#15#51 
 UP BND1      z#51      25
 BV BND1      x#48#52 
 BV BND1      x#46#52 
 BV BND1      x#45#52 
 BV BND1      x#36#52 
 BV BND1      x#33#52 
 BV BND1      x#24#52 
 BV BND1      x#23#52 
 BV BND1      x#19#52 
 BV BND1      x#16#52 
 BV BND1      x#15#52 
 UP BND1      z#52      25
 BV BND1      x#48#53 
 BV BND1      x#46#53 
 BV BND1      x#45#53 
 BV BND1      x#36#53 
 BV BND1      x#33#53 
 BV BND1      x#24#53 
 BV BND1      x#23#53 
 BV BND1      x#19#53 
 BV BND1      x#16#53 
 BV BND1      x#15#53 
 UP BND1      z#53      25
 BV BND1      x#48#54 
 BV BND1      x#46#54 
 BV BND1      x#45#54 
 BV BND1      x#36#54 
 BV BND1      x#33#54 
 BV BND1      x#24#54 
 BV BND1      x#23#54 
 BV BND1      x#19#54 
 BV BND1      x#16#54 
 BV BND1      x#15#54 
 UP BND1      z#54      25
 BV BND1      x#48#55 
 BV BND1      x#45#55 
 BV BND1      x#36#55 
 BV BND1      x#24#55 
 BV BND1      x#23#55 
 BV BND1      x#19#55 
 BV BND1      x#16#55 
 BV BND1      x#15#55 
 UP BND1      z#55      25
 BV BND1      x#48#56 
 BV BND1      x#45#56 
 BV BND1      x#36#56 
 BV BND1      x#24#56 
 BV BND1      x#23#56 
 BV BND1      x#19#56 
 BV BND1      x#16#56 
 BV BND1      x#15#56 
 BV BND1      x#7#56  
 BV BND1      x#3#56  
 UP BND1      z#56      25
 BV BND1      x#48#57 
 BV BND1      x#45#57 
 BV BND1      x#36#57 
 BV BND1      x#24#57 
 BV BND1      x#23#57 
 BV BND1      x#19#57 
 BV BND1      x#16#57 
 BV BND1      x#15#57 
 BV BND1      x#7#57  
 BV BND1      x#3#57  
 UP BND1      z#57      25
 BV BND1      x#48#58 
 BV BND1      x#45#58 
 BV BND1      x#36#58 
 BV BND1      x#24#58 
 BV BND1      x#23#58 
 BV BND1      x#19#58 
 BV BND1      x#16#58 
 BV BND1      x#15#58 
 BV BND1      x#7#58  
 BV BND1      x#3#58  
 UP BND1      z#58      25
 BV BND1      x#48#59 
 BV BND1      x#45#59 
 BV BND1      x#36#59 
 BV BND1      x#24#59 
 BV BND1      x#23#59 
 BV BND1      x#19#59 
 BV BND1      x#16#59 
 BV BND1      x#15#59 
 BV BND1      x#7#59  
 BV BND1      x#3#59  
 UP BND1      z#59      25
 BV BND1      x#48#60 
 BV BND1      x#45#60 
 BV BND1      x#44#60 
 BV BND1      x#36#60 
 BV BND1      x#24#60 
 BV BND1      x#23#60 
 BV BND1      x#19#60 
 BV BND1      x#16#60 
 BV BND1      x#15#60 
 BV BND1      x#7#60  
 BV BND1      x#3#60  
 UP BND1      z#60      25
 BV BND1      x#48#61 
 BV BND1      x#45#61 
 BV BND1      x#44#61 
 BV BND1      x#36#61 
 BV BND1      x#24#61 
 BV BND1      x#23#61 
 BV BND1      x#21#61 
 BV BND1      x#19#61 
 BV BND1      x#16#61 
 BV BND1      x#15#61 
 BV BND1      x#7#61  
 BV BND1      x#3#61  
 UP BND1      z#61      25
 BV BND1      x#48#62 
 BV BND1      x#45#62 
 BV BND1      x#44#62 
 BV BND1      x#36#62 
 BV BND1      x#24#62 
 BV BND1      x#23#62 
 BV BND1      x#21#62 
 BV BND1      x#19#62 
 BV BND1      x#16#62 
 BV BND1      x#15#62 
 BV BND1      x#7#62  
 BV BND1      x#3#62  
 UP BND1      z#62      25
 BV BND1      x#48#63 
 BV BND1      x#45#63 
 BV BND1      x#44#63 
 BV BND1      x#36#63 
 BV BND1      x#24#63 
 BV BND1      x#23#63 
 BV BND1      x#21#63 
 BV BND1      x#19#63 
 BV BND1      x#16#63 
 BV BND1      x#15#63 
 BV BND1      x#7#63  
 BV BND1      x#3#63  
 UP BND1      z#63      25
 BV BND1      x#48#64 
 BV BND1      x#45#64 
 BV BND1      x#44#64 
 BV BND1      x#36#64 
 BV BND1      x#24#64 
 BV BND1      x#23#64 
 BV BND1      x#21#64 
 BV BND1      x#19#64 
 BV BND1      x#16#64 
 BV BND1      x#15#64 
 BV BND1      x#7#64  
 BV BND1      x#3#64  
 UP BND1      z#64      25
 BV BND1      x#48#65 
 BV BND1      x#44#65 
 BV BND1      x#36#65 
 BV BND1      x#24#65 
 BV BND1      x#23#65 
 BV BND1      x#21#65 
 BV BND1      x#19#65 
 BV BND1      x#16#65 
 BV BND1      x#15#65 
 BV BND1      x#7#65  
 BV BND1      x#3#65  
 BV BND1      x#2#65  
 UP BND1      z#65      25
 BV BND1      x#48#66 
 BV BND1      x#44#66 
 BV BND1      x#36#66 
 BV BND1      x#31#66 
 BV BND1      x#24#66 
 BV BND1      x#23#66 
 BV BND1      x#21#66 
 BV BND1      x#19#66 
 BV BND1      x#16#66 
 BV BND1      x#15#66 
 BV BND1      x#7#66  
 BV BND1      x#3#66  
 BV BND1      x#2#66  
 UP BND1      z#66      25
 BV BND1      x#48#67 
 BV BND1      x#44#67 
 BV BND1      x#36#67 
 BV BND1      x#31#67 
 BV BND1      x#24#67 
 BV BND1      x#23#67 
 BV BND1      x#21#67 
 BV BND1      x#19#67 
 BV BND1      x#16#67 
 BV BND1      x#15#67 
 BV BND1      x#7#67  
 BV BND1      x#3#67  
 BV BND1      x#2#67  
 UP BND1      z#67      25
 BV BND1      x#48#68 
 BV BND1      x#44#68 
 BV BND1      x#36#68 
 BV BND1      x#31#68 
 BV BND1      x#24#68 
 BV BND1      x#23#68 
 BV BND1      x#21#68 
 BV BND1      x#19#68 
 BV BND1      x#18#68 
 BV BND1      x#16#68 
 BV BND1      x#15#68 
 BV BND1      x#7#68  
 BV BND1      x#3#68  
 BV BND1      x#2#68  
 UP BND1      z#68      25
 BV BND1      x#48#69 
 BV BND1      x#44#69 
 BV BND1      x#36#69 
 BV BND1      x#31#69 
 BV BND1      x#24#69 
 BV BND1      x#23#69 
 BV BND1      x#21#69 
 BV BND1      x#19#69 
 BV BND1      x#18#69 
 BV BND1      x#16#69 
 BV BND1      x#15#69 
 BV BND1      x#7#69  
 BV BND1      x#3#69  
 BV BND1      x#2#69  
 UP BND1      z#69      25
 BV BND1      x#48#70 
 BV BND1      x#44#70 
 BV BND1      x#36#70 
 BV BND1      x#31#70 
 BV BND1      x#24#70 
 BV BND1      x#23#70 
 BV BND1      x#21#70 
 BV BND1      x#19#70 
 BV BND1      x#18#70 
 BV BND1      x#16#70 
 BV BND1      x#15#70 
 BV BND1      x#7#70  
 BV BND1      x#2#70  
 UP BND1      z#70      25
 BV BND1      x#48#71 
 BV BND1      x#44#71 
 BV BND1      x#36#71 
 BV BND1      x#31#71 
 BV BND1      x#24#71 
 BV BND1      x#23#71 
 BV BND1      x#21#71 
 BV BND1      x#19#71 
 BV BND1      x#18#71 
 BV BND1      x#15#71 
 BV BND1      x#7#71  
 BV BND1      x#2#71  
 UP BND1      z#71      25
 BV BND1      x#48#72 
 BV BND1      x#44#72 
 BV BND1      x#41#72 
 BV BND1      x#36#72 
 BV BND1      x#31#72 
 BV BND1      x#24#72 
 BV BND1      x#23#72 
 BV BND1      x#21#72 
 BV BND1      x#19#72 
 BV BND1      x#18#72 
 BV BND1      x#15#72 
 BV BND1      x#9#72  
 BV BND1      x#7#72  
 BV BND1      x#2#72  
 BV BND1      x#1#72  
 UP BND1      z#72      25
 BV BND1      x#48#73 
 BV BND1      x#44#73 
 BV BND1      x#41#73 
 BV BND1      x#36#73 
 BV BND1      x#31#73 
 BV BND1      x#24#73 
 BV BND1      x#23#73 
 BV BND1      x#21#73 
 BV BND1      x#19#73 
 BV BND1      x#18#73 
 BV BND1      x#15#73 
 BV BND1      x#9#73  
 BV BND1      x#7#73  
 BV BND1      x#2#73  
 BV BND1      x#1#73  
 UP BND1      z#73      25
 BV BND1      x#48#74 
 BV BND1      x#44#74 
 BV BND1      x#41#74 
 BV BND1      x#36#74 
 BV BND1      x#35#74 
 BV BND1      x#31#74 
 BV BND1      x#24#74 
 BV BND1      x#23#74 
 BV BND1      x#21#74 
 BV BND1      x#18#74 
 BV BND1      x#15#74 
 BV BND1      x#9#74  
 BV BND1      x#7#74  
 BV BND1      x#2#74  
 BV BND1      x#1#74  
 UP BND1      z#74      25
 BV BND1      x#48#75 
 BV BND1      x#44#75 
 BV BND1      x#41#75 
 BV BND1      x#36#75 
 BV BND1      x#35#75 
 BV BND1      x#31#75 
 BV BND1      x#24#75 
 BV BND1      x#21#75 
 BV BND1      x#18#75 
 BV BND1      x#15#75 
 BV BND1      x#9#75  
 BV BND1      x#7#75  
 BV BND1      x#2#75  
 BV BND1      x#1#75  
 UP BND1      z#75      25
 BV BND1      x#48#76 
 BV BND1      x#44#76 
 BV BND1      x#41#76 
 BV BND1      x#35#76 
 BV BND1      x#31#76 
 BV BND1      x#24#76 
 BV BND1      x#21#76 
 BV BND1      x#18#76 
 BV BND1      x#15#76 
 BV BND1      x#9#76  
 BV BND1      x#7#76  
 BV BND1      x#2#76  
 BV BND1      x#1#76  
 UP BND1      z#76      25
 BV BND1      x#48#77 
 BV BND1      x#44#77 
 BV BND1      x#41#77 
 BV BND1      x#35#77 
 BV BND1      x#31#77 
 BV BND1      x#24#77 
 BV BND1      x#21#77 
 BV BND1      x#18#77 
 BV BND1      x#15#77 
 BV BND1      x#9#77  
 BV BND1      x#7#77  
 BV BND1      x#2#77  
 BV BND1      x#1#77  
 UP BND1      z#77      25
 BV BND1      x#48#78 
 BV BND1      x#44#78 
 BV BND1      x#41#78 
 BV BND1      x#35#78 
 BV BND1      x#31#78 
 BV BND1      x#24#78 
 BV BND1      x#21#78 
 BV BND1      x#18#78 
 BV BND1      x#15#78 
 BV BND1      x#9#78  
 BV BND1      x#7#78  
 BV BND1      x#2#78  
 BV BND1      x#1#78  
 UP BND1      z#78      25
 BV BND1      x#48#79 
 BV BND1      x#44#79 
 BV BND1      x#41#79 
 BV BND1      x#35#79 
 BV BND1      x#31#79 
 BV BND1      x#26#79 
 BV BND1      x#24#79 
 BV BND1      x#21#79 
 BV BND1      x#18#79 
 BV BND1      x#15#79 
 BV BND1      x#9#79  
 BV BND1      x#7#79  
 BV BND1      x#2#79  
 BV BND1      x#1#79  
 UP BND1      z#79      25
 BV BND1      x#50#80 
 BV BND1      x#48#80 
 BV BND1      x#44#80 
 BV BND1      x#41#80 
 BV BND1      x#35#80 
 BV BND1      x#31#80 
 BV BND1      x#26#80 
 BV BND1      x#24#80 
 BV BND1      x#21#80 
 BV BND1      x#18#80 
 BV BND1      x#15#80 
 BV BND1      x#9#80  
 BV BND1      x#7#80  
 BV BND1      x#2#80  
 BV BND1      x#1#80  
 UP BND1      z#80      25
 BV BND1      x#50#81 
 BV BND1      x#48#81 
 BV BND1      x#44#81 
 BV BND1      x#41#81 
 BV BND1      x#35#81 
 BV BND1      x#31#81 
 BV BND1      x#26#81 
 BV BND1      x#21#81 
 BV BND1      x#18#81 
 BV BND1      x#15#81 
 BV BND1      x#9#81  
 BV BND1      x#7#81  
 BV BND1      x#2#81  
 BV BND1      x#1#81  
 UP BND1      z#81      25
 BV BND1      x#50#82 
 BV BND1      x#48#82 
 BV BND1      x#44#82 
 BV BND1      x#41#82 
 BV BND1      x#35#82 
 BV BND1      x#31#82 
 BV BND1      x#26#82 
 BV BND1      x#21#82 
 BV BND1      x#18#82 
 BV BND1      x#15#82 
 BV BND1      x#9#82  
 BV BND1      x#7#82  
 BV BND1      x#2#82  
 BV BND1      x#1#82  
 UP BND1      z#82      25
 BV BND1      x#50#83 
 BV BND1      x#48#83 
 BV BND1      x#44#83 
 BV BND1      x#41#83 
 BV BND1      x#35#83 
 BV BND1      x#31#83 
 BV BND1      x#26#83 
 BV BND1      x#21#83 
 BV BND1      x#18#83 
 BV BND1      x#15#83 
 BV BND1      x#9#83  
 BV BND1      x#7#83  
 BV BND1      x#2#83  
 BV BND1      x#1#83  
 UP BND1      z#83      25
 BV BND1      x#50#84 
 BV BND1      x#48#84 
 BV BND1      x#44#84 
 BV BND1      x#41#84 
 BV BND1      x#35#84 
 BV BND1      x#31#84 
 BV BND1      x#26#84 
 BV BND1      x#18#84 
 BV BND1      x#15#84 
 BV BND1      x#9#84  
 BV BND1      x#7#84  
 BV BND1      x#2#84  
 BV BND1      x#1#84  
 UP BND1      z#84      25
 BV BND1      x#50#85 
 BV BND1      x#48#85 
 BV BND1      x#44#85 
 BV BND1      x#41#85 
 BV BND1      x#35#85 
 BV BND1      x#31#85 
 BV BND1      x#26#85 
 BV BND1      x#18#85 
 BV BND1      x#15#85 
 BV BND1      x#9#85  
 BV BND1      x#7#85  
 BV BND1      x#2#85  
 BV BND1      x#1#85  
 UP BND1      z#85      25
 BV BND1      x#50#86 
 BV BND1      x#48#86 
 BV BND1      x#44#86 
 BV BND1      x#41#86 
 BV BND1      x#35#86 
 BV BND1      x#31#86 
 BV BND1      x#30#86 
 BV BND1      x#26#86 
 BV BND1      x#18#86 
 BV BND1      x#15#86 
 BV BND1      x#9#86  
 BV BND1      x#7#86  
 BV BND1      x#2#86  
 BV BND1      x#1#86  
 UP BND1      z#86      25
 BV BND1      x#50#87 
 BV BND1      x#48#87 
 BV BND1      x#44#87 
 BV BND1      x#41#87 
 BV BND1      x#35#87 
 BV BND1      x#31#87 
 BV BND1      x#30#87 
 BV BND1      x#26#87 
 BV BND1      x#18#87 
 BV BND1      x#15#87 
 BV BND1      x#9#87  
 BV BND1      x#2#87  
 BV BND1      x#1#87  
 UP BND1      z#87      25
 BV BND1      x#50#88 
 BV BND1      x#48#88 
 BV BND1      x#44#88 
 BV BND1      x#41#88 
 BV BND1      x#31#88 
 BV BND1      x#30#88 
 BV BND1      x#26#88 
 BV BND1      x#18#88 
 BV BND1      x#15#88 
 BV BND1      x#9#88  
 BV BND1      x#2#88  
 BV BND1      x#1#88  
 UP BND1      z#88      25
 BV BND1      x#50#89 
 BV BND1      x#48#89 
 BV BND1      x#44#89 
 BV BND1      x#41#89 
 BV BND1      x#31#89 
 BV BND1      x#30#89 
 BV BND1      x#26#89 
 BV BND1      x#18#89 
 BV BND1      x#15#89 
 BV BND1      x#9#89  
 BV BND1      x#2#89  
 BV BND1      x#1#89  
 UP BND1      z#89      25
 BV BND1      x#50#90 
 BV BND1      x#48#90 
 BV BND1      x#44#90 
 BV BND1      x#41#90 
 BV BND1      x#39#90 
 BV BND1      x#31#90 
 BV BND1      x#30#90 
 BV BND1      x#26#90 
 BV BND1      x#18#90 
 BV BND1      x#15#90 
 BV BND1      x#9#90  
 BV BND1      x#2#90  
 BV BND1      x#1#90  
 UP BND1      z#90      25
 BV BND1      x#50#91 
 BV BND1      x#48#91 
 BV BND1      x#44#91 
 BV BND1      x#41#91 
 BV BND1      x#39#91 
 BV BND1      x#31#91 
 BV BND1      x#30#91 
 BV BND1      x#26#91 
 BV BND1      x#18#91 
 BV BND1      x#15#91 
 BV BND1      x#9#91  
 BV BND1      x#2#91  
 BV BND1      x#1#91  
 UP BND1      z#91      25
 BV BND1      x#50#92 
 BV BND1      x#48#92 
 BV BND1      x#44#92 
 BV BND1      x#41#92 
 BV BND1      x#39#92 
 BV BND1      x#31#92 
 BV BND1      x#30#92 
 BV BND1      x#26#92 
 BV BND1      x#18#92 
 BV BND1      x#15#92 
 BV BND1      x#9#92  
 BV BND1      x#2#92  
 BV BND1      x#1#92  
 UP BND1      z#92      25
 BV BND1      x#50#93 
 BV BND1      x#48#93 
 BV BND1      x#44#93 
 BV BND1      x#41#93 
 BV BND1      x#39#93 
 BV BND1      x#31#93 
 BV BND1      x#30#93 
 BV BND1      x#26#93 
 BV BND1      x#15#93 
 BV BND1      x#9#93  
 BV BND1      x#2#93  
 BV BND1      x#1#93  
 UP BND1      z#93      25
 BV BND1      x#50#94 
 BV BND1      x#48#94 
 BV BND1      x#44#94 
 BV BND1      x#41#94 
 BV BND1      x#39#94 
 BV BND1      x#31#94 
 BV BND1      x#30#94 
 BV BND1      x#26#94 
 BV BND1      x#15#94 
 BV BND1      x#9#94  
 BV BND1      x#2#94  
 BV BND1      x#1#94  
 UP BND1      z#94      25
 BV BND1      x#50#95 
 BV BND1      x#48#95 
 BV BND1      x#44#95 
 BV BND1      x#41#95 
 BV BND1      x#39#95 
 BV BND1      x#31#95 
 BV BND1      x#30#95 
 BV BND1      x#27#95 
 BV BND1      x#26#95 
 BV BND1      x#15#95 
 BV BND1      x#9#95  
 BV BND1      x#2#95  
 BV BND1      x#1#95  
 UP BND1      z#95      25
 BV BND1      x#50#96 
 BV BND1      x#48#96 
 BV BND1      x#44#96 
 BV BND1      x#39#96 
 BV BND1      x#31#96 
 BV BND1      x#30#96 
 BV BND1      x#27#96 
 BV BND1      x#26#96 
 BV BND1      x#15#96 
 BV BND1      x#9#96  
 BV BND1      x#2#96  
 BV BND1      x#1#96  
 UP BND1      z#96      25
 BV BND1      x#50#97 
 BV BND1      x#48#97 
 BV BND1      x#44#97 
 BV BND1      x#39#97 
 BV BND1      x#31#97 
 BV BND1      x#30#97 
 BV BND1      x#27#97 
 BV BND1      x#26#97 
 BV BND1      x#15#97 
 BV BND1      x#9#97  
 BV BND1      x#2#97  
 BV BND1      x#1#97  
 UP BND1      z#97      25
 BV BND1      x#50#98 
 BV BND1      x#48#98 
 BV BND1      x#44#98 
 BV BND1      x#39#98 
 BV BND1      x#31#98 
 BV BND1      x#30#98 
 BV BND1      x#27#98 
 BV BND1      x#26#98 
 BV BND1      x#15#98 
 BV BND1      x#9#98  
 BV BND1      x#2#98  
 BV BND1      x#1#98  
 UP BND1      z#98      25
 BV BND1      x#50#99 
 BV BND1      x#48#99 
 BV BND1      x#44#99 
 BV BND1      x#39#99 
 BV BND1      x#31#99 
 BV BND1      x#30#99 
 BV BND1      x#27#99 
 BV BND1      x#26#99 
 BV BND1      x#9#99  
 BV BND1      x#2#99  
 BV BND1      x#1#99  
 UP BND1      z#99      25
 BV BND1      x#50#100
 BV BND1      x#48#100
 BV BND1      x#44#100
 BV BND1      x#39#100
 BV BND1      x#31#100
 BV BND1      x#30#100
 BV BND1      x#27#100
 BV BND1      x#26#100
 BV BND1      x#9#100 
 BV BND1      x#2#100 
 BV BND1      x#1#100 
 UP BND1      z#100     25
 BV BND1      x#50#101
 BV BND1      x#48#101
 BV BND1      x#44#101
 BV BND1      x#39#101
 BV BND1      x#31#101
 BV BND1      x#30#101
 BV BND1      x#27#101
 BV BND1      x#26#101
 BV BND1      x#9#101 
 BV BND1      x#2#101 
 BV BND1      x#1#101 
 UP BND1      z#101     25
 BV BND1      x#50#102
 BV BND1      x#48#102
 BV BND1      x#44#102
 BV BND1      x#39#102
 BV BND1      x#31#102
 BV BND1      x#30#102
 BV BND1      x#27#102
 BV BND1      x#26#102
 BV BND1      x#9#102 
 BV BND1      x#2#102 
 BV BND1      x#1#102 
 UP BND1      z#102     25
 BV BND1      x#50#103
 BV BND1      x#48#103
 BV BND1      x#44#103
 BV BND1      x#39#103
 BV BND1      x#31#103
 BV BND1      x#30#103
 BV BND1      x#27#103
 BV BND1      x#26#103
 BV BND1      x#9#103 
 BV BND1      x#2#103 
 BV BND1      x#1#103 
 UP BND1      z#103     25
 BV BND1      x#50#104
 BV BND1      x#48#104
 BV BND1      x#44#104
 BV BND1      x#39#104
 BV BND1      x#31#104
 BV BND1      x#30#104
 BV BND1      x#27#104
 BV BND1      x#26#104
 BV BND1      x#9#104 
 BV BND1      x#8#104 
 BV BND1      x#2#104 
 UP BND1      z#104     25
 BV BND1      x#50#105
 BV BND1      x#48#105
 BV BND1      x#44#105
 BV BND1      x#39#105
 BV BND1      x#31#105
 BV BND1      x#30#105
 BV BND1      x#27#105
 BV BND1      x#26#105
 BV BND1      x#8#105 
 BV BND1      x#2#105 
 UP BND1      z#105     25
 BV BND1      x#50#106
 BV BND1      x#48#106
 BV BND1      x#44#106
 BV BND1      x#39#106
 BV BND1      x#31#106
 BV BND1      x#30#106
 BV BND1      x#27#106
 BV BND1      x#26#106
 BV BND1      x#8#106 
 BV BND1      x#4#106 
 BV BND1      x#2#106 
 UP BND1      z#106     25
 BV BND1      x#50#107
 BV BND1      x#48#107
 BV BND1      x#44#107
 BV BND1      x#39#107
 BV BND1      x#31#107
 BV BND1      x#30#107
 BV BND1      x#27#107
 BV BND1      x#26#107
 BV BND1      x#8#107 
 BV BND1      x#4#107 
 BV BND1      x#2#107 
 UP BND1      z#107     25
 BV BND1      x#50#108
 BV BND1      x#48#108
 BV BND1      x#44#108
 BV BND1      x#39#108
 BV BND1      x#31#108
 BV BND1      x#30#108
 BV BND1      x#27#108
 BV BND1      x#26#108
 BV BND1      x#8#108 
 BV BND1      x#4#108 
 BV BND1      x#2#108 
 UP BND1      z#108     25
 BV BND1      x#50#109
 BV BND1      x#44#109
 BV BND1      x#39#109
 BV BND1      x#31#109
 BV BND1      x#30#109
 BV BND1      x#27#109
 BV BND1      x#26#109
 BV BND1      x#8#109 
 BV BND1      x#4#109 
 UP BND1      z#109     25
 BV BND1      x#50#110
 BV BND1      x#44#110
 BV BND1      x#39#110
 BV BND1      x#31#110
 BV BND1      x#30#110
 BV BND1      x#27#110
 BV BND1      x#26#110
 BV BND1      x#8#110 
 BV BND1      x#4#110 
 UP BND1      z#110     25
 BV BND1      x#50#111
 BV BND1      x#47#111
 BV BND1      x#44#111
 BV BND1      x#39#111
 BV BND1      x#30#111
 BV BND1      x#27#111
 BV BND1      x#26#111
 BV BND1      x#8#111 
 BV BND1      x#6#111 
 BV BND1      x#4#111 
 UP BND1      z#111     25
 BV BND1      x#50#112
 BV BND1      x#47#112
 BV BND1      x#44#112
 BV BND1      x#39#112
 BV BND1      x#30#112
 BV BND1      x#27#112
 BV BND1      x#26#112
 BV BND1      x#8#112 
 BV BND1      x#6#112 
 BV BND1      x#4#112 
 UP BND1      z#112     25
 BV BND1      x#50#113
 BV BND1      x#47#113
 BV BND1      x#44#113
 BV BND1      x#39#113
 BV BND1      x#30#113
 BV BND1      x#27#113
 BV BND1      x#26#113
 BV BND1      x#8#113 
 BV BND1      x#6#113 
 BV BND1      x#4#113 
 UP BND1      z#113     25
 BV BND1      x#50#114
 BV BND1      x#47#114
 BV BND1      x#44#114
 BV BND1      x#39#114
 BV BND1      x#30#114
 BV BND1      x#27#114
 BV BND1      x#26#114
 BV BND1      x#8#114 
 BV BND1      x#6#114 
 BV BND1      x#4#114 
 UP BND1      z#114     25
 BV BND1      x#50#115
 BV BND1      x#47#115
 BV BND1      x#44#115
 BV BND1      x#30#115
 BV BND1      x#27#115
 BV BND1      x#26#115
 BV BND1      x#8#115 
 BV BND1      x#6#115 
 BV BND1      x#4#115 
 UP BND1      z#115     25
 BV BND1      x#50#116
 BV BND1      x#47#116
 BV BND1      x#30#116
 BV BND1      x#27#116
 BV BND1      x#8#116 
 BV BND1      x#6#116 
 BV BND1      x#4#116 
 UP BND1      z#116     25
 BV BND1      x#50#117
 BV BND1      x#47#117
 BV BND1      x#30#117
 BV BND1      x#27#117
 BV BND1      x#8#117 
 BV BND1      x#6#117 
 BV BND1      x#4#117 
 UP BND1      z#117     25
 BV BND1      x#50#118
 BV BND1      x#30#118
 BV BND1      x#28#118
 BV BND1      x#27#118
 BV BND1      x#8#118 
 BV BND1      x#6#118 
 BV BND1      x#4#118 
 UP BND1      z#118     25
 BV BND1      x#50#119
 BV BND1      x#49#119
 BV BND1      x#30#119
 BV BND1      x#28#119
 BV BND1      x#27#119
 BV BND1      x#8#119 
 BV BND1      x#6#119 
 BV BND1      x#4#119 
 UP BND1      z#119     25
 BV BND1      x#50#120
 BV BND1      x#49#120
 BV BND1      x#30#120
 BV BND1      x#28#120
 BV BND1      x#27#120
 BV BND1      x#8#120 
 BV BND1      x#6#120 
 BV BND1      x#4#120 
 UP BND1      z#120     25
 BV BND1      x#50#121
 BV BND1      x#49#121
 BV BND1      x#30#121
 BV BND1      x#28#121
 BV BND1      x#27#121
 BV BND1      x#8#121 
 BV BND1      x#6#121 
 BV BND1      x#4#121 
 UP BND1      z#121     25
 BV BND1      x#50#122
 BV BND1      x#49#122
 BV BND1      x#30#122
 BV BND1      x#28#122
 BV BND1      x#27#122
 BV BND1      x#20#122
 BV BND1      x#8#122 
 BV BND1      x#6#122 
 BV BND1      x#4#122 
 UP BND1      z#122     25
 BV BND1      x#50#123
 BV BND1      x#49#123
 BV BND1      x#30#123
 BV BND1      x#28#123
 BV BND1      x#27#123
 BV BND1      x#20#123
 BV BND1      x#8#123 
 BV BND1      x#6#123 
 BV BND1      x#4#123 
 UP BND1      z#123     25
 BV BND1      x#50#124
 BV BND1      x#49#124
 BV BND1      x#30#124
 BV BND1      x#28#124
 BV BND1      x#27#124
 BV BND1      x#20#124
 BV BND1      x#8#124 
 BV BND1      x#6#124 
 BV BND1      x#4#124 
 UP BND1      z#124     25
 BV BND1      x#50#125
 BV BND1      x#49#125
 BV BND1      x#28#125
 BV BND1      x#27#125
 BV BND1      x#20#125
 BV BND1      x#8#125 
 BV BND1      x#6#125 
 BV BND1      x#4#125 
 UP BND1      z#125     25
 BV BND1      x#50#126
 BV BND1      x#49#126
 BV BND1      x#28#126
 BV BND1      x#27#126
 BV BND1      x#20#126
 BV BND1      x#6#126 
 BV BND1      x#4#126 
 UP BND1      z#126     25
 BV BND1      x#50#127
 BV BND1      x#49#127
 BV BND1      x#28#127
 BV BND1      x#27#127
 BV BND1      x#20#127
 BV BND1      x#6#127 
 BV BND1      x#4#127 
 UP BND1      z#127     25
 BV BND1      x#50#128
 BV BND1      x#49#128
 BV BND1      x#28#128
 BV BND1      x#27#128
 BV BND1      x#20#128
 BV BND1      x#6#128 
 BV BND1      x#4#128 
 UP BND1      z#128     25
 BV BND1      x#50#129
 BV BND1      x#49#129
 BV BND1      x#28#129
 BV BND1      x#27#129
 BV BND1      x#20#129
 BV BND1      x#6#129 
 BV BND1      x#4#129 
 UP BND1      z#129     25
 BV BND1      x#50#130
 BV BND1      x#49#130
 BV BND1      x#28#130
 BV BND1      x#27#130
 BV BND1      x#20#130
 BV BND1      x#6#130 
 BV BND1      x#4#130 
 UP BND1      z#130     25
 BV BND1      x#49#131
 BV BND1      x#28#131
 BV BND1      x#27#131
 BV BND1      x#20#131
 BV BND1      x#6#131 
 BV BND1      x#4#131 
 UP BND1      z#131     25
 BV BND1      x#49#132
 BV BND1      x#28#132
 BV BND1      x#27#132
 BV BND1      x#20#132
 BV BND1      x#6#132 
 BV BND1      x#4#132 
 UP BND1      z#132     25
 BV BND1      x#49#133
 BV BND1      x#28#133
 BV BND1      x#27#133
 BV BND1      x#6#133 
 BV BND1      x#4#133 
 UP BND1      z#133     25
 BV BND1      x#49#134
 BV BND1      x#28#134
 BV BND1      x#27#134
 BV BND1      x#6#134 
 BV BND1      x#4#134 
 UP BND1      z#134     25
 BV BND1      x#49#135
 BV BND1      x#32#135
 BV BND1      x#27#135
 BV BND1      x#6#135 
 BV BND1      x#4#135 
 UP BND1      z#135     25
 BV BND1      x#49#136
 BV BND1      x#32#136
 BV BND1      x#27#136
 BV BND1      x#6#136 
 BV BND1      x#4#136 
 UP BND1      z#136     25
 BV BND1      x#49#137
 BV BND1      x#32#137
 BV BND1      x#6#137 
 BV BND1      x#4#137 
 UP BND1      z#137     25
 BV BND1      x#49#138
 BV BND1      x#32#138
 BV BND1      x#6#138 
 BV BND1      x#4#138 
 UP BND1      z#138     25
 BV BND1      x#49#139
 BV BND1      x#32#139
 BV BND1      x#6#139 
 BV BND1      x#4#139 
 UP BND1      z#139     25
 BV BND1      x#49#140
 BV BND1      x#32#140
 BV BND1      x#6#140 
 BV BND1      x#4#140 
 UP BND1      z#140     25
 BV BND1      x#49#141
 BV BND1      x#32#141
 BV BND1      x#6#141 
 BV BND1      x#4#141 
 UP BND1      z#141     25
 BV BND1      x#49#142
 BV BND1      x#32#142
 BV BND1      x#6#142 
 BV BND1      x#4#142 
 UP BND1      z#142     25
 BV BND1      x#49#143
 BV BND1      x#32#143
 BV BND1      x#17#143
 BV BND1      x#13#143
 BV BND1      x#6#143 
 BV BND1      x#4#143 
 UP BND1      z#143     25
 BV BND1      x#49#144
 BV BND1      x#32#144
 BV BND1      x#17#144
 BV BND1      x#13#144
 BV BND1      x#6#144 
 BV BND1      x#4#144 
 UP BND1      z#144     25
 BV BND1      x#32#145
 BV BND1      x#17#145
 BV BND1      x#13#145
 BV BND1      x#6#145 
 BV BND1      x#4#145 
 UP BND1      z#145     25
 BV BND1      x#32#146
 BV BND1      x#17#146
 BV BND1      x#13#146
 BV BND1      x#6#146 
 BV BND1      x#4#146 
 UP BND1      z#146     25
 BV BND1      x#32#147
 BV BND1      x#17#147
 BV BND1      x#13#147
 BV BND1      x#6#147 
 BV BND1      x#5#147 
 BV BND1      x#4#147 
 UP BND1      z#147     25
 BV BND1      x#38#148
 BV BND1      x#32#148
 BV BND1      x#17#148
 BV BND1      x#13#148
 BV BND1      x#6#148 
 BV BND1      x#5#148 
 BV BND1      x#4#148 
 UP BND1      z#148     25
 BV BND1      x#38#149
 BV BND1      x#32#149
 BV BND1      x#17#149
 BV BND1      x#13#149
 BV BND1      x#6#149 
 BV BND1      x#5#149 
 BV BND1      x#4#149 
 UP BND1      z#149     25
 BV BND1      x#38#150
 BV BND1      x#32#150
 BV BND1      x#17#150
 BV BND1      x#13#150
 BV BND1      x#6#150 
 BV BND1      x#5#150 
 BV BND1      x#4#150 
 UP BND1      z#150     25
 BV BND1      x#38#151
 BV BND1      x#32#151
 BV BND1      x#17#151
 BV BND1      x#13#151
 BV BND1      x#6#151 
 BV BND1      x#5#151 
 BV BND1      x#4#151 
 UP BND1      z#151     25
 BV BND1      x#38#152
 BV BND1      x#17#152
 BV BND1      x#13#152
 BV BND1      x#6#152 
 BV BND1      x#5#152 
 BV BND1      x#4#152 
 UP BND1      z#152     25
 BV BND1      x#38#153
 BV BND1      x#17#153
 BV BND1      x#13#153
 BV BND1      x#6#153 
 BV BND1      x#5#153 
 BV BND1      x#4#153 
 UP BND1      z#153     25
 BV BND1      x#38#154
 BV BND1      x#17#154
 BV BND1      x#13#154
 BV BND1      x#6#154 
 BV BND1      x#5#154 
 UP BND1      z#154     25
 BV BND1      x#38#155
 BV BND1      x#17#155
 BV BND1      x#13#155
 BV BND1      x#6#155 
 BV BND1      x#5#155 
 UP BND1      z#155     25
 BV BND1      x#43#156
 BV BND1      x#38#156
 BV BND1      x#17#156
 BV BND1      x#13#156
 BV BND1      x#6#156 
 BV BND1      x#5#156 
 UP BND1      z#156     25
 BV BND1      x#43#157
 BV BND1      x#17#157
 BV BND1      x#13#157
 BV BND1      x#12#157
 BV BND1      x#6#157 
 UP BND1      z#157     25
 BV BND1      x#43#158
 BV BND1      x#17#158
 BV BND1      x#13#158
 BV BND1      x#12#158
 BV BND1      x#6#158 
 UP BND1      z#158     25
 BV BND1      x#43#159
 BV BND1      x#17#159
 BV BND1      x#13#159
 BV BND1      x#12#159
 UP BND1      z#159     25
 BV BND1      x#43#160
 BV BND1      x#17#160
 BV BND1      x#13#160
 BV BND1      x#12#160
 UP BND1      z#160     25
 BV BND1      x#43#161
 BV BND1      x#17#161
 BV BND1      x#13#161
 BV BND1      x#12#161
 UP BND1      z#161     25
 BV BND1      x#43#162
 BV BND1      x#17#162
 BV BND1      x#13#162
 BV BND1      x#12#162
 UP BND1      z#162     25
 BV BND1      x#43#163
 BV BND1      x#17#163
 BV BND1      x#12#163
 UP BND1      z#163     25
 BV BND1      x#43#164
 BV BND1      x#17#164
 BV BND1      x#12#164
 UP BND1      z#164     25
 BV BND1      x#43#165
 BV BND1      x#17#165
 BV BND1      x#12#165
 UP BND1      z#165     25
 BV BND1      x#43#166
 BV BND1      x#17#166
 BV BND1      x#12#166
 UP BND1      z#166     25
 BV BND1      x#43#167
 BV BND1      x#17#167
 BV BND1      x#12#167
 UP BND1      z#167     25
 BV BND1      x#43#168
 BV BND1      x#17#168
 UP BND1      z#168     25
 BV BND1      x#43#169
 BV BND1      x#17#169
 UP BND1      z#169     25
 BV BND1      x#43#170
 BV BND1      x#17#170
 UP BND1      z#170     25
 BV BND1      x#43#171
 BV BND1      x#17#171
 UP BND1      z#171     25
 BV BND1      x#17#172
 UP BND1      z#172     25
 BV BND1      x#17#173
 UP BND1      z#173     25
 BV BND1      x#29#174
 BV BND1      x#17#174
 UP BND1      z#174     25
 BV BND1      x#29#175
 UP BND1      z#175     25
 BV BND1      x#29#176
 UP BND1      z#176     25
 BV BND1      x#29#177
 UP BND1      z#177     25
 BV BND1      x#29#178
 UP BND1      z#178     25
 BV BND1      x#29#179
 UP BND1      z#179     25
 BV BND1      x#29#180
 UP BND1      z#180     25
 BV BND1      x#29#181
 UP BND1      z#181     25
 BV BND1      x#29#182
 UP BND1      z#182     25
 BV BND1      x#29#183
 UP BND1      z#183     25
 BV BND1      x#29#184
 UP BND1      z#184     25
 BV BND1      x#29#185
 UP BND1      z#185     25
 BV BND1      x#29#186
 LO BND1      z#186     3
 UP BND1      z#186     25
 LO BND1      s#1       72
 UP BND1      s#1       103
 LO BND1      s#2       65
 UP BND1      s#2       108
 LO BND1      s#3       56
 UP BND1      s#3       69
 LO BND1      s#4       106
 UP BND1      s#4       153
 LO BND1      s#6       111
 UP BND1      s#6       158
 LO BND1      s#7       56
 UP BND1      s#7       86
 LO BND1      s#8       104
 UP BND1      s#8       125
 LO BND1      s#9       72
 UP BND1      s#9       104
 LO BND1      s#10      9
 UP BND1      s#10      25
 LO BND1      s#11      30
 UP BND1      s#11      49
 LO BND1      s#12      157
 UP BND1      s#12      167
 LO BND1      s#13      143
 UP BND1      s#13      162
 LO BND1      s#14      4
 UP BND1      s#14      33
 LO BND1      s#15      46
 UP BND1      s#15      98
 LO BND1      s#16      41
 UP BND1      s#16      70
 LO BND1      s#17      143
 UP BND1      s#17      174
 LO BND1      s#18      68
 UP BND1      s#18      92
 LO BND1      s#19      13
 UP BND1      s#19      73
 LO BND1      s#20      122
 UP BND1      s#20      132
 LO BND1      s#21      61
 UP BND1      s#21      83
 LO BND1      s#22      21
 UP BND1      s#22      47
 LO BND1      s#23      52
 UP BND1      s#23      74
 LO BND1      s#24      48
 UP BND1      s#24      80
 LO BND1      s#25      3
 UP BND1      s#25      48
 LO BND1      s#26      79
 UP BND1      s#26      115
 LO BND1      s#27      95
 UP BND1      s#27      136
 LO BND1      s#28      118
 UP BND1      s#28      134
 LO BND1      s#29      174
 UP BND1      s#29      186
 LO BND1      s#30      86
 UP BND1      s#30      124
 LO BND1      s#31      66
 UP BND1      s#31      110
 LO BND1      s#32      135
 UP BND1      s#32      151
 LO BND1      s#33      31
 UP BND1      s#33      54
 LO BND1      s#34      4
 UP BND1      s#34      30
 LO BND1      s#35      74
 UP BND1      s#35      87
 LO BND1      s#36      22
 UP BND1      s#36      75
 LO BND1      s#37      14
 UP BND1      s#37      34
 LO BND1      s#39      90
 UP BND1      s#39      114
 LO BND1      s#40      30
 UP BND1      s#40      50
 LO BND1      s#41      72
 UP BND1      s#41      95
 LO BND1      s#42      12
 UP BND1      s#42      32
 LO BND1      s#43      156
 UP BND1      s#43      171
 LO BND1      s#44      60
 UP BND1      s#44      115
 LO BND1      s#45      51
 UP BND1      s#45      64
 LO BND1      s#46      26
 UP BND1      s#46      54
 LO BND1      s#48      45
 UP BND1      s#48      108
 LO BND1      s#49      119
 UP BND1      s#49      144
 LO BND1      s#50      80
 UP BND1      s#50      130
ENDATA
