NAME glass4_pre
ROWS
 N  OBJ
 L  c1      
 L  c2      
 L  c3      
 L  c4      
 L  c5      
 L  c6      
 L  c7      
 L  c8      
 L  c9      
 L  c10     
 L  c11     
 L  c12     
 L  c13     
 L  c14     
 L  c15     
 L  c16     
 L  c17     
 L  c18     
 L  c19     
 L  c20     
 E  c21     
 L  c22     
 L  c23     
 L  c24     
 L  c25     
 L  c26     
 L  c27     
 L  c28     
 L  c29     
 L  c31     
 L  c32     
 L  c33     
 L  c34     
 E  c35     
 L  c36     
 L  c37     
 L  c38     
 L  c39     
 L  c40     
 L  c41     
 L  c42     
 L  c43     
 L  c44     
 L  c45     
 L  c46     
 E  c47     
 L  c48     
 L  c49     
 L  c50     
 L  c51     
 L  c52     
 L  c53     
 L  c54     
 L  c55     
 L  c56     
 L  c57     
 L  c58     
 E  c59     
 L  c60     
 L  c61     
 L  c62     
 L  c63     
 L  c64     
 L  c65     
 L  c66     
 L  c67     
 L  c68     
 L  c69     
 L  c70     
 E  c71     
 L  c72     
 L  c73     
 L  c74     
 L  c75     
 L  c76     
 L  c77     
 L  c78     
 L  c79     
 L  c80     
 L  c81     
 L  c82     
 E  c83     
 L  c84     
 L  c85     
 L  c86     
 L  c87     
 L  c88     
 L  c89     
 L  c90     
 L  c91     
 L  c92     
 L  c93     
 L  c94     
 L  c95     
 L  c96     
 L  c97     
 L  c98     
 L  c99     
 L  c100    
 E  c101    
 L  c102    
 L  c103    
 L  c104    
 L  c105    
 L  c106    
 L  c107    
 L  c108    
 L  c109    
 L  c110    
 E  c111    
 L  c112    
 L  c113    
 L  c114    
 L  c115    
 L  c116    
 L  c117    
 L  c118    
 L  c120    
 L  c121    
 E  c122    
 L  c123    
 L  c124    
 L  c125    
 L  c126    
 L  c127    
 L  c128    
 L  c129    
 L  c130    
 L  c131    
 E  c132    
 L  c133    
 L  c134    
 L  c135    
 L  c136    
 L  c137    
 L  c138    
 L  c139    
 L  c140    
 L  c141    
 L  c142    
 L  c143    
 E  c144    
 L  c145    
 L  c146    
 L  c147    
 L  c148    
 L  c149    
 L  c150    
 L  c151    
 L  c152    
 L  c153    
 L  c154    
 E  c155    
 L  c156    
 L  c157    
 L  c158    
 L  c159    
 L  c160    
 L  c161    
 L  c162    
 L  c163    
 L  c164    
 E  c165    
 L  c166    
 L  c167    
 L  c168    
 L  c169    
 L  c170    
 L  c171    
 L  c172    
 L  c173    
 L  c174    
 L  c175    
 L  c176    
 L  c177    
 L  c178    
 E  c179    
 L  c180    
 L  c181    
 L  c182    
 L  c183    
 L  c184    
 L  c185    
 L  c186    
 E  c187    
 L  c188    
 L  c189    
 L  c190    
 L  c191    
 L  c192    
 L  c193    
 L  c194    
 L  c195    
 E  c196    
 L  c197    
 L  c198    
 L  c199    
 L  c200    
 L  c201    
 L  c202    
 L  c203    
 L  c204    
 E  c205    
 L  c206    
 L  c207    
 L  c209    
 L  c210    
 L  c211    
 L  c212    
 L  c213    
 L  c214    
 E  c215    
 L  c216    
 L  c217    
 L  c218    
 L  c219    
 L  c220    
 L  c221    
 L  c222    
 L  c223    
 E  c224    
 L  c225    
 L  c226    
 L  c227    
 L  c229    
 L  c230    
 L  c231    
 L  c232    
 L  c233    
 L  c234    
 L  c235    
 E  c236    
 L  c237    
 L  c238    
 L  c239    
 L  c241    
 L  c242    
 L  c243    
 E  c244    
 L  c245    
 L  c246    
 L  c247    
 L  c248    
 L  c249    
 L  c250    
 L  c251    
 L  c252    
 L  c253    
 E  c254    
 L  c255    
 L  c256    
 L  c257    
 L  c258    
 L  c259    
 L  c260    
 L  c261    
 L  c262    
 L  c263    
 L  c264    
 L  c265    
 E  c266    
 L  c267    
 L  c268    
 L  c269    
 L  c270    
 L  c271    
 L  c272    
 E  c273    
 L  c274    
 L  c275    
 L  c276    
 L  c277    
 L  c278    
 L  c279    
 L  c280    
 L  c281    
 L  c282    
 L  c283    
 L  c284    
 E  c285    
 L  c286    
 L  c287    
 L  c288    
 L  c289    
 L  c290    
 L  c291    
 E  c292    
 L  c293    
 L  c294    
 L  c295    
 L  c296    
 L  c297    
 L  c298    
 L  c299    
 L  c300    
 L  c301    
 L  c302    
 E  c303    
 L  c304    
 L  c305    
 L  c306    
 L  c307    
 L  c308    
 L  c309    
 L  c310    
 L  c311    
 L  c312    
 E  c313    
 L  c314    
 L  c315    
 L  c316    
 L  c317    
 L  c318    
 L  c319    
 L  c320    
 L  c321    
 L  c322    
 L  c323    
 L  c324    
 L  c325    
 E  c326    
 L  c327    
 L  c328    
 L  c329    
 L  c330    
 L  c331    
 L  c332    
 L  c333    
 E  c334    
 L  c335    
 L  c336    
 L  c337    
 L  c338    
 L  c339    
 L  c340    
 L  c341    
 L  c342    
 L  c343    
 E  c344    
 L  c345    
 L  c346    
 L  c347    
 L  c348    
 L  c349    
 L  c350    
 L  c352    
 L  c353    
 L  c354    
 L  c355    
 L  c356    
 E  c357    
 L  c358    
 L  c359    
 L  c360    
 L  c361    
 L  c362    
 L  c363    
 L  c364    
 L  c365    
 E  c366    
 L  c367    
 L  c368    
 L  c369    
 L  c370    
 L  c371    
 L  c372    
 L  c373    
 L  c374    
 L  c375    
 L  c376    
 L  c377    
 E  c378    
 L  c379    
 L  c380    
 L  c381    
 L  c382    
 L  c383    
 L  c384    
 L  c385    
 E  c386    
 L  c387    
 L  c388    
 L  c389    
 L  c390    
 L  c391    
 L  c392    
 L  c393    
 L  c394    
 L  c395    
 E  c396    
COLUMNS
    x1        OBJ       2
    x1        c1        1
    x1        c11       -300
    x1        c13       300
    x1        c14       600
    x1        c16       100
    x1        c18       -100
    x1        c20       -600
    x1        c23       200
    x1        c24       400
    x1        c25       200
    x1        c26       300
    x1        c28       -33.334014893
    x1        c29       133.3340149
    x1        c31       -120
    x1        c32       20
    x1        c34       -1100
    x1        c37       200
    x1        c38       400
    x1        c39       200
    x1        c40       -100
    x1        c41       200
    x1        c42       -100
    x1        c43       -40
    x1        c44       40
    x1        c45       -100
    x1        c46       -700
    x1        c49       200
    x1        c50       400
    x1        c51       200
    x1        c52       -100
    x1        c53       200
    x1        c54       -125
    x1        c55       25
    x1        c56       -200
    x1        c57       -200
    x1        c58       -400
    x1        c61       800
    x1        c62       200
    x1        c63       -100
    x1        c64       200
    x1        c65       -166.66598511
    x1        c66       66.66598511
    x1        c67       -200
    x1        c68       -300
    x1        c69       -100
    x1        c70       -400
    x1        c72       -300
    x1        c74       800
    x1        c75       100
    x1        c76       -66.665985107
    x1        c77       66.66598511
    x1        c78       100
    x1        c79       -200
    x1        c80       100
    x1        c81       -200
    x1        c82       -400
    x1        c84       -200
    x1        c86       200
    x1        c87       200
    x1        c88       400
    x1        c89       300
    x1        c90       -100
    x1        c91       200
    x1        c92       -100
    x1        c93       -40
    x1        c94       40
    x1        c95       -100
    x1        c96       -300
    x1        c97       -40
    x1        c98       40
    x1        c99       -100
    x1        c100      -400
    x1        c102      -300
    x1        c104      1000
    x1        c105      -100
    x1        c106      200
    x1        c107      -166.66598511
    x1        c108      66.66598511
    x1        c109      -300
    x1        c110      -400
    x2        OBJ       2
    x2        c2        1
    x2        c11       300
    x2        c13       -300
    x2        c14       -600
    x2        c16       -100
    x2        c18       100
    x2        c20       600
    x2        c113      200
    x2        c114      200
    x2        c115      200
    x2        c116      300
    x2        c118      300
    x2        c120      -300
    x2        c121      -900
    x2        c124      200
    x2        c125      200
    x2        c126      200
    x2        c127      100
    x2        c128      200
    x2        c129      -100
    x2        c130      -300
    x2        c131      -500
    x2        c134      200
    x2        c135      200
    x2        c136      200
    x2        c138      100
    x2        c139      200
    x2        c140      -200
    x2        c141      -300
    x2        c142      -200
    x2        c143      -200
    x2        c146      600
    x2        c147      200
    x2        c148      100
    x2        c149      200
    x2        c150      -500
    x2        c151      -200
    x2        c152      -66.665985107
    x2        c153      -133.33401489
    x2        c154      -200
    x2        c156      -300
    x2        c158      600
    x2        c159      100
    x2        c160      200
    x2        c161      100
    x2        c162      -300
    x2        c163      -200
    x2        c164      -200
    x2        c166      -200
    x2        c168      200
    x2        c169      200
    x2        c170      200
    x2        c171      200
    x2        c172      100
    x2        c173      300
    x2        c174      -100
    x2        c175      -300
    x2        c176      -100
    x2        c177      -300
    x2        c178      -200
    x2        c180      -300
    x2        c182      800
    x2        c184      300
    x2        c185      -600
    x2        c186      -200
    x3        OBJ       2
    x3        c3        1
    x3        c23       -200
    x3        c24       -400
    x3        c25       -200
    x3        c26       -300
    x3        c28       33.33401489
    x3        c29       -133.33401489
    x3        c31       120
    x3        c32       -20
    x3        c34       1100
    x3        c113      -200
    x3        c114      -200
    x3        c115      -200
    x3        c116      -300
    x3        c118      -300
    x3        c120      300
    x3        c121      900
    x3        c188      -200
    x3        c189      -300
    x3        c191      200
    x3        c192      700
    x3        c193      200
    x3        c194      -300
    x3        c195      -300
    x3        c197      -200
    x3        c198      -300
    x3        c200      200
    x3        c201      700
    x3        c202      200
    x3        c203      -400
    x3        c204      -200
    x3        c206      -200
    x3        c207      -300
    x3        c209      1100
    x3        c210      200
    x3        c211      -200
    x3        c212      -200
    x3        c213      -200
    x3        c214      -200
    x3        c216      -200
    x3        c217      -300
    x3        c218      -300
    x3        c220      1100
    x3        c221      100
    x3        c222      -200
    x3        c223      -200
    x3        c225      -200
    x3        c226      -300
    x3        c227      -200
    x3        c229      200
    x3        c230      200
    x3        c231      700
    x3        c232      300
    x3        c233      -300
    x3        c234      -250
    x3        c235      -150
    x3        c237      -200
    x3        c238      -300
    x3        c239      -300
    x3        c241      1300
    x3        c242      -200
    x3        c243      -300
    x4        OBJ       2
    x4        c4        1
    x4        c37       -200
    x4        c38       -400
    x4        c39       -200
    x4        c40       100
    x4        c41       -200
    x4        c42       100
    x4        c43       40
    x4        c44       -40
    x4        c45       100
    x4        c46       700
    x4        c124      -200
    x4        c125      -200
    x4        c126      -200
    x4        c127      -100
    x4        c128      -200
    x4        c129      100
    x4        c130      300
    x4        c131      500
    x4        c188      200
    x4        c189      300
    x4        c191      -200
    x4        c192      -700
    x4        c193      -200
    x4        c194      300
    x4        c195      300
    x4        c246      100
    x4        c247      200
    x4        c248      300
    x4        c249      200
    x4        c251      -200
    x4        c252      -400
    x4        c253      -200
    x4        c255      -200
    x4        c257      100
    x4        c258      700
    x4        c259      200
    x4        c261      -200
    x4        c262      -200
    x4        c263      -133.33399963
    x4        c264      -66.666000366
    x4        c265      -200
    x4        c267      100
    x4        c268      700
    x4        c269      100
    x4        c271      -400
    x4        c272      -500
    x4        c274      -400
    x4        c275      300
    x4        c276      200
    x4        c277      300
    x4        c278      300
    x4        c280      -100
    x4        c281      -200
    x4        c282      -100
    x4        c283      -100
    x4        c284      -200
    x4        c286      100
    x4        c287      900
    x4        c289      -300
    x4        c290      -200
    x4        c291      -500
    x5        OBJ       2
    x5        c5        1
    x5        c49       -200
    x5        c50       -400
    x5        c51       -200
    x5        c52       100
    x5        c53       -200
    x5        c54       125
    x5        c55       -25
    x5        c56       200
    x5        c57       200
    x5        c58       400
    x5        c134      -200
    x5        c135      -200
    x5        c136      -200
    x5        c138      -100
    x5        c139      -200
    x5        c140      200
    x5        c141      300
    x5        c142      200
    x5        c143      200
    x5        c197      200
    x5        c198      300
    x5        c200      -200
    x5        c201      -700
    x5        c202      -200
    x5        c203      400
    x5        c204      200
    x5        c246      -100
    x5        c247      -200
    x5        c248      -300
    x5        c249      -200
    x5        c251      200
    x5        c252      400
    x5        c253      200
    x5        c293      -200
    x5        c295      200
    x5        c296      200
    x5        c297      400
    x5        c298      200
    x5        c300      -400
    x5        c301      -200
    x5        c302      -200
    x5        c304      200
    x5        c305      200
    x5        c306      400
    x5        c307      100
    x5        c309      -200
    x5        c310      -200
    x5        c311      -200
    x5        c312      -300
    x5        c314      -200
    x5        c315      -200
    x5        c316      400
    x5        c317      200
    x5        c318      200
    x5        c319      300
    x5        c321      -100
    x5        c322      -200
    x5        c323      -150
    x5        c324      -50
    x5        c325      -200
    x5        c327      200
    x5        c328      200
    x5        c329      600
    x5        c331      -500
    x5        c332      -200
    x5        c333      -300
    x6        OBJ       2
    x6        c6        1
    x6        c61       -800
    x6        c62       -200
    x6        c63       100
    x6        c64       -200
    x6        c65       166.6659851
    x6        c66       -66.665985107
    x6        c67       200
    x6        c68       300
    x6        c69       100
    x6        c70       400
    x6        c146      -600
    x6        c147      -200
    x6        c148      -100
    x6        c149      -200
    x6        c150      500
    x6        c151      200
    x6        c152      66.66598511
    x6        c153      133.3340149
    x6        c154      200
    x6        c206      200
    x6        c207      300
    x6        c209      -1100
    x6        c210      -200
    x6        c211      200
    x6        c212      200
    x6        c213      200
    x6        c214      200
    x6        c255      200
    x6        c257      -100
    x6        c258      -700
    x6        c259      -200
    x6        c261      200
    x6        c262      200
    x6        c263      133.3339996
    x6        c264      66.66600037
    x6        c265      200
    x6        c293      200
    x6        c295      -200
    x6        c296      -200
    x6        c297      -400
    x6        c298      -200
    x6        c300      400
    x6        c301      200
    x6        c302      200
    x6        c335      -500
    x6        c336      200
    x6        c337      300
    x6        c338      100
    x6        c339      400
    x6        c340      100
    x6        c342      -200
    x6        c343      -400
    x6        c345      -400
    x6        c346      200
    x6        c347      400
    x6        c348      200
    x6        c349      200
    x6        c350      300
    x6        c352      -100
    x6        c353      -300
    x6        c355      -100
    x6        c356      -400
    x6        c358      -500
    x6        c359      200
    x6        c360      300
    x6        c361      100
    x6        c362      600
    x6        c364      -300
    x6        c365      -400
    x7        OBJ       2
    x7        c7        1
    x7        c72       300
    x7        c74       -800
    x7        c75       -100
    x7        c76       66.66598511
    x7        c77       -66.665985107
    x7        c78       -100
    x7        c79       200
    x7        c80       -100
    x7        c81       200
    x7        c82       400
    x7        c156      300
    x7        c158      -600
    x7        c159      -100
    x7        c160      -200
    x7        c161      -100
    x7        c162      300
    x7        c163      200
    x7        c164      200
    x7        c216      200
    x7        c217      300
    x7        c218      300
    x7        c220      -1100
    x7        c221      -100
    x7        c222      200
    x7        c223      200
    x7        c267      -100
    x7        c268      -700
    x7        c269      -100
    x7        c271      400
    x7        c272      500
    x7        c304      -200
    x7        c305      -200
    x7        c306      -400
    x7        c307      -100
    x7        c309      200
    x7        c310      200
    x7        c311      200
    x7        c312      300
    x7        c335      500
    x7        c336      -200
    x7        c337      -300
    x7        c338      -100
    x7        c339      -400
    x7        c340      -100
    x7        c342      200
    x7        c343      400
    x7        c367      -200
    x7        c368      -100
    x7        c369      200
    x7        c370      200
    x7        c371      200
    x7        c372      600
    x7        c373      -100
    x7        c374      -400
    x7        c375      100
    x7        c376      -100
    x7        c377      -400
    x7        c379      200
    x7        c380      600
    x7        c381      300
    x7        c382      -300
    x7        c383      -400
    x7        c384      -300
    x7        c385      -100
    x8        OBJ       2
    x8        c8        1
    x8        c84       200
    x8        c86       -200
    x8        c87       -200
    x8        c88       -400
    x8        c89       -300
    x8        c90       100
    x8        c91       -200
    x8        c92       100
    x8        c93       40
    x8        c94       -40
    x8        c95       100
    x8        c96       300
    x8        c97       40
    x8        c98       -40
    x8        c99       100
    x8        c100      400
    x8        c166      200
    x8        c168      -200
    x8        c169      -200
    x8        c170      -200
    x8        c171      -200
    x8        c172      -100
    x8        c173      -300
    x8        c174      100
    x8        c175      300
    x8        c176      100
    x8        c177      300
    x8        c178      200
    x8        c225      200
    x8        c226      300
    x8        c227      200
    x8        c229      -200
    x8        c230      -200
    x8        c231      -700
    x8        c232      -300
    x8        c233      300
    x8        c234      250
    x8        c235      150
    x8        c274      400
    x8        c275      -300
    x8        c276      -200
    x8        c277      -300
    x8        c278      -300
    x8        c280      100
    x8        c281      200
    x8        c282      100
    x8        c283      100
    x8        c284      200
    x8        c314      200
    x8        c315      200
    x8        c316      -400
    x8        c317      -200
    x8        c318      -200
    x8        c319      -300
    x8        c321      100
    x8        c322      200
    x8        c323      150
    x8        c324      50
    x8        c325      200
    x8        c345      400
    x8        c346      -200
    x8        c347      -400
    x8        c348      -200
    x8        c349      -200
    x8        c350      -300
    x8        c352      100
    x8        c353      300
    x8        c355      100
    x8        c356      400
    x8        c367      200
    x8        c368      100
    x8        c369      -200
    x8        c370      -200
    x8        c371      -200
    x8        c372      -600
    x8        c373      100
    x8        c374      400
    x8        c375      -100
    x8        c376      100
    x8        c377      400
    x8        c387      -600
    x8        c388      100
    x8        c389      400
    x8        c390      -100
    x8        c391      100
    x8        c392      600
    x8        c393      200
    x8        c394      -200
    x8        c395      -500
    x9        OBJ       2
    x9        c9        1
    x9        c102      300
    x9        c104      -1000
    x9        c105      100
    x9        c106      -200
    x9        c107      166.6659851
    x9        c108      -66.665985107
    x9        c109      300
    x9        c110      400
    x9        c180      300
    x9        c182      -800
    x9        c184      -300
    x9        c185      600
    x9        c186      200
    x9        c237      200
    x9        c238      300
    x9        c239      300
    x9        c241      -1300
    x9        c242      200
    x9        c243      300
    x9        c286      -100
    x9        c287      -900
    x9        c289      300
    x9        c290      200
    x9        c291      500
    x9        c327      -200
    x9        c328      -200
    x9        c329      -600
    x9        c331      500
    x9        c332      200
    x9        c333      300
    x9        c358      500
    x9        c359      -200
    x9        c360      -300
    x9        c361      -100
    x9        c362      -600
    x9        c364      300
    x9        c365      400
    x9        c379      -200
    x9        c380      -600
    x9        c381      -300
    x9        c382      300
    x9        c383      400
    x9        c384      300
    x9        c385      100
    x9        c387      600
    x9        c388      -100
    x9        c389      -400
    x9        c390      100
    x9        c391      -100
    x9        c392      -600
    x9        c393      -200
    x9        c394      200
    x9        c395      500
    x10       OBJ       1000000
    x10       c1        -1
    x10       c2        -1
    x10       c3        -1
    x10       c4        -1
    x10       c5        -1
    x10       c6        -1
    x10       c7        -1
    x10       c8        -1
    x10       c9        -1
    x11       OBJ       1
    x11       c10       -200
    x11       c12       -700
    x11       c13       -300
    x11       c15       300
    x11       c16       100
    x11       c17       500
    x11       c18       50
    x11       c19       250
    x11       c22       -700
    x11       c23       -400
    x11       c25       200
    x11       c27       200
    x11       c28       66.66598511
    x11       c29       133.3340149
    x11       c31       60
    x11       c32       40
    x11       c33       200
    x11       c36       -1000
    x11       c37       -100
    x11       c39       200
    x11       c40       200
    x11       c41       200
    x11       c42       200
    x11       c43       20
    x11       c44       80
    x11       c45       200
    x11       c48       -1100
    x11       c49       -200
    x11       c51       100
    x11       c52       200
    x11       c53       200
    x11       c54       250
    x11       c55       50
    x11       c56       400
    x11       c57       100
    x11       c60       -1200
    x11       c62       200
    x11       c63       200
    x11       c64       200
    x11       c65       166.6660004
    x11       c66       133.3339996
    x11       c67       200
    x11       c69       100
    x11       c72       -300
    x11       c73       -700
    x11       c75       200
    x11       c76       133.3339844
    x11       c77       66.66601562
    x11       c78       200
    x11       c79       100
    x11       c80       200
    x11       c81       100
    x11       c84       -200
    x11       c85       -700
    x11       c86       -400
    x11       c87       -200
    x11       c89       300
    x11       c90       200
    x11       c91       200
    x11       c92       200
    x11       c93       20
    x11       c94       80
    x11       c95       200
    x11       c97       20
    x11       c98       80
    x11       c99       200
    x11       c102      -300
    x11       c103      -700
    x11       c105      200
    x11       c106      200
    x11       c107      166.6660004
    x11       c108      133.3339996
    x11       c109      300
    x12       OBJ       1
    x12       c10       200
    x12       c12       700
    x12       c13       300
    x12       c15       -300
    x12       c16       -100
    x12       c17       -500
    x12       c18       -50
    x12       c19       -250
    x12       c112      -500
    x12       c113      -400
    x12       c115      200
    x12       c117      200
    x12       c120      300
    x12       c123      -800
    x12       c124      -100
    x12       c126      200
    x12       c128      200
    x12       c129      200
    x12       c130      300
    x12       c133      -900
    x12       c134      -200
    x12       c136      100
    x12       c137      100
    x12       c139      100
    x12       c140      400
    x12       c141      300
    x12       c142      100
    x12       c145      -1000
    x12       c147      200
    x12       c149      200
    x12       c150      500
    x12       c152      -33.333999634
    x12       c153      133.3339996
    x12       c156      -300
    x12       c157      -500
    x12       c159      200
    x12       c161      200
    x12       c162      300
    x12       c163      100
    x12       c166      -200
    x12       c167      -500
    x12       c168      -400
    x12       c169      -200
    x12       c171      200
    x12       c173      300
    x12       c174      200
    x12       c175      300
    x12       c177      300
    x12       c180      -300
    x12       c181      -500
    x12       c183      200
    x12       c185      600
    x13       OBJ       1
    x13       c22       700
    x13       c23       400
    x13       c25       -200
    x13       c27       -200
    x13       c28       -66.665985107
    x13       c29       -133.33401489
    x13       c31       -60
    x13       c32       -40
    x13       c33       -200
    x13       c112      500
    x13       c113      400
    x13       c115      -200
    x13       c117      -200
    x13       c120      -300
    x13       c188      -200
    x13       c190      -500
    x13       c191      -100
    x13       c193      200
    x13       c194      600
    x13       c197      -200
    x13       c199      -600
    x13       c200      -200
    x13       c202      100
    x13       c203      800
    x13       c204      100
    x13       c206      -200
    x13       c210      200
    x13       c211      400
    x13       c212      200
    x13       c213      -100
    x13       c214      200
    x13       c216      -200
    x13       c218      -300
    x13       c219      -200
    x13       c221      200
    x13       c222      400
    x13       c223      100
    x13       c225      -200
    x13       c227      -200
    x13       c229      -400
    x13       c230      -200
    x13       c232      300
    x13       c233      600
    x13       c235      300
    x13       c237      -200
    x13       c239      -300
    x13       c242      400
    x13       c243      300
    x14       OBJ       1
    x14       c36       1000
    x14       c37       100
    x14       c39       -200
    x14       c40       -200
    x14       c41       -200
    x14       c42       -200
    x14       c43       -20
    x14       c44       -80
    x14       c45       -200
    x14       c123      800
    x14       c124      100
    x14       c126      -200
    x14       c128      -200
    x14       c129      -200
    x14       c130      -300
    x14       c188      200
    x14       c190      500
    x14       c191      100
    x14       c193      -200
    x14       c194      -600
    x14       c245      -400
    x14       c246      -200
    x14       c247      -200
    x14       c249      100
    x14       c250      300
    x14       c251      400
    x14       c252      200
    x14       c253      -200
    x14       c255      -200
    x14       c256      -500
    x14       c257      -200
    x14       c259      200
    x14       c260      300
    x14       c261      200
    x14       c262      100
    x14       c263      -66.665985107
    x14       c264      66.66598511
    x14       c265      100
    x14       c267      -200
    x14       c269      200
    x14       c270      300
    x14       c271      200
    x14       c272      -500
    x14       c274      -400
    x14       c275      -600
    x14       c276      -200
    x14       c278      300
    x14       c279      300
    x14       c280      200
    x14       c281      100
    x14       c283      200
    x14       c284      100
    x14       c286      -200
    x14       c288      300
    x14       c289      300
    x14       c290      100
    x14       c291      -500
    x15       OBJ       1
    x15       c48       1100
    x15       c49       200
    x15       c51       -100
    x15       c52       -200
    x15       c53       -200
    x15       c54       -250
    x15       c55       -50
    x15       c56       -400
    x15       c57       -100
    x15       c133      900
    x15       c134      200
    x15       c136      -100
    x15       c137      -100
    x15       c139      -100
    x15       c140      -400
    x15       c141      -300
    x15       c142      -100
    x15       c197      200
    x15       c199      600
    x15       c200      200
    x15       c202      -100
    x15       c203      -800
    x15       c204      -100
    x15       c245      400
    x15       c246      200
    x15       c247      200
    x15       c249      -100
    x15       c250      -300
    x15       c251      -400
    x15       c252      -200
    x15       c253      200
    x15       c293      -100
    x15       c294      -500
    x15       c295      -400
    x15       c296      -100
    x15       c298      200
    x15       c299      400
    x15       c300      400
    x15       c301      -100
    x15       c302      200
    x15       c304      -400
    x15       c305      -100
    x15       c307      200
    x15       c308      400
    x15       c309      200
    x15       c310      100
    x15       c311      -100
    x15       c312      -300
    x15       c314      -100
    x15       c315      -200
    x15       c316      -800
    x15       c317      -200
    x15       c318      -100
    x15       c319      300
    x15       c320      400
    x15       c321      200
    x15       c322      200
    x15       c324      100
    x15       c325      200
    x15       c327      -400
    x15       c328      -100
    x15       c330      400
    x15       c331      500
    x15       c332      -100
    x15       c333      -300
    x16       OBJ       1
    x16       c60       1200
    x16       c62       -200
    x16       c63       -200
    x16       c64       -200
    x16       c65       -166.66600037
    x16       c66       -133.33399963
    x16       c67       -200
    x16       c69       -100
    x16       c145      1000
    x16       c147      -200
    x16       c149      -200
    x16       c150      -500
    x16       c152      33.33399963
    x16       c153      -133.33399963
    x16       c206      200
    x16       c210      -200
    x16       c211      -400
    x16       c212      -200
    x16       c213      100
    x16       c214      -200
    x16       c255      200
    x16       c256      500
    x16       c257      200
    x16       c259      -200
    x16       c260      -300
    x16       c261      -200
    x16       c262      -100
    x16       c263      66.66598511
    x16       c264      -66.665985107
    x16       c265      -100
    x16       c293      100
    x16       c294      500
    x16       c295      400
    x16       c296      100
    x16       c298      -200
    x16       c299      -400
    x16       c300      -400
    x16       c301      100
    x16       c302      -200
    x16       c335      -500
    x16       c336      -200
    x16       c338      -100
    x16       c340      200
    x16       c341      500
    x16       c342      100
    x16       c345      -400
    x16       c346      -400
    x16       c347      -400
    x16       c348      100
    x16       c349      -200
    x16       c350      300
    x16       c352      200
    x16       c354      100
    x16       c355      200
    x16       c358      -500
    x16       c359      -200
    x16       c361      -100
    x16       c363      500
    x16       c364      300
    x17       OBJ       1
    x17       c72       300
    x17       c73       700
    x17       c75       -200
    x17       c76       -133.33398438
    x17       c77       -66.666015625
    x17       c78       -200
    x17       c79       -100
    x17       c80       -200
    x17       c81       -100
    x17       c156      300
    x17       c157      500
    x17       c159      -200
    x17       c161      -200
    x17       c162      -300
    x17       c163      -100
    x17       c216      200
    x17       c218      300
    x17       c219      200
    x17       c221      -200
    x17       c222      -400
    x17       c223      -100
    x17       c267      200
    x17       c269      -200
    x17       c270      -300
    x17       c271      -200
    x17       c272      500
    x17       c304      400
    x17       c305      100
    x17       c307      -200
    x17       c308      -400
    x17       c309      -200
    x17       c310      -100
    x17       c311      100
    x17       c312      300
    x17       c335      500
    x17       c336      200
    x17       c338      100
    x17       c340      -200
    x17       c341      -500
    x17       c342      -100
    x17       c367      -200
    x17       c368      -200
    x17       c369      -400
    x17       c370      -200
    x17       c371      -100
    x17       c372      600
    x17       c373      200
    x17       c375      100
    x17       c376      200
    x17       c379      -100
    x17       c381      300
    x17       c382      300
    x17       c384      -300
    x17       c385      -200
    x18       OBJ       1
    x18       c84       200
    x18       c85       700
    x18       c86       400
    x18       c87       200
    x18       c89       -300
    x18       c90       -200
    x18       c91       -200
    x18       c92       -200
    x18       c93       -20
    x18       c94       -80
    x18       c95       -200
    x18       c97       -20
    x18       c98       -80
    x18       c99       -200
    x18       c166      200
    x18       c167      500
    x18       c168      400
    x18       c169      200
    x18       c171      -200
    x18       c173      -300
    x18       c174      -200
    x18       c175      -300
    x18       c177      -300
    x18       c225      200
    x18       c227      200
    x18       c229      400
    x18       c230      200
    x18       c232      -300
    x18       c233      -600
    x18       c235      -300
    x18       c274      400
    x18       c275      600
    x18       c276      200
    x18       c278      -300
    x18       c279      -300
    x18       c280      -200
    x18       c281      -100
    x18       c283      -200
    x18       c284      -100
    x18       c314      100
    x18       c315      200
    x18       c316      800
    x18       c317      200
    x18       c318      100
    x18       c319      -300
    x18       c320      -400
    x18       c321      -200
    x18       c322      -200
    x18       c324      -100
    x18       c325      -200
    x18       c345      400
    x18       c346      400
    x18       c347      400
    x18       c348      -100
    x18       c349      200
    x18       c350      -300
    x18       c352      -200
    x18       c354      -100
    x18       c355      -200
    x18       c367      200
    x18       c368      200
    x18       c369      400
    x18       c370      200
    x18       c371      100
    x18       c372      -600
    x18       c373      -200
    x18       c375      -100
    x18       c376      -200
    x18       c387      -600
    x18       c388      -200
    x18       c390      -100
    x18       c391      -200
    x18       c393      200
    x18       c394      400
    x18       c395      500
    x19       OBJ       1
    x19       c102      300
    x19       c103      700
    x19       c105      -200
    x19       c106      -200
    x19       c107      -166.66600037
    x19       c108      -133.33399963
    x19       c109      -300
    x19       c180      300
    x19       c181      500
    x19       c183      -200
    x19       c185      -600
    x19       c237      200
    x19       c239      300
    x19       c242      -400
    x19       c243      -300
    x19       c286      200
    x19       c288      -300
    x19       c289      -300
    x19       c290      -100
    x19       c291      500
    x19       c327      400
    x19       c328      100
    x19       c330      -400
    x19       c331      -500
    x19       c332      100
    x19       c333      300
    x19       c358      500
    x19       c359      200
    x19       c361      100
    x19       c363      -500
    x19       c364      -300
    x19       c379      100
    x19       c381      -300
    x19       c382      -300
    x19       c384      300
    x19       c385      200
    x19       c387      600
    x19       c388      200
    x19       c390      100
    x19       c391      200
    x19       c393      -200
    x19       c394      -400
    x19       c395      -500
    MARKER    'MARKER'                 'INTORG'
    x21       c12       280000
    x21       c10       180000
    x21       c11       8400000
    x21       c21       1
    x22       c10       200000
    x22       c12       840000
    x22       c21       1
    x23       c13       8400000
    x23       c21       1
    x24       c14       8400000
    x24       c21       1
    x25       c19       200000
    x25       c17       400000
    x25       c15       330000
    x25       c16       8400000
    x25       c21       1
    x26       c19       250000
    x26       c15       300000
    x26       c17       600000
    x26       c21       1
    x27       c17       400000
    x27       c15       240000
    x27       c18       8400000
    x27       c19       275000
    x27       c21       1
    x28       c20       8400000
    x28       c21       1
    x29       c22       840000
    x29       c35       1
    x30       c23       8400000
    x30       c35       1
    x31       c24       8400000
    x31       c35       1
    x32       c25       8400000
    x32       c26       8400000
    x32       c35       1
    x33       c33       200000
    x33       c27       220000
    x33       c35       1
    x34       c28       8400000
    x34       c29       8400000
    x34       c35       1
    x36       c31       8400000
    x36       c32       8400000
    x36       c35       1
    x37       c27       200000
    x37       c33       220000
    x37       c35       1
    x38       c34       8400000
    x38       c35       1
    x39       c36       1200000
    x39       c47       1
    x40       c37       8400000
    x40       c47       1
    x41       c38       8400000
    x41       c47       1
    x42       c39       8400000
    x42       c47       1
    x43       c40       8400000
    x43       c41       8400000
    x43       c47       1
    x44       c42       8400000
    x44       c47       1
    x45       c43       8400000
    x45       c44       8400000
    x45       c47       1
    x46       c45       8400000
    x46       c47       1
    x47       c46       8400000
    x47       c47       1
    x48       c48       1320000
    x48       c59       1
    x49       c49       8400000
    x49       c59       1
    x50       c50       8400000
    x50       c59       1
    x51       c51       8400000
    x51       c59       1
    x52       c52       8400000
    x52       c53       8400000
    x52       c59       1
    x53       c54       8400000
    x53       c55       8400000
    x53       c59       1
    x54       c56       8400000
    x54       c59       1
    x55       c57       8400000
    x55       c59       1
    x56       c58       8400000
    x56       c59       1
    x57       c60       1440000
    x57       c71       1
    x58       c61       8400000
    x58       c71       1
    x59       c62       8400000
    x59       c71       1
    x60       c63       8400000
    x60       c64       8400000
    x60       c71       1
    x61       c65       8400000
    x61       c66       8400000
    x61       c71       1
    x62       c67       8400000
    x62       c71       1
    x63       c68       8400000
    x63       c69       8400000
    x63       c71       1
    x64       c70       8400000
    x64       c71       1
    x65       c72       8400000
    x65       c83       1
    x66       c73       840000
    x66       c83       1
    x67       c74       8400000
    x67       c83       1
    x68       c75       8400000
    x68       c83       1
    x69       c76       8400000
    x69       c77       8400000
    x69       c83       1
    x70       c78       8400000
    x70       c83       1
    x71       c79       8400000
    x71       c80       8400000
    x71       c83       1
    x72       c81       8400000
    x72       c83       1
    x73       c82       8400000
    x73       c83       1
    x74       c84       8400000
    x74       c101      1
    x75       c85       840000
    x75       c101      1
    x76       c86       8400000
    x76       c101      1
    x77       c87       8400000
    x77       c101      1
    x78       c88       8400000
    x78       c101      1
    x79       c89       8400000
    x79       c101      1
    x80       c90       8400000
    x80       c91       8400000
    x80       c101      1
    x81       c92       8400000
    x81       c101      1
    x82       c93       8400000
    x82       c94       8400000
    x82       c101      1
    x83       c95       8400000
    x83       c101      1
    x84       c96       8400000
    x84       c97       8400000
    x84       c98       8400000
    x84       c101      1
    x85       c99       8400000
    x85       c101      1
    x86       c100      8400000
    x86       c101      1
    x87       c102      8400000
    x87       c111      1
    x88       c103      840000
    x88       c111      1
    x89       c104      8400000
    x89       c111      1
    x90       c105      8400000
    x90       c106      8400000
    x90       c111      1
    x91       c107      8400000
    x91       c108      8400000
    x91       c111      1
    x92       c109      8400000
    x92       c111      1
    x93       c110      8400000
    x93       c111      1
    x94       c112      600000
    x94       c122      1
    x95       c113      8400000
    x95       c122      1
    x96       c114      8400000
    x96       c122      1
    x97       c115      8400000
    x97       c116      8400000
    x97       c122      1
    x98       c117      180000
    x98       c118      8400000
    x98       c122      1
    x99       c117      240000
    x99       c122      1
    x100      c120      8400000
    x100      c122      1
    x101      c121      8400000
    x101      c122      1
    x102      c123      960000
    x102      c132      1
    x103      c124      8400000
    x103      c132      1
    x104      c125      8400000
    x104      c132      1
    x105      c126      8400000
    x105      c127      8400000
    x105      c132      1
    x106      c128      8400000
    x106      c132      1
    x107      c129      8400000
    x107      c132      1
    x108      c130      8400000
    x108      c132      1
    x109      c131      8400000
    x109      c132      1
    x110      c133      1080000
    x110      c144      1
    x111      c134      8400000
    x111      c144      1
    x112      c135      8400000
    x112      c144      1
    x113      c136      8400000
    x113      c144      1
    x114      c137      90000
    x114      c138      8400000
    x114      c144      1
    x115      c139      8400000
    x115      c144      1
    x116      c140      8400000
    x116      c144      1
    x117      c141      8400000
    x117      c144      1
    x118      c142      8400000
    x118      c144      1
    x119      c143      8400000
    x119      c144      1
    x120      c145      1200000
    x120      c155      1
    x121      c146      8400000
    x121      c155      1
    x122      c147      8400000
    x122      c148      8400000
    x122      c155      1
    x123      c149      8400000
    x123      c155      1
    x124      c150      8400000
    x124      c155      1
    x125      c151      8400000
    x125      c155      1
    x126      c152      8400000
    x126      c153      8400000
    x126      c155      1
    x127      c154      8400000
    x127      c155      1
    x128      c156      8400000
    x128      c165      1
    x129      c157      600000
    x129      c165      1
    x130      c158      8400000
    x130      c165      1
    x131      c159      8400000
    x131      c160      8400000
    x131      c165      1
    x132      c161      8400000
    x132      c165      1
    x133      c162      8400000
    x133      c165      1
    x134      c163      8400000
    x134      c165      1
    x135      c164      8400000
    x135      c165      1
    x136      c166      8400000
    x136      c179      1
    x137      c167      600000
    x137      c179      1
    x138      c168      8400000
    x138      c179      1
    x139      c169      8400000
    x139      c179      1
    x140      c170      8400000
    x140      c179      1
    x141      c171      8400000
    x141      c172      8400000
    x141      c179      1
    x142      c173      8400000
    x142      c179      1
    x143      c174      8400000
    x143      c179      1
    x144      c175      8400000
    x144      c179      1
    x145      c176      8400000
    x145      c177      8400000
    x145      c179      1
    x146      c178      8400000
    x146      c179      1
    x147      c180      8400000
    x147      c187      1
    x148      c181      600000
    x148      c187      1
    x149      c182      8400000
    x149      c187      1
    x150      c183      180000
    x150      c184      8400000
    x150      c187      1
    x151      c185      8400000
    x151      c187      1
    x152      c186      8400000
    x152      c187      1
    x153      c188      8400000
    x153      c189      8400000
    x153      c196      1
    x154      c190      600000
    x154      c196      1
    x155      c191      8400000
    x155      c196      1
    x156      c192      8400000
    x156      c196      1
    x157      c193      8400000
    x157      c196      1
    x158      c194      8400000
    x158      c196      1
    x159      c195      8400000
    x159      c196      1
    x160      c197      8400000
    x160      c198      8400000
    x160      c205      1
    x161      c199      720000
    x161      c205      1
    x162      c200      8400000
    x162      c205      1
    x163      c201      8400000
    x163      c205      1
    x164      c202      8400000
    x164      c205      1
    x165      c203      8400000
    x165      c205      1
    x166      c204      8400000
    x166      c205      1
    x167      c206      8400000
    x167      c207      8400000
    x167      c215      1
    x169      c209      8400000
    x169      c215      1
    x170      c210      8400000
    x170      c215      1
    x171      c211      8400000
    x171      c215      1
    x172      c212      8400000
    x172      c215      1
    x173      c213      8400000
    x173      c214      8400000
    x173      c215      1
    x174      c216      8400000
    x174      c217      8400000
    x174      c224      1
    x175      c218      8400000
    x175      c224      1
    x176      c219      240000
    x176      c224      1
    x177      c220      8400000
    x177      c224      1
    x178      c221      8400000
    x178      c224      1
    x179      c222      8400000
    x179      c224      1
    x180      c223      8400000
    x180      c224      1
    x181      c225      8400000
    x181      c226      8400000
    x181      c236      1
    x182      c227      8400000
    x182      c236      1
    x184      c229      8400000
    x184      c236      1
    x185      c230      8400000
    x185      c236      1
    x186      c231      8400000
    x186      c236      1
    x187      c232      8400000
    x187      c236      1
    x188      c233      8400000
    x188      c236      1
    x189      c234      8400000
    x189      c235      8400000
    x189      c236      1
    x190      c237      8400000
    x190      c238      8400000
    x190      c244      1
    x191      c239      8400000
    x191      c244      1
    x193      c241      8400000
    x193      c244      1
    x194      c242      8400000
    x194      c244      1
    x195      c243      8400000
    x195      c244      1
    x196      c245      480000
    x196      c254      1
    x197      c246      8400000
    x197      c254      1
    x198      c247      8400000
    x198      c254      1
    x199      c248      8400000
    x199      c254      1
    x200      c249      8400000
    x200      c254      1
    x201      c250      360000
    x201      c254      1
    x202      c251      8400000
    x202      c254      1
    x203      c252      8400000
    x203      c254      1
    x204      c253      8400000
    x204      c254      1
    x205      c255      8400000
    x205      c266      1
    x206      c256      600000
    x206      c266      1
    x207      c257      8400000
    x207      c266      1
    x208      c258      8400000
    x208      c266      1
    x209      c259      8400000
    x209      c266      1
    x210      c260      360000
    x210      c266      1
    x211      c261      8400000
    x211      c266      1
    x212      c262      8400000
    x212      c266      1
    x213      c263      8400000
    x213      c264      8400000
    x213      c266      1
    x214      c265      8400000
    x214      c266      1
    x215      c267      8400000
    x215      c273      1
    x216      c268      8400000
    x216      c273      1
    x217      c269      8400000
    x217      c273      1
    x218      c270      360000
    x218      c273      1
    x219      c271      8400000
    x219      c273      1
    x220      c272      8400000
    x220      c273      1
    x221      c274      8400000
    x221      c285      1
    x222      c275      8400000
    x222      c285      1
    x223      c276      8400000
    x223      c285      1
    x224      c277      8400000
    x224      c285      1
    x225      c278      8400000
    x225      c285      1
    x226      c279      360000
    x226      c285      1
    x227      c280      8400000
    x227      c285      1
    x228      c281      8400000
    x228      c285      1
    x229      c282      8400000
    x229      c283      8400000
    x229      c285      1
    x230      c284      8400000
    x230      c285      1
    x231      c286      8400000
    x231      c292      1
    x232      c287      8400000
    x232      c292      1
    x233      c288      360000
    x233      c292      1
    x234      c289      8400000
    x234      c292      1
    x235      c290      8400000
    x235      c292      1
    x236      c291      8400000
    x236      c292      1
    x237      c293      8400000
    x237      c303      1
    x238      c294      600000
    x238      c303      1
    x239      c295      8400000
    x239      c303      1
    x240      c296      8400000
    x240      c303      1
    x241      c297      8400000
    x241      c303      1
    x242      c298      8400000
    x242      c303      1
    x243      c299      480000
    x243      c303      1
    x244      c300      8400000
    x244      c303      1
    x245      c301      8400000
    x245      c302      8400000
    x245      c303      1
    x246      c304      8400000
    x246      c313      1
    x247      c305      8400000
    x247      c313      1
    x248      c306      8400000
    x248      c313      1
    x249      c307      8400000
    x249      c313      1
    x250      c308      480000
    x250      c313      1
    x251      c309      8400000
    x251      c313      1
    x252      c310      8400000
    x252      c313      1
    x253      c311      8400000
    x253      c313      1
    x254      c312      8400000
    x254      c313      1
    x255      c314      8400000
    x255      c326      1
    x256      c315      8400000
    x256      c326      1
    x257      c316      8400000
    x257      c326      1
    x258      c317      8400000
    x258      c326      1
    x259      c318      8400000
    x259      c326      1
    x260      c319      8400000
    x260      c326      1
    x261      c320      480000
    x261      c326      1
    x262      c321      8400000
    x262      c326      1
    x263      c322      8400000
    x263      c326      1
    x264      c323      8400000
    x264      c324      8400000
    x264      c326      1
    x265      c325      8400000
    x265      c326      1
    x266      c327      8400000
    x266      c334      1
    x267      c328      8400000
    x267      c334      1
    x268      c329      8400000
    x268      c334      1
    x269      c330      480000
    x269      c334      1
    x270      c331      8400000
    x270      c334      1
    x271      c332      8400000
    x271      c334      1
    x272      c333      8400000
    x272      c334      1
    x273      c335      8400000
    x273      c344      1
    x274      c336      8400000
    x274      c344      1
    x275      c337      8400000
    x275      c338      8400000
    x275      c344      1
    x276      c339      8400000
    x276      c344      1
    x277      c340      8400000
    x277      c344      1
    x278      c341      600000
    x278      c344      1
    x279      c342      8400000
    x279      c344      1
    x280      c343      8400000
    x280      c344      1
    x281      c345      8400000
    x281      c357      1
    x282      c346      8400000
    x282      c357      1
    x283      c347      8400000
    x283      c357      1
    x284      c348      8400000
    x284      c349      8400000
    x284      c357      1
    x285      c350      8400000
    x285      c357      1
    x287      c352      8400000
    x287      c357      1
    x288      c353      8400000
    x288      c354      80000
    x288      c357      1
    x289      c355      8400000
    x289      c357      1
    x290      c356      8400000
    x290      c357      1
    x291      c358      8400000
    x291      c366      1
    x292      c359      8400000
    x292      c366      1
    x293      c360      8400000
    x293      c361      8400000
    x293      c366      1
    x294      c362      8400000
    x294      c366      1
    x295      c363      600000
    x295      c366      1
    x296      c364      8400000
    x296      c366      1
    x297      c365      8400000
    x297      c366      1
    x298      c367      8400000
    x298      c378      1
    x299      c368      8400000
    x299      c378      1
    x300      c369      8400000
    x300      c378      1
    x301      c370      8400000
    x301      c378      1
    x302      c371      8400000
    x302      c378      1
    x303      c372      8400000
    x303      c378      1
    x304      c373      8400000
    x304      c378      1
    x305      c374      8400000
    x305      c375      8400000
    x305      c378      1
    x306      c376      8400000
    x306      c378      1
    x307      c377      8400000
    x307      c378      1
    x308      c379      8400000
    x308      c386      1
    x309      c380      8400000
    x309      c386      1
    x310      c381      8400000
    x310      c386      1
    x311      c382      8400000
    x311      c386      1
    x312      c383      8400000
    x312      c386      1
    x313      c384      8400000
    x313      c386      1
    x314      c385      8400000
    x314      c386      1
    x315      c387      8400000
    x315      c396      1
    x316      c388      8400000
    x316      c396      1
    x317      c389      8400000
    x317      c390      8400000
    x317      c396      1
    x318      c391      8400000
    x318      c396      1
    x319      c392      8400000
    x319      c396      1
    x320      c393      8400000
    x320      c396      1
    x321      c394      8400000
    x321      c396      1
    x322      c395      8400000
    x322      c396      1
    MARKER    'MARKER'                 'INTEND'
RHS
    RHS1      c1        -700
    RHS1      c2        -500
    RHS1      c3        -200
    RHS1      c4        -200
    RHS1      c5        -500
    RHS1      c6        -300
    RHS1      c7        -100
    RHS1      c8        -500
    RHS1      c9        -300
    RHS1      c10       140000
    RHS1      c11       8310000
    RHS1      c12       490000
    RHS1      c13       8130000
    RHS1      c14       7980000
    RHS1      c15       210000
    RHS1      c16       8320000
    RHS1      c17       350000
    RHS1      c18       8355000
    RHS1      c19       175000
    RHS1      c20       8100000
    RHS1      c21       1
    RHS1      c22       350000
    RHS1      c23       8020000
    RHS1      c24       8040000
    RHS1      c25       8240000
    RHS1      c26       8190000
    RHS1      c27       140000
    RHS1      c28       8390000.613
    RHS1      c29       8293332.789
    RHS1      c31       8382000
    RHS1      c32       8384000
    RHS1      c33       140000
    RHS1      c34       8180000
    RHS1      c35       1
    RHS1      c36       800000
    RHS1      c37       8200000
    RHS1      c38       8040000
    RHS1      c39       8180000
    RHS1      c40       8390000
    RHS1      c41       8240000
    RHS1      c42       8330000
    RHS1      c43       8396000
    RHS1      c44       8368000
    RHS1      c45       8320000
    RHS1      c46       8260000
    RHS1      c47       1
    RHS1      c48       880000
    RHS1      c49       8200000
    RHS1      c50       8080000
    RHS1      c51       8220000
    RHS1      c52       8390000
    RHS1      c53       8240000
    RHS1      c54       8312500
    RHS1      c55       8380000
    RHS1      c56       8240000
    RHS1      c57       8300000
    RHS1      c58       8200000
    RHS1      c59       1
    RHS1      c60       720000
    RHS1      c61       7680000
    RHS1      c62       8180000
    RHS1      c63       8390000
    RHS1      c64       8240000
    RHS1      c65       8366666.795
    RHS1      c66       8346666.4
    RHS1      c67       8320000
    RHS1      c68       8340000
    RHS1      c69       8390000
    RHS1      c70       8280000
    RHS1      c71       1
    RHS1      c72       8310000
    RHS1      c73       490000
    RHS1      c74       7680000
    RHS1      c75       8250000
    RHS1      c76       8393332.596
    RHS1      c77       8340000.602
    RHS1      c78       8270000
    RHS1      c79       8410000
    RHS1      c80       8320000
    RHS1      c81       8360000
    RHS1      c82       8360000
    RHS1      c83       1
    RHS1      c84       8200000
    RHS1      c85       350000
    RHS1      c86       8040000
    RHS1      c87       8140000
    RHS1      c88       8000000
    RHS1      c89       8070000
    RHS1      c90       8390000
    RHS1      c91       8240000
    RHS1      c92       8330000
    RHS1      c93       8396000
    RHS1      c94       8368000
    RHS1      c95       8320000
    RHS1      c96       8340000
    RHS1      c97       8392000
    RHS1      c98       8412000
    RHS1      c99       8370000
    RHS1      c100      8200000
    RHS1      c101      1
    RHS1      c102      8220000
    RHS1      c103      420000
    RHS1      c104      7700000
    RHS1      c105      8390000
    RHS1      c106      8240000
    RHS1      c107      8366666.795
    RHS1      c108      8346666.4
    RHS1      c109      8280000
    RHS1      c110      8280000
    RHS1      c111      1
    RHS1      c112      250000
    RHS1      c113      8060000
    RHS1      c114      8260000
    RHS1      c115      8320000
    RHS1      c116      8250000
    RHS1      c117      140000
    RHS1      c118      8310000
    RHS1      c120      8280000
    RHS1      c121      8220000
    RHS1      c122      1
    RHS1      c123      640000
    RHS1      c124      8240000
    RHS1      c125      8260000
    RHS1      c126      8260000
    RHS1      c127      8350000
    RHS1      c128      8240000
    RHS1      c129      8330000
    RHS1      c130      8310000
    RHS1      c131      8300000
    RHS1      c132      1
    RHS1      c133      720000
    RHS1      c134      8240000
    RHS1      c135      8280000
    RHS1      c136      8280000
    RHS1      c137      70000
    RHS1      c138      8360000
    RHS1      c139      8290000
    RHS1      c140      8260000
    RHS1      c141      8280000
    RHS1      c142      8320000
    RHS1      c143      8300000
    RHS1      c144      1
    RHS1      c145      600000
    RHS1      c146      7980000
    RHS1      c147      8260000
    RHS1      c148      8350000
    RHS1      c149      8240000
    RHS1      c150      8300000
    RHS1      c151      8360000
    RHS1      c152      8380000.004
    RHS1      c153      8413333.395
    RHS1      c154      8340000
    RHS1      c155      1
    RHS1      c156      8310000
    RHS1      c157      350000
    RHS1      c158      7980000
    RHS1      c159      8310000
    RHS1      c160      8300000
    RHS1      c161      8270000
    RHS1      c162      8340000
    RHS1      c163      8380000
    RHS1      c164      8380000
    RHS1      c165      1
    RHS1      c166      8200000
    RHS1      c167      250000
    RHS1      c168      8080000
    RHS1      c169      8180000
    RHS1      c170      8240000
    RHS1      c171      8260000
    RHS1      c172      8340000
    RHS1      c173      8160000
    RHS1      c174      8330000
    RHS1      c175      8310000
    RHS1      c176      8380000
    RHS1      c177      8340000
    RHS1      c178      8300000
    RHS1      c179      1
    RHS1      c180      8220000
    RHS1      c181      300000
    RHS1      c182      8000000
    RHS1      c183      140000
    RHS1      c184      8310000
    RHS1      c185      8280000
    RHS1      c186      8340000
    RHS1      c187      1
    RHS1      c188      8340000
    RHS1      c189      8340000
    RHS1      c190      400000
    RHS1      c191      8300000
    RHS1      c192      8120000
    RHS1      c193      8220000
    RHS1      c194      8040000
    RHS1      c195      8280000
    RHS1      c196      1
    RHS1      c197      8280000
    RHS1      c198      8250000
    RHS1      c199      480000
    RHS1      c200      8300000
    RHS1      c201      8190000
    RHS1      c202      8290000
    RHS1      c203      7920000
    RHS1      c204      8250000
    RHS1      c205      1
    RHS1      c206      8280000
    RHS1      c207      8310000
    RHS1      c209      7960000
    RHS1      c210      8220000
    RHS1      c211      8160000
    RHS1      c212      8260000
    RHS1      c213      8350000
    RHS1      c214      8320000
    RHS1      c215      1
    RHS1      c216      8400000
    RHS1      c217      8370000
    RHS1      c218      8310000
    RHS1      c219      140000
    RHS1      c220      7960000
    RHS1      c221      8240000
    RHS1      c222      8160000
    RHS1      c223      8310000
    RHS1      c224      1
    RHS1      c225      8260000
    RHS1      c226      8250000
    RHS1      c227      8200000
    RHS1      c229      8140000
    RHS1      c230      8240000
    RHS1      c231      8050000
    RHS1      c232      8130000
    RHS1      c233      8040000
    RHS1      c234      8300000
    RHS1      c235      8295000
    RHS1      c236      1
    RHS1      c237      8340000
    RHS1      c238      8310000
    RHS1      c239      8220000
    RHS1      c241      8140000
    RHS1      c242      8160000
    RHS1      c243      8190000
    RHS1      c244      1
    RHS1      c245      320000
    RHS1      c246      8330000
    RHS1      c247      8320000
    RHS1      c248      8310000
    RHS1      c249      8320000
    RHS1      c250      240000
    RHS1      c251      8220000
    RHS1      c252      8160000
    RHS1      c253      8220000
    RHS1      c254      1
    RHS1      c255      8220000
    RHS1      c256      300000
    RHS1      c257      8260000
    RHS1      c258      8120000
    RHS1      c259      8280000
    RHS1      c260      240000
    RHS1      c261      8300000
    RHS1      c262      8320000
    RHS1      c263      8346666.4
    RHS1      c264      8386666.797
    RHS1      c265      8340000
    RHS1      c266      1
    RHS1      c267      8280000
    RHS1      c268      8120000
    RHS1      c269      8300000
    RHS1      c270      240000
    RHS1      c271      8280000
    RHS1      c272      8250000
    RHS1      c273      1
    RHS1      c274      8000000
    RHS1      c275      8070000
    RHS1      c276      8260000
    RHS1      c277      8250000
    RHS1      c278      8220000
    RHS1      c279      240000
    RHS1      c280      8310000
    RHS1      c281      8310000
    RHS1      c282      8360000
    RHS1      c283      8360000
    RHS1      c284      8290000
    RHS1      c285      1
    RHS1      c286      8280000
    RHS1      c287      8220000
    RHS1      c288      240000
    RHS1      c289      8250000
    RHS1      c290      8310000
    RHS1      c291      8100000
    RHS1      c292      1
    RHS1      c293      8280000
    RHS1      c294      300000
    RHS1      c295      8120000
    RHS1      c296      8240000
    RHS1      c297      8120000
    RHS1      c298      8220000
    RHS1      c299      320000
    RHS1      c300      8280000
    RHS1      c301      8340000
    RHS1      c302      8400000
    RHS1      c303      1
    RHS1      c304      8160000
    RHS1      c305      8250000
    RHS1      c306      8120000
    RHS1      c307      8270000
    RHS1      c308      320000
    RHS1      c309      8340000
    RHS1      c310      8360000
    RHS1      c311      8360000
    RHS1      c312      8310000
    RHS1      c313      1
    RHS1      c314      8250000
    RHS1      c315      8200000
    RHS1      c316      7960000
    RHS1      c317      8240000
    RHS1      c318      8250000
    RHS1      c319      8130000
    RHS1      c320      320000
    RHS1      c321      8330000
    RHS1      c322      8320000
    RHS1      c323      8355000
    RHS1      c324      8390000
    RHS1      c325      8340000
    RHS1      c326      1
    RHS1      c327      8160000
    RHS1      c328      8280000
    RHS1      c329      8100000
    RHS1      c330      320000
    RHS1      c331      8250000
    RHS1      c332      8310000
    RHS1      c333      8220000
    RHS1      c334      1
    RHS1      c335      8250000
    RHS1      c336      8260000
    RHS1      c337      8280000
    RHS1      c338      8360000
    RHS1      c339      8200000
    RHS1      c340      8250000
    RHS1      c341      300000
    RHS1      c342      8300000
    RHS1      c343      8280000
    RHS1      c344      1
    RHS1      c345      8000000
    RHS1      c346      8180000
    RHS1      c347      8160000
    RHS1      c348      8310000
    RHS1      c349      8340000
    RHS1      c350      8130000
    RHS1      c352      8260000
    RHS1      c353      8280000
    RHS1      c354      60000
    RHS1      c355      8310000
    RHS1      c356      8120000
    RHS1      c357      1
    RHS1      c358      8100000
    RHS1      c359      8280000
    RHS1      c360      8340000
    RHS1      c361      8370000
    RHS1      c362      8220000
    RHS1      c363      300000
    RHS1      c364      8160000
    RHS1      c365      8200000
    RHS1      c366      1
    RHS1      c367      8180000
    RHS1      c368      8230000
    RHS1      c369      8180000
    RHS1      c370      8280000
    RHS1      c371      8310000
    RHS1      c372      8220000
    RHS1      c373      8280000
    RHS1      c374      8240000
    RHS1      c375      8440000
    RHS1      c376      8330000
    RHS1      c377      8120000
    RHS1      c378      1
    RHS1      c379      8340000
    RHS1      c380      8340000
    RHS1      c381      8310000
    RHS1      c382      8190000
    RHS1      c383      8200000
    RHS1      c384      8190000
    RHS1      c385      8280000
    RHS1      c386      1
    RHS1      c387      8040000
    RHS1      c388      8280000
    RHS1      c389      8320000
    RHS1      c390      8410000
    RHS1      c391      8330000
    RHS1      c392      8100000
    RHS1      c393      8200000
    RHS1      c394      8180000
    RHS1      c395      8100000
    RHS1      c396      1
BOUNDS
 LO BND1      x3        200
 LO BND1      x4        200
 LO BND1      x5        100
 LO BND1      x6        200
 LO BND1      x7        200
 LO BND1      x8        300
 LO BND1      x10       800
 UP BND1      x11       700
 UP BND1      x12       700
 UP BND1      x13       500
 UP BND1      x14       800
 UP BND1      x15       800
 UP BND1      x16       600
 UP BND1      x17       700
 UP BND1      x18       500
 UP BND1      x19       600
 BV BND1      x21     
 BV BND1      x22     
 BV BND1      x23     
 BV BND1      x24     
 BV BND1      x25     
 BV BND1      x26     
 BV BND1      x27     
 BV BND1      x28     
 BV BND1      x29     
 BV BND1      x30     
 BV BND1      x31     
 BV BND1      x32     
 BV BND1      x33     
 BV BND1      x34     
 BV BND1      x36     
 BV BND1      x37     
 BV BND1      x38     
 BV BND1      x39     
 BV BND1      x40     
 BV BND1      x41     
 BV BND1      x42     
 BV BND1      x43     
 BV BND1      x44     
 BV BND1      x45     
 BV BND1      x46     
 BV BND1      x47     
 BV BND1      x48     
 BV BND1      x49     
 BV BND1      x50     
 BV BND1      x51     
 BV BND1      x52     
 BV BND1      x53     
 BV BND1      x54     
 BV BND1      x55     
 BV BND1      x56     
 BV BND1      x57     
 BV BND1      x58     
 BV BND1      x59     
 BV BND1      x60     
 BV BND1      x61     
 BV BND1      x62     
 BV BND1      x63     
 BV BND1      x64     
 BV BND1      x65     
 BV BND1      x66     
 BV BND1      x67     
 BV BND1      x68     
 BV BND1      x69     
 BV BND1      x70     
 BV BND1      x71     
 BV BND1      x72     
 BV BND1      x73     
 BV BND1      x74     
 BV BND1      x75     
 BV BND1      x76     
 BV BND1      x77     
 BV BND1      x78     
 BV BND1      x79     
 BV BND1      x80     
 BV BND1      x81     
 BV BND1      x82     
 BV BND1      x83     
 BV BND1      x84     
 BV BND1      x85     
 BV BND1      x86     
 BV BND1      x87     
 BV BND1      x88     
 BV BND1      x89     
 BV BND1      x90     
 BV BND1      x91     
 BV BND1      x92     
 BV BND1      x93     
 BV BND1      x94     
 BV BND1      x95     
 BV BND1      x96     
 BV BND1      x97     
 BV BND1      x98     
 BV BND1      x99     
 BV BND1      x100    
 BV BND1      x101    
 BV BND1      x102    
 BV BND1      x103    
 BV BND1      x104    
 BV BND1      x105    
 BV BND1      x106    
 BV BND1      x107    
 BV BND1      x108    
 BV BND1      x109    
 BV BND1      x110    
 BV BND1      x111    
 BV BND1      x112    
 BV BND1      x113    
 BV BND1      x114    
 BV BND1      x115    
 BV BND1      x116    
 BV BND1      x117    
 BV BND1      x118    
 BV BND1      x119    
 BV BND1      x120    
 BV BND1      x121    
 BV BND1      x122    
 BV BND1      x123    
 BV BND1      x124    
 BV BND1      x125    
 BV BND1      x126    
 BV BND1      x127    
 BV BND1      x128    
 BV BND1      x129    
 BV BND1      x130    
 BV BND1      x131    
 BV BND1      x132    
 BV BND1      x133    
 BV BND1      x134    
 BV BND1      x135    
 BV BND1      x136    
 BV BND1      x137    
 BV BND1      x138    
 BV BND1      x139    
 BV BND1      x140    
 BV BND1      x141    
 BV BND1      x142    
 BV BND1      x143    
 BV BND1      x144    
 BV BND1      x145    
 BV BND1      x146    
 BV BND1      x147    
 BV BND1      x148    
 BV BND1      x149    
 BV BND1      x150    
 BV BND1      x151    
 BV BND1      x152    
 BV BND1      x153    
 BV BND1      x154    
 BV BND1      x155    
 BV BND1      x156    
 BV BND1      x157    
 BV BND1      x158    
 BV BND1      x159    
 BV BND1      x160    
 BV BND1      x161    
 BV BND1      x162    
 BV BND1      x163    
 BV BND1      x164    
 BV BND1      x165    
 BV BND1      x166    
 BV BND1      x167    
 BV BND1      x169    
 BV BND1      x170    
 BV BND1      x171    
 BV BND1      x172    
 BV BND1      x173    
 BV BND1      x174    
 BV BND1      x175    
 BV BND1      x176    
 BV BND1      x177    
 BV BND1      x178    
 BV BND1      x179    
 BV BND1      x180    
 BV BND1      x181    
 BV BND1      x182    
 BV BND1      x184    
 BV BND1      x185    
 BV BND1      x186    
 BV BND1      x187    
 BV BND1      x188    
 BV BND1      x189    
 BV BND1      x190    
 BV BND1      x191    
 BV BND1      x193    
 BV BND1      x194    
 BV BND1      x195    
 BV BND1      x196    
 BV BND1      x197    
 BV BND1      x198    
 BV BND1      x199    
 BV BND1      x200    
 BV BND1      x201    
 BV BND1      x202    
 BV BND1      x203    
 BV BND1      x204    
 BV BND1      x205    
 BV BND1      x206    
 BV BND1      x207    
 BV BND1      x208    
 BV BND1      x209    
 BV BND1      x210    
 BV BND1      x211    
 BV BND1      x212    
 BV BND1      x213    
 BV BND1      x214    
 BV BND1      x215    
 BV BND1      x216    
 BV BND1      x217    
 BV BND1      x218    
 BV BND1      x219    
 BV BND1      x220    
 BV BND1      x221    
 BV BND1      x222    
 BV BND1      x223    
 BV BND1      x224    
 BV BND1      x225    
 BV BND1      x226    
 BV BND1      x227    
 BV BND1      x228    
 BV BND1      x229    
 BV BND1      x230    
 BV BND1      x231    
 BV BND1      x232    
 BV BND1      x233    
 BV BND1      x234    
 BV BND1      x235    
 BV BND1      x236    
 BV BND1      x237    
 BV BND1      x238    
 BV BND1      x239    
 BV BND1      x240    
 BV BND1      x241    
 BV BND1      x242    
 BV BND1      x243    
 BV BND1      x244    
 BV BND1      x245    
 BV BND1      x246    
 BV BND1      x247    
 BV BND1      x248    
 BV BND1      x249    
 BV BND1      x250    
 BV BND1      x251    
 BV BND1      x252    
 BV BND1      x253    
 BV BND1      x254    
 BV BND1      x255    
 BV BND1      x256    
 BV BND1      x257    
 BV BND1      x258    
 BV BND1      x259    
 BV BND1      x260    
 BV BND1      x261    
 BV BND1      x262    
 BV BND1      x263    
 BV BND1      x264    
 BV BND1      x265    
 BV BND1      x266    
 BV BND1      x267    
 BV BND1      x268    
 BV BND1      x269    
 BV BND1      x270    
 BV BND1      x271    
 BV BND1      x272    
 BV BND1      x273    
 BV BND1      x274    
 BV BND1      x275    
 BV BND1      x276    
 BV BND1      x277    
 BV BND1      x278    
 BV BND1      x279    
 BV BND1      x280    
 BV BND1      x281    
 BV BND1      x282    
 BV BND1      x283    
 BV BND1      x284    
 BV BND1      x285    
 BV BND1      x287    
 BV BND1      x288    
 BV BND1      x289    
 BV BND1      x290    
 BV BND1      x291    
 BV BND1      x292    
 BV BND1      x293    
 BV BND1      x294    
 BV BND1      x295    
 BV BND1      x296    
 BV BND1      x297    
 BV BND1      x298    
 BV BND1      x299    
 BV BND1      x300    
 BV BND1      x301    
 BV BND1      x302    
 BV BND1      x303    
 BV BND1      x304    
 BV BND1      x305    
 BV BND1      x306    
 BV BND1      x307    
 BV BND1      x308    
 BV BND1      x309    
 BV BND1      x310    
 BV BND1      x311    
 BV BND1      x312    
 BV BND1      x313    
 BV BND1      x314    
 BV BND1      x315    
 BV BND1      x316    
 BV BND1      x317    
 BV BND1      x318    
 BV BND1      x319    
 BV BND1      x320    
 BV BND1      x321    
 BV BND1      x322    
ENDATA
