NAME gmu-35-40_pre
ROWS
 N  OBJ
 E  AA_1    
 E  AA_2    
 E  AA_3    
 E  AA_4    
 E  AA_5    
 E  AA_6    
 E  AA_7    
 E  AA_8    
 E  AA_9    
 E  AA_10   
 E  AA_11   
 E  AA_13   
 E  AA_14   
 E  AA_15   
 E  AA_17   
 E  AA_18   
 L  AA_20   
 E  AA_21   
 E  AA_22   
 E  AA_23   
 E  AA_24   
 E  AA_25   
 E  AA_26   
 E  AA_27   
 E  AA_28   
 E  AA_29   
 E  AA_30   
 E  AA_31   
 E  AA_32   
 L  AA_33   
 E  AA_34   
 E  AA_35   
 E  AA_36   
 E  AA_37   
 E  AA_38   
 E  AA_39   
 E  AA_40   
 E  AA_41   
 E  AA_42   
 E  AA_43   
 E  AA_44   
 E  AA_45   
 E  AA_46   
 E  AA_47   
 E  AA_48   
 E  AA_49   
 E  AA_50   
 E  AA_51   
 E  AA_52   
 E  AA_53   
 E  AA_54   
 E  AA_55   
 E  AA_56   
 E  AA_57   
 E  AA_58   
 E  AA_59   
 E  AA_60   
 E  AA_61   
 E  AA_64   
 E  AA_65   
 E  AA_66   
 E  AA_67   
 E  AA_68   
 E  AA_69   
 E  AA_70   
 E  AA_71   
 E  AA_72   
 E  AA_73   
 E  AA_74   
 E  AA_76   
 E  AA_77   
 E  AA_78   
 E  AA_79   
 E  AA_80   
 E  AA_81   
 E  AA_82   
 E  AA_83   
 E  AA_84   
 E  AA_85   
 E  AA_86   
 E  AA_87   
 E  AA_88   
 E  AA_89   
 E  AA_90   
 E  Sawti_H1
 E  Sawti_H2
 E  Sawti_H3
 E  Sawti_H4
 E  Sawti_H5
 L  Flct_1  
 L  Flct_5  
 L  Flct_2  
 L  Flct_6  
 L  Flct_3  
 L  Flct_7  
 L  Flct_4  
 L  Flct_8  
 L  _EAge_11
 L  _EAge_22
 L  _EAge_31
 L  _EAge_32
 L  _EAge_51
 L  _EAge_53
 L  Adj_1   
 L  Adj_2   
 L  Adj_3   
 L  Adj_4   
 L  Adj_7   
 L  Adj_8   
 L  Adj_9   
 L  Adj_10  
 L  Adj_11  
 L  Adj_12  
 L  Adj_15  
 L  Adj_16  
 L  Adj_17  
 L  Adj_18  
 L  Adj_19  
 L  Adj_20  
 L  Adj_23  
 L  Adj_24  
 L  Adj_25  
 L  Adj_26  
 L  Adj_27  
 L  Adj_28  
 L  Adj_29  
 L  Adj_30  
 L  Adj_31  
 L  Adj_32  
 L  Adj_34  
 L  Adj_35  
 L  Adj_36  
 L  Adj_37  
 L  Adj_38  
 L  Adj_40  
 L  Adj_41  
 L  Adj_42  
 L  Adj_45  
 L  Adj_46  
 L  Adj_47  
 L  Adj_48  
 L  Adj_49  
 L  Adj_50  
 L  Adj_51  
 L  Adj_52  
 L  Adj_53  
 L  Adj_54  
 L  Adj_56  
 L  Adj_57  
 L  Adj_59  
 L  Adj_60  
 L  Adj_62  
 L  Adj_63  
 L  Adj_64  
 L  Adj_65  
 L  Adj_68  
 L  Adj_69  
 L  Adj_70  
 L  Adj_71  
 L  Adj_73  
 L  Adj_74  
 L  Adj_75  
 L  Adj_76  
 L  Adj_77  
 L  Adj_79  
 L  Adj_80  
 L  Adj_81  
 L  Adj_83  
 L  Adj_84  
 L  Adj_85  
 L  Adj_88  
 L  Adj_89  
 L  Adj_91  
 L  Adj_92  
 L  Adj_93  
 L  Adj_95  
 L  Adj_96  
 L  Adj_97  
 L  Adj_98  
 L  Adj_100 
 L  Adj_101 
 L  Adj_102 
 L  Adj_103 
 L  Adj_104 
 L  Adj_105 
 L  Adj_106 
 L  Adj_107 
 L  Adj_112 
 L  Adj_113 
 L  Adj_114 
 L  Adj_116 
 L  Adj_117 
 L  Adj_118 
 L  Adj_120 
 L  Adj_121 
 L  Adj_125 
 L  Adj_126 
 L  Adj_128 
 L  Adj_129 
 L  Adj_131 
 L  Adj_132 
 L  Adj_133 
 L  Adj_136 
 L  Adj_137 
 L  Adj_140 
 L  Adj_141 
 L  Adj_142 
 L  Adj_143 
 L  Adj_144 
 L  Adj_145 
 L  Adj_146 
 L  Adj_147 
 L  Adj_148 
 L  Adj_149 
 L  Adj_150 
 L  Adj_151 
 L  Adj_152 
 L  Adj_153 
 L  Adj_154 
 L  Adj_155 
 L  Adj_156 
 L  Adj_157 
 L  Adj_158 
 L  Adj_159 
 L  Adj_160 
 L  Adj_161 
 L  Adj_163 
 L  Adj_164 
 L  Adj_165 
 L  Adj_166 
 L  Adj_167 
 L  Adj_168 
 L  Adj_169 
 L  Adj_170 
 L  Adj_171 
 L  Adj_172 
 L  Adj_173 
 L  Adj_178 
 L  Adj_179 
 L  Adj_180 
 L  Adj_181 
 L  Adj_182 
 L  Adj_183 
 L  Adj_185 
 L  Adj_186 
 L  Adj_188 
 L  Adj_189 
 L  Adj_190 
 L  Adj_191 
 L  Adj_192 
 L  Adj_193 
 L  Adj_196 
 L  Adj_199 
 L  Adj_200 
 L  Adj_201 
 L  Adj_202 
 L  Adj_203 
 L  Adj_204 
 L  Adj_205 
 L  Adj_206 
 L  Adj_207 
 L  Adj_208 
 L  Adj_210 
 L  Adj_211 
 L  Adj_212 
 L  Adj_213 
 L  Adj_214 
 L  Adj_215 
 L  Adj_216 
 L  Adj_217 
 L  Adj_218 
 L  Adj_219 
 L  Adj_220 
 L  Adj_221 
 L  Adj_222 
 L  Adj_223 
 L  Adj_225 
 L  Adj_226 
 L  Adj_227 
 L  Adj_228 
 L  Adj_229 
 L  Adj_230 
 L  Adj_231 
 L  Adj_232 
 L  Adj_233 
 L  Adj_234 
 L  Adj_235 
 L  Adj_238 
 L  Adj_239 
 L  Adj_240 
 L  Adj_241 
 L  Adj_242 
 L  Adj_243 
 L  Adj_244 
 L  Adj_245 
 L  Adj_246 
 L  Adj_247 
 L  Adj_248 
 L  Adj_249 
 L  Adj_250 
 L  Adj_251 
 L  Adj_252 
 L  Adj_253 
 L  Adj_254 
 L  Adj_255 
 L  Adj_256 
 L  Adj_257 
 L  Adj_258 
 L  Adj_259 
 L  Adj_260 
 L  Adj_261 
 L  Adj_262 
 L  Adj_263 
 L  Adj_264 
 L  Adj_265 
 L  Adj_266 
 L  Adj_267 
 L  Adj_268 
 L  Adj_269 
 L  Adj_270 
 L  Adj_271 
 L  Adj_272 
 L  Adj_273 
 L  Adj_274 
 L  Adj_275 
 L  Adj_276 
 L  Adj_277 
 L  Adj_280 
 L  Adj_281 
 L  Adj_282 
 L  Adj_283 
 L  Adj_284 
 L  Adj_285 
 L  Adj_288 
 L  Adj_289 
 L  Adj_290 
 L  Adj_291 
 L  Adj_292 
 L  Adj_293 
 L  Adj_294 
 L  Adj_295 
 L  Adj_296 
 L  Adj_297 
 L  Adj_300 
 L  Adj_301 
 L  Adj_302 
 L  Adj_303 
 L  Adj_304 
 L  Adj_305 
 L  Adj_306 
 L  Adj_307 
 L  Adj_308 
 L  Adj_309 
 L  Adj_310 
 L  Adj_311 
 L  Adj_312 
 L  Adj_313 
COLUMNS
    MARKER    'MARKER'                 'INTORG'
    x1_0      OBJ       -4681.2666
    x1_0      AA_1      1
    x1_0      _EAge_32  -463.67384
    x1_1      OBJ       -18499.1031
    x1_1      AA_1      1
    x1_1      Sawti_H1  36.3752
    x1_2      OBJ       -14125.1319
    x1_2      AA_1      1
    x1_2      Sawti_H2  41.2612
    x1_2      _EAge_32  57.95923
    x1_2      Adj_1     1
    x1_3      OBJ       -10512.9726
    x1_3      AA_1      1
    x1_3      Sawti_H3  45.5733
    x1_3      _EAge_32  115.91846
    x1_3      Adj_2     1
    x1_4      OBJ       -7683.8232
    x1_4      AA_1      1
    x1_4      Sawti_H4  49.3987
    x1_4      _EAge_32  173.87769
    x1_4      Adj_3     1
    x1_4      Adj_7     1
    x1_5      OBJ       -5539.7919
    x1_5      AA_1      1
    x1_5      Sawti_H5  52.7951
    x1_5      _EAge_32  231.83692
    x1_5      Adj_4     1
    x1_5      Adj_8     1
    x2_0      OBJ       -13391.4936
    x2_0      AA_2      1
    x2_0      _EAge_32  -1326.4112
    x2_1      OBJ       -52919.5715
    x2_1      AA_2      1
    x2_1      Sawti_H1  104.057
    x2_2      OBJ       -40407.1442
    x2_2      AA_2      1
    x2_2      Sawti_H2  118.034
    x2_2      _EAge_32  165.8014
    x2_2      Adj_9     1
    x2_3      OBJ       -30073.9989
    x2_3      AA_2      1
    x2_3      Sawti_H3  130.3697
    x2_3      _EAge_32  331.6028
    x2_3      Adj_10    1
    x2_4      OBJ       -21980.7755
    x2_4      AA_2      1
    x2_4      Sawti_H4  141.3126
    x2_4      _EAge_32  4.9740419999999995e+02
    x2_4      Adj_11    1
    x2_5      OBJ       -15847.4393
    x2_5      AA_2      1
    x2_5      Sawti_H5  151.0285
    x2_5      _EAge_32  663.2056
    x2_5      Adj_12    1
    x3_0      OBJ       -25880.2092
    x3_0      AA_3      1
    x3_0      _EAge_51  -1972.2648
    x3_4      OBJ       -39351.6677
    x3_4      AA_3      1
    x3_4      Sawti_H4  246.607
    x3_4      Adj_15    1
    x3_5      OBJ       -29985.5393
    x3_5      AA_3      1
    x3_5      Sawti_H5  279.7164
    x3_5      _EAge_51  246.5331
    x3_5      Adj_16    1
    x4_0      OBJ       -6106.3634
    x4_0      AA_4      1
    x4_0      _EAge_32  -604.828
    x4_1      OBJ       -24130.7014
    x4_1      AA_4      1
    x4_1      Sawti_H1  47.4488
    x4_2      OBJ       -18425.1819
    x4_2      AA_4      1
    x4_2      Sawti_H2  53.8221
    x4_2      _EAge_32  75.6035
    x4_2      Adj_17    1
    x4_3      OBJ       -13713.3893
    x4_3      AA_4      1
    x4_3      Sawti_H3  59.447
    x4_3      _EAge_32  151.207
    x4_3      Adj_18    1
    x4_4      OBJ       -10022.9748
    x4_4      AA_4      1
    x4_4      Sawti_H4  64.4369
    x4_4      _EAge_32  226.8105
    x4_4      Adj_15    1
    x4_4      Adj_19    1
    x4_5      OBJ       -7226.2457
    x4_5      AA_4      1
    x4_5      Sawti_H5  68.8672
    x4_5      _EAge_32  302.414
    x4_5      Adj_16    1
    x4_5      Adj_20    1
    x5_0      OBJ       -5429.1103
    x5_0      AA_5      1
    x5_0      _EAge_32  -5.3774687999999992e+02
    x5_1      OBJ       -21454.3799
    x5_1      AA_5      1
    x5_1      Sawti_H1  42.1862
    x5_2      OBJ       -16381.6561
    x5_2      AA_5      1
    x5_2      Sawti_H2  47.8528
    x5_2      _EAge_32  67.21836
    x5_2      Adj_25    1
    x5_3      OBJ       -12192.4456
    x5_3      AA_5      1
    x5_3      Sawti_H3  52.8538
    x5_3      _EAge_32  134.43672
    x5_3      Adj_26    1
    x5_4      OBJ       -8911.3327
    x5_4      AA_5      1
    x5_4      Sawti_H4  57.2902
    x5_4      _EAge_32  201.65508
    x5_4      Adj_23    1
    x5_4      Adj_27    1
    x5_5      OBJ       -6424.7872
    x5_5      AA_5      1
    x5_5      Sawti_H5  61.2292
    x5_5      _EAge_32  268.87344
    x5_5      Adj_24    1
    x5_5      Adj_28    1
    x6_0      OBJ       -17209.4192
    x6_0      AA_6      1
    x6_0      _EAge_32  -1809.452
    x6_2      OBJ       -48769.8955
    x6_2      AA_6      1
    x6_2      Sawti_H2  141.9515
    x6_2      Adj_17    1
    x6_2      Adj_29    1
    x6_3      OBJ       -37238.6273
    x6_3      AA_6      1
    x6_3      Sawti_H3  161.0186
    x6_3      _EAge_32  2.2618149999999997e+02
    x6_3      Adj_18    1
    x6_3      Adj_30    1
    x6_4      OBJ       -27715.7532
    x6_4      AA_6      1
    x6_4      Sawti_H4  177.8465
    x6_4      _EAge_32  452.363
    x6_4      Adj_19    1
    x6_4      Adj_31    1
    x6_5      OBJ       -20257.1581
    x6_5      AA_6      1
    x6_5      Sawti_H5  192.7745
    x6_5      _EAge_32  6.7854450000000008e+02
    x6_5      Adj_20    1
    x6_5      Adj_32    1
    x7_0      OBJ       -8276.7028
    x7_0      AA_7      1
    x7_0      _EAge_32  -819.7976
    x7_1      OBJ       -32707.2973
    x7_1      AA_7      1
    x7_1      Sawti_H1  64.3131
    x7_1      Adj_38    1
    x7_2      OBJ       -24973.9074
    x7_2      AA_7      1
    x7_2      Sawti_H2  72.9517
    x7_2      _EAge_32  102.4747
    x7_2      Adj_34    1
    x7_3      OBJ       -18587.4374
    x7_3      AA_7      1
    x7_3      Sawti_H3  80.5758
    x7_3      _EAge_32  204.9494
    x7_3      Adj_35    1
    x7_3      Adj_40    1
    x7_4      OBJ       -13585.3663
    x7_4      AA_7      1
    x7_4      Sawti_H4  87.3392
    x7_4      _EAge_32  307.4241
    x7_4      Adj_36    1
    x7_4      Adj_41    1
    x7_4      Adj_45    1
    x7_5      OBJ       -9794.6165
    x7_5      AA_7      1
    x7_5      Sawti_H5  93.3442
    x7_5      _EAge_32  409.8988
    x7_5      Adj_37    1
    x7_5      Adj_42    1
    x7_5      Adj_46    1
    x8_0      OBJ       -35584.8191
    x8_0      AA_8      1
    x8_0      _EAge_31  -2422.8752
    x8_1      OBJ       -141273.8067
    x8_1      AA_8      1
    x8_1      Sawti_H1  273.8152
    x8_1      Adj_38    1
    x8_2      OBJ       -107688.8124
    x8_2      AA_8      1
    x8_2      Sawti_H2  310.5824
    x8_2      _EAge_31  302.8594
    x8_2      Adj_34    1
    x8_2      Adj_47    1
    x8_2      Adj_51    1
    x8_3      OBJ       -80064.7631
    x8_3      AA_8      1
    x8_3      Sawti_H3  343.0792
    x8_3      _EAge_31  605.7188
    x8_3      Adj_35    1
    x8_3      Adj_40    1
    x8_3      Adj_48    1
    x8_3      Adj_52    1
    x8_4      OBJ       -58463.594
    x8_4      AA_8      1
    x8_4      Sawti_H4  371.8508
    x8_4      _EAge_31  908.5782
    x8_4      Adj_36    1
    x8_4      Adj_41    1
    x8_4      Adj_49    1
    x8_4      Adj_53    1
    x8_5      OBJ       -42121.5454
    x8_5      AA_8      1
    x8_5      Sawti_H5  397.4121
    x8_5      _EAge_31  1211.4376
    x8_5      Adj_37    1
    x8_5      Adj_42    1
    x8_5      Adj_50    1
    x8_5      Adj_54    1
    x9_0      OBJ       -7902.8046
    x9_0      AA_9      1
    x9_0      _EAge_32  -974.1504
    x9_4      OBJ       -11982.9505
    x9_4      AA_9      1
    x9_4      Sawti_H4  76.4221
    x9_4      Adj_45    1
    x9_4      Adj_56    1
    x9_4      Adj_59    1
    x9_4      Adj_62    1
    x9_5      OBJ       -9149.6737
    x9_5      AA_9      1
    x9_5      Sawti_H5  86.6872
    x9_5      _EAge_32  121.7688
    x9_5      Adj_46    1
    x9_5      Adj_57    1
    x9_5      Adj_60    1
    x9_5      Adj_63    1
    x10_0     OBJ       -26175.7861
    x10_0     AA_10     1
    x10_0     _EAge_31  -1890.7952
    x10_2     OBJ       -74480.337
    x10_2     AA_10     1
    x10_2     Sawti_H2  213.6835
    x10_3     OBJ       -56774.1411
    x10_3     AA_10     1
    x10_3     Sawti_H3  242.3763
    x10_3     _EAge_31  2.3634939999999997e+02
    x10_3     Adj_69    1
    x10_4     OBJ       -42210.5886
    x10_4     AA_10     1
    x10_4     Sawti_H4  267.7366
    x10_4     _EAge_31  472.6988
    x10_4     Adj_70    1
    x10_4     Adj_73    1
    x10_5     OBJ       -30822.332
    x10_5     AA_10     1
    x10_5     Sawti_H5  290.1898
    x10_5     _EAge_31  709.0482
    x10_5     Adj_64    1
    x10_5     Adj_65    1
    x10_5     Adj_68    1
    x10_5     Adj_71    1
    x10_5     Adj_74    1
    x11_0     OBJ       -16216.3126
    x11_0     AA_11     1
    x11_0     _EAge_32  -1831.6552
    x11_3     OBJ       -33351.476
    x11_3     AA_11     1
    x11_3     Sawti_H3  143.6934
    x11_3     Adj_69    1
    x11_3     Adj_75    1
    x11_3     Adj_79    1
    x11_3     Adj_83    1
    x11_3     Adj_91    1
    x11_4     OBJ       -25465.775
    x11_4     AA_11     1
    x11_4     Sawti_H4  162.9944
    x11_4     _EAge_32  2.2895689999999996e+02
    x11_4     Adj_70    1
    x11_4     Adj_73    1
    x11_4     Adj_76    1
    x11_4     Adj_80    1
    x11_4     Adj_84    1
    x11_4     Adj_88    1
    x11_4     Adj_92    1
    x11_5     OBJ       -18953.5218
    x11_5     AA_11     1
    x11_5     Sawti_H5  180.0288
    x11_5     _EAge_32  457.9138
    x11_5     Adj_71    1
    x11_5     Adj_74    1
    x11_5     Adj_77    1
    x11_5     Adj_81    1
    x11_5     Adj_85    1
    x11_5     Adj_89    1
    x11_5     Adj_93    1
    x13_0     OBJ       -10344.0097
    x13_0     AA_13     1
    x13_0     _EAge_32  -1168.3704
    x13_3     OBJ       -21274.133
    x13_3     AA_13     1
    x13_3     Sawti_H3  91.6587
    x13_3     Adj_91    1
    x13_3     Adj_100   1
    x13_4     OBJ       -16244.0272
    x13_4     AA_13     1
    x13_4     Sawti_H4  103.9704
    x13_4     _EAge_32  146.0463
    x13_4     Adj_92    1
    x13_4     Adj_101   1
    x13_5     OBJ       -12090.012
    x13_5     AA_13     1
    x13_5     Sawti_H5  114.8362
    x13_5     _EAge_32  2.9209260000000006e+02
    x13_5     Adj_93    1
    x13_5     Adj_102   1
    x14_0     OBJ       -7273.7419
    x14_0     AA_14     1
    x14_0     _EAge_51  -4.7386215999999996e+02
    x14_2     OBJ       -20716.5185
    x14_2     AA_14     1
    x14_2     Sawti_H2  59.2505
    x14_3     OBJ       -15785.76
    x14_3     AA_14     1
    x14_3     Sawti_H3  67.2055
    x14_3     _EAge_51  5.9232769999999995e+01
    x14_3     Adj_103   1
    x14_4     OBJ       -11732.4413
    x14_4     AA_14     1
    x14_4     Sawti_H4  74.2305
    x14_4     _EAge_51  118.46554
    x14_4     Adj_104   1
    x14_5     OBJ       -8565.4811
    x14_5     AA_14     1
    x14_5     Sawti_H5  80.4559
    x14_5     _EAge_51  177.69831
    x14_5     Adj_105   1
    x15_0     OBJ       -14712.1471
    x15_0     AA_15     1
    x15_0     _EAge_32  -1661.7576
    x15_3     OBJ       -30257.9159
    x15_3     AA_15     1
    x15_3     Sawti_H3  130.3649
    x15_4     OBJ       -23103.6635
    x15_4     AA_15     1
    x15_4     Sawti_H4  147.8757
    x15_4     _EAge_32  2.0771970000000005e+02
    x15_4     Adj_106   1
    x15_5     OBJ       -17195.4629
    x15_5     AA_15     1
    x15_5     Sawti_H5  163.33
    x15_5     _EAge_32  4.1543940000000003e+02
    x15_5     Adj_107   1
    x17_0     OBJ       -16234.2311
    x17_0     AA_17     1
    x17_0     _EAge_32  -1833.6792
    x17_3     OBJ       -33388.3284
    x17_3     AA_17     1
    x17_3     Sawti_H3  143.8521
    x17_3     Adj_112   1
    x17_3     Adj_116   1
    x17_4     OBJ       -25493.914
    x17_4     AA_17     1
    x17_4     Sawti_H4  163.1745
    x17_4     _EAge_32  2.2920990000000006e+02
    x17_4     Adj_113   1
    x17_4     Adj_117   1
    x17_5     OBJ       -18974.4649
    x17_5     AA_17     1
    x17_5     Sawti_H5  180.2278
    x17_5     _EAge_32  458.4198
    x17_5     Adj_114   1
    x17_5     Adj_118   1
    x18_0     OBJ       -11572.1874
    x18_0     AA_18     1
    x18_0     _EAge_22  -1.0309360000000001e+03
    x18_4     OBJ       -17583.3313
    x18_4     AA_18     1
    x18_4     Sawti_H4  110.7225
    x18_4     Adj_120   1
    x18_4     Adj_125   1
    x18_5     OBJ       -13404.9054
    x18_5     AA_18     1
    x18_5     Sawti_H5  125.5809
    x18_5     _EAge_22  1.2886699999999996e+02
    x18_5     Adj_121   1
    x18_5     Adj_126   1
    x19_1     OBJ       -20822.8312
    x19_1     Sawti_H1  53.897
    x20_3     OBJ       -2795.0126
    x20_3     AA_20     1
    x20_3     Sawti_H3  24.6231
    x20_4     OBJ       -1.5173212000000003e+03
    x20_4     AA_20     1
    x20_4     Sawti_H4  27.9335
    x20_4     Adj_120   1
    x20_5     OBJ       -4.5102600000000029e+02
    x20_5     AA_20     1
    x20_5     Sawti_H5  30.8561
    x20_5     Adj_121   1
    x21_0     OBJ       -15062.6302
    x21_0     AA_21     1
    x21_0     _EAge_32  -1701.3456
    x21_3     OBJ       -30978.7411
    x21_3     AA_21     1
    x21_3     Sawti_H3  133.4705
    x21_3     Adj_131   1
    x21_4     OBJ       -23654.0551
    x21_4     AA_21     1
    x21_4     Sawti_H4  151.3985
    x21_4     _EAge_32  2.1266819999999996e+02
    x21_4     Adj_128   1
    x21_4     Adj_132   1
    x21_5     OBJ       -17605.1053
    x21_5     AA_21     1
    x21_5     Sawti_H5  167.221
    x21_5     _EAge_32  425.3364
    x21_5     Adj_129   1
    x21_5     Adj_133   1
    x22_0     OBJ       -6319.4374
    x22_0     AA_22     1
    x22_0     _EAge_32  -778.97416
    x22_4     OBJ       -9582.1053
    x22_4     AA_22     1
    x22_4     Sawti_H4  61.1105
    x22_4     Adj_128   1
    x22_5     OBJ       -7316.4899
    x22_5     AA_22     1
    x22_5     Sawti_H5  69.319
    x22_5     _EAge_32  97.37177
    x22_5     Adj_129   1
    x23_0     OBJ       -12246.4613
    x23_0     AA_23     1
    x23_0     _EAge_31  -884.6168
    x23_2     OBJ       -34845.9665
    x23_2     AA_23     1
    x23_2     Sawti_H2  99.9728
    x23_2     Adj_142   1
    x23_3     OBJ       -26562.0417
    x23_3     AA_23     1
    x23_3     Sawti_H3  113.3969
    x23_3     _EAge_31  1.1057709999999999e+02
    x23_3     Adj_143   1
    x23_4     OBJ       -19748.417
    x23_4     AA_23     1
    x23_4     Sawti_H4  125.2618
    x23_4     _EAge_31  221.1542
    x23_4     Adj_136   1
    x23_4     Adj_140   1
    x23_4     Adj_144   1
    x23_5     OBJ       -14420.3691
    x23_5     AA_23     1
    x23_5     Sawti_H5  135.7666
    x23_5     _EAge_31  3.3173130000000003e+02
    x23_5     Adj_137   1
    x23_5     Adj_141   1
    x23_5     Adj_145   1
    x24_0     OBJ       -34661.5941
    x24_0     AA_24     1
    x24_0     _EAge_51  -2258.0976
    x24_2     OBJ       -98720.5162
    x24_2     AA_24     1
    x24_2     Sawti_H2  282.3469
    x24_2     Adj_146   1
    x24_3     OBJ       -75223.9508
    x24_3     AA_24     1
    x24_3     Sawti_H3  320.2547
    x24_3     _EAge_51  282.2622
    x24_3     Adj_131   1
    x24_3     Adj_147   1
    x24_4     OBJ       -55908.6535
    x24_4     AA_24     1
    x24_4     Sawti_H4  353.7309
    x24_4     _EAge_51  564.5244
    x24_4     Adj_132   1
    x24_4     Adj_148   1
    x24_5     OBJ       -40817.1244
    x24_5     AA_24     1
    x24_5     Sawti_H5  383.3967
    x24_5     _EAge_51  8.4678659999999991e+02
    x24_5     Adj_133   1
    x24_5     Adj_149   1
    x25_0     OBJ       -12090.0049
    x25_0     AA_25     1
    x25_0     _EAge_51  -787.62704
    x25_2     OBJ       -34433.8325
    x25_2     AA_25     1
    x25_2     Sawti_H2  98.4829
    x25_2     Adj_146   1
    x25_3     OBJ       -26238.2028
    x25_3     AA_25     1
    x25_3     Sawti_H3  111.7052
    x25_3     _EAge_51  9.8453380000000010e+01
    x25_3     Adj_131   1
    x25_3     Adj_147   1
    x25_4     OBJ       -19501.0043
    x25_4     AA_25     1
    x25_4     Sawti_H4  123.3818
    x25_4     _EAge_51  1.9690676000000002e+02
    x25_4     Adj_132   1
    x25_4     Adj_148   1
    x25_5     OBJ       -14237.0611
    x25_5     AA_25     1
    x25_5     Sawti_H5  133.7292
    x25_5     _EAge_51  295.36014
    x25_5     Adj_133   1
    x25_5     Adj_149   1
    x26_0     OBJ       -17281.91
    x26_0     AA_26     1
    x26_0     _EAge_32  -1.8170744000000002e+03
    x26_2     OBJ       -48975.3279
    x26_2     AA_26     1
    x26_2     Sawti_H2  142.5495
    x26_2     Adj_142   1
    x26_2     Adj_150   1
    x26_3     OBJ       -37395.4868
    x26_3     AA_26     1
    x26_3     Sawti_H3  161.6969
    x26_3     _EAge_32  2.2713430000000002e+02
    x26_3     Adj_143   1
    x26_3     Adj_151   1
    x26_4     OBJ       -27832.4997
    x26_4     AA_26     1
    x26_4     Sawti_H4  178.5957
    x26_4     _EAge_32  454.2686
    x26_4     Adj_144   1
    x26_4     Adj_152   1
    x26_5     OBJ       -20342.4869
    x26_5     AA_26     1
    x26_5     Sawti_H5  193.5865
    x26_5     _EAge_32  681.4029
    x26_5     Adj_145   1
    x26_5     Adj_153   1
    x27_0     OBJ       -10492.6294
    x27_0     AA_27     1
    x27_0     _EAge_32  -1.1032279999999998e+03
    x27_2     OBJ       -29735.1371
    x27_2     AA_27     1
    x27_2     Sawti_H2  86.5482
    x27_2     Adj_150   1
    x27_2     Adj_154   1
    x27_2     Adj_158   1
    x27_3     OBJ       -22704.4918
    x27_3     AA_27     1
    x27_3     Sawti_H3  98.1735
    x27_3     _EAge_32  137.9035
    x27_3     Adj_151   1
    x27_3     Adj_155   1
    x27_3     Adj_159   1
    x27_4     OBJ       -16898.3697
    x27_4     AA_27     1
    x27_4     Sawti_H4  108.4335
    x27_4     _EAge_32  275.807
    x27_4     Adj_152   1
    x27_4     Adj_156   1
    x27_4     Adj_160   1
    x27_5     OBJ       -12350.8441
    x27_5     AA_27     1
    x27_5     Sawti_H5  117.5351
    x27_5     _EAge_32  4.1371049999999997e+02
    x27_5     Adj_153   1
    x27_5     Adj_157   1
    x27_5     Adj_161   1
    x28_0     OBJ       -16696.0118
    x28_0     AA_28     1
    x28_0     _EAge_31  -1136.7872
    x28_1     OBJ       -66284.1403
    x28_1     AA_28     1
    x28_1     Sawti_H1  128.4711
    x28_1     Adj_167   1
    x28_2     OBJ       -50526.4247
    x28_2     AA_28     1
    x28_2     Sawti_H2  145.7219
    x28_2     _EAge_31  142.0984
    x28_2     Adj_168   1
    x28_3     OBJ       -37565.5198
    x28_3     AA_28     1
    x28_3     Sawti_H3  160.969
    x28_3     _EAge_31  284.1968
    x28_3     Adj_169   1
    x28_4     OBJ       -27430.4852
    x28_4     AA_28     1
    x28_4     Sawti_H4  174.4684
    x28_4     _EAge_31  4.2629519999999997e+02
    x28_4     Adj_125   1
    x28_4     Adj_170   1
    x28_5     OBJ       -19762.973
    x28_5     AA_28     1
    x28_5     Sawti_H5  186.4615
    x28_5     _EAge_31  568.3936
    x28_5     Adj_126   1
    x28_5     Adj_171   1
    x29_0     OBJ       -35473.788
    x29_0     AA_29     1
    x29_0     _EAge_31  -2.4153160000000003e+03
    x29_1     OBJ       -140833.0066
    x29_1     AA_29     1
    x29_1     Sawti_H1  272.9609
    x29_1     Adj_167   1
    x29_2     OBJ       -107352.8037
    x29_2     AA_29     1
    x29_2     Sawti_H2  309.6133
    x29_2     _EAge_31  301.9145
    x29_2     Adj_163   1
    x29_2     Adj_168   1
    x29_3     OBJ       -79814.9464
    x29_3     AA_29     1
    x29_3     Sawti_H3  342.0087
    x29_3     _EAge_31  603.829
    x29_3     Adj_83    1
    x29_3     Adj_164   1
    x29_3     Adj_169   1
    x29_4     OBJ       -58281.1769
    x29_4     AA_29     1
    x29_4     Sawti_H4  370.6906
    x29_4     _EAge_31  905.7435
    x29_4     Adj_84    1
    x29_4     Adj_165   1
    x29_4     Adj_170   1
    x29_5     OBJ       -41990.1184
    x29_5     AA_29     1
    x29_5     Sawti_H5  396.1722
    x29_5     _EAge_31  1207.658
    x29_5     Adj_85    1
    x29_5     Adj_166   1
    x29_5     Adj_171   1
    x30_0     OBJ       -16254.2446
    x30_0     AA_30     1
    x30_0     _EAge_32  -2003.6016
    x30_4     OBJ       -24646.1629
    x30_4     AA_30     1
    x30_4     Sawti_H4  157.1826
    x30_4     Adj_172   1
    x30_5     OBJ       -18818.7665
    x30_5     AA_30     1
    x30_5     Sawti_H5  178.2955
    x30_5     _EAge_32  250.4502
    x30_5     Adj_173   1
    x31_0     OBJ       -5749.3594
    x31_0     AA_31     1
    x31_0     _EAge_32  -708.70272
    x31_4     OBJ       -8717.7012
    x31_4     AA_31     1
    x31_4     Sawti_H4  55.5977
    x31_4     Adj_106   1
    x31_4     Adj_172   1
    x31_5     OBJ       -6656.4675
    x31_5     AA_31     1
    x31_5     Sawti_H5  63.0657
    x31_5     _EAge_32  8.8587839999999971e+01
    x31_5     Adj_107   1
    x31_5     Adj_173   1
    x32_0     OBJ       -41590.0585
    x32_0     AA_32     1
    x32_0     _EAge_11  -1
    x32_4     OBJ       -63371.7115
    x32_4     AA_33     1
    x32_4     AA_32     1
    x32_4     Sawti_H4  391.6635
    x32_4     Adj_56    1
    x32_4     Adj_185   1
    x32_4     Adj_188   1
    x32_5     OBJ       -48215.2025
    x32_5     AA_33     1
    x32_5     AA_32     1
    x32_5     Sawti_H5  444.2686
    x32_5     Adj_57    1
    x32_5     Adj_186   1
    x32_5     Adj_189   1
    x33_4     OBJ       -22724.1371
    x33_4     AA_33     1
    x33_4     Sawti_H4  408.6106
    x33_4     _EAge_11  1
    x33_4     Adj_73    1
    x33_4     Adj_88    1
    x33_4     Adj_188   1
    x33_4     Adj_192   1
    x33_5     OBJ       -6.9118115000000034e+03
    x33_5     AA_33     1
    x33_5     Sawti_H5  463.4919
    x33_5     _EAge_11  1
    x33_5     Adj_74    1
    x33_5     Adj_89    1
    x33_5     Adj_189   1
    x33_5     Adj_193   1
    x34_0     OBJ       -14731.5368
    x34_0     AA_34     1
    x34_0     _EAge_32  -1663.948
    x34_3     OBJ       -30297.7939
    x34_3     AA_34     1
    x34_3     Sawti_H3  130.5367
    x34_3     Adj_40    1
    x34_3     Adj_178   1
    x34_4     OBJ       -23134.1127
    x34_4     AA_34     1
    x34_4     Sawti_H4  148.0706
    x34_4     _EAge_32  2.0799349999999998e+02
    x34_4     Adj_41    1
    x34_4     Adj_45    1
    x34_4     Adj_59    1
    x34_4     Adj_179   1
    x34_5     OBJ       -17218.1255
    x34_5     AA_34     1
    x34_5     Sawti_H5  163.5453
    x34_5     _EAge_32  415.987
    x34_5     Adj_42    1
    x34_5     Adj_46    1
    x34_5     Adj_60    1
    x34_5     Adj_180   1
    x35_0     OBJ       -17839.5775
    x35_0     AA_35     1
    x35_0     _EAge_32  -2.0150056000000002e+03
    x35_3     OBJ       -36689.9835
    x35_3     AA_35     1
    x35_3     Sawti_H3  158.0772
    x35_3     Adj_178   1
    x35_3     Adj_181   1
    x35_4     OBJ       -28014.918
    x35_4     AA_35     1
    x35_4     Sawti_H4  179.3103
    x35_4     _EAge_32  251.8757
    x35_4     Adj_59    1
    x35_4     Adj_62    1
    x35_4     Adj_179   1
    x35_4     Adj_182   1
    x35_5     OBJ       -20850.7834
    x35_5     AA_35     1
    x35_5     Sawti_H5  198.0499
    x35_5     _EAge_32  5.0375139999999993e+02
    x35_5     Adj_60    1
    x35_5     Adj_63    1
    x35_5     Adj_180   1
    x35_5     Adj_183   1
    x36_0     OBJ       -7621.5414
    x36_0     AA_36     1
    x36_0     _EAge_32  -860.864
    x36_3     OBJ       -15674.9356
    x36_3     AA_36     1
    x36_3     Sawti_H3  67.5348
    x36_3     Adj_200   1
    x36_4     OBJ       -11968.7172
    x36_4     AA_36     1
    x36_4     Sawti_H4  76.6061
    x36_4     _EAge_32  1.0760799999999998e+02
    x36_4     Adj_201   1
    x36_5     OBJ       -8908.0086
    x36_5     AA_36     1
    x36_5     Sawti_H5  84.6122
    x36_5     _EAge_32  2.1521599999999998e+02
    x36_5     Adj_202   1
    x37_0     OBJ       -19038.1928
    x37_0     AA_37     1
    x37_0     _EAge_32  -2.1503903999999998e+03
    x37_3     OBJ       -39155.1301
    x37_3     AA_37     1
    x37_3     Sawti_H3  168.6982
    x37_3     Adj_200   1
    x37_3     Adj_203   1
    x37_4     OBJ       -29897.1995
    x37_4     AA_37     1
    x37_4     Sawti_H4  191.3579
    x37_4     _EAge_32  2.6879879999999997e+02
    x37_4     Adj_201   1
    x37_4     Adj_204   1
    x37_5     OBJ       -22251.7172
    x37_5     AA_37     1
    x37_5     Sawti_H5  211.3565
    x37_5     _EAge_32  537.5976
    x37_5     Adj_202   1
    x37_5     Adj_205   1
    x38_0     OBJ       -7003.1009
    x38_0     AA_38     1
    x38_0     _EAge_32  -962.6128
    x38_5     OBJ       -7999.3761
    x38_5     AA_38     1
    x38_5     Sawti_H5  75.517
    x38_5     Adj_65    1
    x38_5     Adj_196   1
    x39_0     OBJ       -13181.539
    x39_0     AA_39     1
    x39_0     _EAge_32  -1019.17755
    x39_5     OBJ       -15056.7715
    x39_5     AA_39     1
    x39_5     Sawti_H5  142.1413
    x39_5     _EAge_32  792.69365
    x39_5     Adj_64    1
    x39_5     Adj_65    1
    x39_5     Adj_196   1
    x39_5     Adj_199   1
    x40_0     OBJ       -13478.4307
    x40_0     AA_40     1
    x40_0     _EAge_31  -9.7360800000000006e+02
    x40_2     OBJ       -38351.4007
    x40_2     AA_40     1
    x40_2     Sawti_H2  110.0299
    x40_2     Adj_216   1
    x40_3     OBJ       -29234.1297
    x40_3     AA_40     1
    x40_3     Sawti_H3  124.8044
    x40_3     _EAge_31  1.2170100000000001e+02
    x40_3     Adj_116   1
    x40_3     Adj_217   1
    x40_4     OBJ       -21735.0681
    x40_4     AA_40     1
    x40_4     Sawti_H4  137.8629
    x40_4     _EAge_31  243.402
    x40_4     Adj_117   1
    x40_4     Adj_218   1
    x40_5     OBJ       -15871.0292
    x40_5     AA_40     1
    x40_5     Sawti_H5  149.4245
    x40_5     _EAge_31  365.103
    x40_5     Adj_118   1
    x40_5     Adj_219   1
    x41_0     OBJ       -9183.9533
    x41_0     AA_41     1
    x41_0     _EAge_32  -972.8757
    x41_1     OBJ       -38995.8106
    x41_1     AA_41     1
    x41_1     Sawti_H1  76.9544
    x41_2     OBJ       -29023.5796
    x41_2     AA_41     1
    x41_2     Sawti_H2  84.9969
    x41_2     _EAge_32  108.0973
    x41_2     Adj_216   1
    x41_3     OBJ       -21213.0349
    x41_3     AA_41     1
    x41_3     Sawti_H3  92.1313
    x41_3     _EAge_32  216.1946
    x41_3     Adj_217   1
    x41_4     OBJ       -15293.9228
    x41_4     AA_41     1
    x41_4     Sawti_H4  98.4658
    x41_4     _EAge_32  324.2919
    x41_4     Adj_218   1
    x41_5     OBJ       -10912.7476
    x41_5     AA_41     1
    x41_5     Sawti_H5  104.1193
    x41_5     _EAge_32  432.3892
    x41_5     Adj_219   1
    x42_0     OBJ       -4781.2585
    x42_0     AA_42     1
    x42_0     _EAge_53  -983.264
    x42_3     OBJ       -9748.7767
    x42_3     AA_42     1
    x42_3     Sawti_H3  43.5955
    x42_3     Adj_103   1
    x42_3     Adj_206   1
    x42_4     OBJ       -7477.3457
    x42_4     AA_42     1
    x42_4     Sawti_H4  49.4582
    x42_4     _EAge_53  1.2290799999999999e+02
    x42_4     Adj_104   1
    x42_4     Adj_207   1
    x42_5     OBJ       -5581.6759
    x42_5     AA_42     1
    x42_5     Sawti_H5  54.6203
    x42_5     _EAge_53  245.816
    x42_5     Adj_105   1
    x42_5     Adj_208   1
    x43_0     OBJ       -8491.8566
    x43_0     AA_43     1
    x43_0     _EAge_53  -1153.7462
    x43_3     OBJ       -17314.5239
    x43_3     AA_43     1
    x43_3     Sawti_H3  77.4286
    x43_3     Adj_206   1
    x43_3     Adj_210   1
    x43_3     Adj_213   1
    x43_4     OBJ       -13280.3001
    x43_4     AA_43     1
    x43_4     Sawti_H4  87.8412
    x43_4     _EAge_53  2.1829330000000004e+02
    x43_4     Adj_207   1
    x43_4     Adj_211   1
    x43_4     Adj_214   1
    x43_5     OBJ       -9913.4551
    x43_5     AA_43     1
    x43_5     Sawti_H5  97.0095
    x43_5     _EAge_53  4.3658660000000009e+02
    x43_5     Adj_208   1
    x43_5     Adj_212   1
    x43_5     Adj_215   1
    x44_0     OBJ       -4402.8122
    x44_0     AA_44     1
    x44_0     _EAge_53  -905.436
    x44_3     OBJ       -8977.1414
    x44_3     AA_44     1
    x44_3     Sawti_H3  40.1448
    x44_3     Adj_213   1
    x44_4     OBJ       -6885.4987
    x44_4     AA_44     1
    x44_4     Sawti_H4  45.5434
    x44_4     _EAge_53  1.1317949999999996e+02
    x44_4     Adj_214   1
    x44_5     OBJ       -5139.875
    x44_5     AA_44     1
    x44_5     Sawti_H5  50.297
    x44_5     _EAge_53  2.2635899999999992e+02
    x44_5     Adj_215   1
    x45_0     OBJ       -17106.2462
    x45_0     AA_45     1
    x45_0     _EAge_32  -1798.6048
    x45_2     OBJ       -48477.5129
    x45_2     AA_45     1
    x45_2     Sawti_H2  141.1005
    x45_2     Adj_220   1
    x45_3     OBJ       -37015.3763
    x45_3     AA_45     1
    x45_3     Sawti_H3  160.0533
    x45_3     _EAge_32  224.8256
    x45_3     Adj_221   1
    x45_3     Adj_225   1
    x45_4     OBJ       -27549.5933
    x45_4     AA_45     1
    x45_4     Sawti_H4  176.7803
    x45_4     _EAge_32  4.4965119999999996e+02
    x45_4     Adj_222   1
    x45_4     Adj_226   1
    x45_5     OBJ       -20135.7135
    x45_5     AA_45     1
    x45_5     Sawti_H5  191.6188
    x45_5     _EAge_32  6.7447679999999991e+02
    x45_5     Adj_223   1
    x45_5     Adj_227   1
    x46_0     OBJ       -8018.6569
    x46_0     AA_46     1
    x46_0     _EAge_32  -843.1064
    x46_2     OBJ       -22724.129
    x46_2     AA_46     1
    x46_2     Sawti_H2  66.1417
    x46_2     Adj_220   1
    x46_3     OBJ       -17351.1828
    x46_3     AA_46     1
    x46_3     Sawti_H3  75.026
    x46_3     _EAge_32  1.0538829999999999e+02
    x46_3     Adj_210   1
    x46_3     Adj_221   1
    x46_4     OBJ       -12914.0394
    x46_4     AA_46     1
    x46_4     Sawti_H4  82.8669
    x46_4     _EAge_32  210.7766
    x46_4     Adj_211   1
    x46_4     Adj_222   1
    x46_5     OBJ       -9438.7382
    x46_5     AA_46     1
    x46_5     Sawti_H5  89.8225
    x46_5     _EAge_32  3.1616490000000005e+02
    x46_5     Adj_212   1
    x46_5     Adj_223   1
    x47_0     OBJ       -10562.9317
    x47_0     AA_47     1
    x47_0     _EAge_32  -1193.0984
    x47_3     OBJ       -21724.3817
    x47_3     AA_47     1
    x47_3     Sawti_H3  93.5985
    x47_3     Adj_210   1
    x47_3     Adj_213   1
    x47_3     Adj_221   1
    x47_3     Adj_225   1
    x47_4     OBJ       -16587.8181
    x47_4     AA_47     1
    x47_4     Sawti_H4  106.1708
    x47_4     _EAge_32  149.1373
    x47_4     Adj_211   1
    x47_4     Adj_214   1
    x47_4     Adj_222   1
    x47_4     Adj_226   1
    x47_5     OBJ       -12345.8867
    x47_5     AA_47     1
    x47_5     Sawti_H5  117.2666
    x47_5     _EAge_32  2.9827459999999996e+02
    x47_5     Adj_212   1
    x47_5     Adj_215   1
    x47_5     Adj_223   1
    x47_5     Adj_227   1
    x48_0     OBJ       -12821.6886
    x48_0     AA_48     1
    x48_0     _EAge_32  -1448.228
    x48_3     OBJ       -26369.8813
    x48_3     AA_48     1
    x48_3     Sawti_H3  113.6135
    x48_3     Adj_225   1
    x48_4     OBJ       -20134.9249
    x48_4     AA_48     1
    x48_4     Sawti_H4  128.8742
    x48_4     _EAge_32  181.0285
    x48_4     Adj_226   1
    x48_5     OBJ       -14985.9071
    x48_5     AA_48     1
    x48_5     Sawti_H5  142.3427
    x48_5     _EAge_32  3.6205699999999996e+02
    x48_5     Adj_227   1
    x49_0     OBJ       -9749.2043
    x49_0     AA_49     1
    x49_0     _EAge_51  -6.3513096000000007e+02
    x49_2     OBJ       -27766.9424
    x49_2     AA_49     1
    x49_2     Sawti_H2  79.4152
    x49_2     Adj_232   1
    x49_3     OBJ       -21158.1056
    x49_3     AA_49     1
    x49_3     Sawti_H3  90.0775
    x49_3     _EAge_51  7.9391370000000009e+01
    x49_3     Adj_233   1
    x49_4     OBJ       -15725.3266
    x49_4     AA_49     1
    x49_4     Sawti_H4  99.4933
    x49_4     _EAge_51  158.78274
    x49_4     Adj_234   1
    x49_5     OBJ       -11480.5593
    x49_5     AA_49     1
    x49_5     Sawti_H5  107.8373
    x49_5     _EAge_51  238.17411
    x49_5     Adj_235   1
    x50_0     OBJ       -15676.1201
    x50_0     AA_50     1
    x50_0     _EAge_51  -1021.2512
    x50_2     OBJ       -44647.5332
    x50_2     AA_50     1
    x50_2     Sawti_H2  127.6947
    x50_2     Adj_228   1
    x50_2     Adj_232   1
    x50_3     OBJ       -34020.9307
    x50_3     AA_50     1
    x50_3     Sawti_H3  144.839
    x50_3     _EAge_51  1.2765639999999999e+02
    x50_3     Adj_229   1
    x50_3     Adj_233   1
    x50_4     OBJ       -25285.3567
    x50_4     AA_50     1
    x50_4     Sawti_H4  159.979
    x50_4     _EAge_51  255.3128
    x50_4     Adj_230   1
    x50_4     Adj_234   1
    x50_5     OBJ       -18460.0323
    x50_5     AA_50     1
    x50_5     Sawti_H5  173.3957
    x50_5     _EAge_51  382.9692
    x50_5     Adj_231   1
    x50_5     Adj_235   1
    x51_0     OBJ       -29398.0684
    x51_0     AA_51     1
    x51_0     _EAge_51  -1915.1944
    x51_2     OBJ       -83729.3428
    x51_2     AA_51     1
    x51_2     Sawti_H2  239.4712
    x51_2     Adj_146   1
    x51_2     Adj_228   1
    x51_3     OBJ       -63800.841
    x51_3     AA_51     1
    x51_3     Sawti_H3  271.6225
    x51_3     _EAge_51  239.3993
    x51_3     Adj_147   1
    x51_3     Adj_229   1
    x51_4     OBJ       -47418.6623
    x51_4     AA_51     1
    x51_4     Sawti_H4  300.0152
    x51_4     _EAge_51  4.7879859999999996e+02
    x51_4     Adj_148   1
    x51_4     Adj_230   1
    x51_5     OBJ       -34618.8526
    x51_5     AA_51     1
    x51_5     Sawti_H5  325.1761
    x51_5     _EAge_51  718.1979
    x51_5     Adj_149   1
    x51_5     Adj_231   1
    x52_0     OBJ       -12139.6601
    x52_0     AA_52     1
    x52_0     _EAge_32  -1.2764016000000001e+03
    x52_2     OBJ       -34402.6692
    x52_2     AA_52     1
    x52_2     Sawti_H2  100.1337
    x52_2     Adj_142   1
    x52_2     Adj_150   1
    x52_2     Adj_154   1
    x52_2     Adj_248   1
    x52_3     OBJ       -26268.4216
    x52_3     AA_52     1
    x52_3     Sawti_H3  113.5838
    x52_3     _EAge_32  1.5955020000000002e+02
    x52_3     Adj_143   1
    x52_3     Adj_151   1
    x52_3     Adj_155   1
    x52_3     Adj_249   1
    x52_4     OBJ       -19550.9111
    x52_4     AA_52     1
    x52_4     Sawti_H4  125.4544
    x52_4     _EAge_32  319.1004
    x52_4     Adj_140   1
    x52_4     Adj_144   1
    x52_4     Adj_152   1
    x52_4     Adj_156   1
    x52_4     Adj_238   1
    x52_4     Adj_250   1
    x52_5     OBJ       -14289.5592
    x52_5     AA_52     1
    x52_5     Sawti_H5  135.9847
    x52_5     _EAge_32  478.6506
    x52_5     Adj_141   1
    x52_5     Adj_145   1
    x52_5     Adj_153   1
    x52_5     Adj_157   1
    x52_5     Adj_239   1
    x52_5     Adj_251   1
    x53_0     OBJ       -7073.0698
    x53_0     AA_53     1
    x53_0     _EAge_32  -743.6848
    x53_2     OBJ       -20044.423
    x53_2     AA_53     1
    x53_2     Sawti_H2  58.3421
    x53_2     Adj_240   1
    x53_2     Adj_244   1
    x53_2     Adj_248   1
    x53_3     OBJ       -15305.0727
    x53_3     AA_53     1
    x53_3     Sawti_H3  66.1786
    x53_3     _EAge_32  92.9606
    x53_3     Adj_241   1
    x53_3     Adj_245   1
    x53_3     Adj_249   1
    x53_4     OBJ       -11391.1723
    x53_4     AA_53     1
    x53_4     Sawti_H4  73.0949
    x53_4     _EAge_32  185.9212
    x53_4     Adj_238   1
    x53_4     Adj_242   1
    x53_4     Adj_246   1
    x53_4     Adj_250   1
    x53_5     OBJ       -8325.6903
    x53_5     AA_53     1
    x53_5     Sawti_H5  79.2303
    x53_5     _EAge_32  278.8818
    x53_5     Adj_239   1
    x53_5     Adj_243   1
    x53_5     Adj_247   1
    x53_5     Adj_251   1
    x54_0     OBJ       -6306.919
    x54_0     AA_54     1
    x54_0     _EAge_22  -561.86696
    x54_4     OBJ       -9583.0323
    x54_4     AA_54     1
    x54_4     Sawti_H4  60.3445
    x54_4     Adj_128   1
    x54_4     Adj_136   1
    x54_5     OBJ       -7305.7624
    x54_5     AA_54     1
    x54_5     Sawti_H5  68.4424
    x54_5     _EAge_22  7.0233370000000008e+01
    x54_5     Adj_129   1
    x54_5     Adj_137   1
    x55_0     OBJ       -20865.7695
    x55_0     AA_55     1
    x55_0     _EAge_22  -1440.73648
    x55_4     OBJ       -31704.4415
    x55_4     AA_55     1
    x55_4     Sawti_H4  199.6434
    x55_4     Adj_136   1
    x55_4     Adj_140   1
    x55_4     Adj_238   1
    x55_5     OBJ       -24170.3368
    x55_5     AA_55     1
    x55_5     Sawti_H5  226.4344
    x55_5     _EAge_22  232.3596
    x55_5     Adj_137   1
    x55_5     Adj_141   1
    x55_5     Adj_239   1
    x56_0     OBJ       -19701.8523
    x56_0     AA_56     1
    x56_0     _EAge_31  -1423.1536
    x56_2     OBJ       -56059.4663
    x56_2     AA_56     1
    x56_2     Sawti_H2  160.8342
    x56_2     Adj_240   1
    x56_3     OBJ       -42732.4604
    x56_3     AA_56     1
    x56_3     Sawti_H3  182.4305
    x56_3     _EAge_31  1.7789419999999998e+02
    x56_3     Adj_112   1
    x56_3     Adj_241   1
    x56_4     OBJ       -31770.8427
    x56_4     AA_56     1
    x56_4     Sawti_H4  201.5186
    x56_4     _EAge_31  355.7884
    x56_4     Adj_113   1
    x56_4     Adj_242   1
    x56_5     OBJ       -23199.1899
    x56_5     AA_56     1
    x56_5     Sawti_H5  218.4185
    x56_5     _EAge_31  533.6826
    x56_5     Adj_114   1
    x56_5     Adj_243   1
    x57_0     OBJ       -32229.4143
    x57_0     AA_57     1
    x57_0     _EAge_31  -2328.076
    x57_2     OBJ       -91705.2743
    x57_2     AA_57     1
    x57_2     Sawti_H2  263.1017
    x57_2     Adj_158   1
    x57_2     Adj_256   1
    x57_2     Adj_260   1
    x57_3     OBJ       -69904.1974
    x57_3     AA_57     1
    x57_3     Sawti_H3  298.4302
    x57_3     _EAge_31  291.0095
    x57_3     Adj_159   1
    x57_3     Adj_257   1
    x57_3     Adj_261   1
    x57_4     OBJ       -51972.5576
    x57_4     AA_57     1
    x57_4     Sawti_H4  329.6556
    x57_4     _EAge_31  582.019
    x57_4     Adj_160   1
    x57_4     Adj_258   1
    x57_4     Adj_262   1
    x57_5     OBJ       -37950.5589
    x57_5     AA_57     1
    x57_5     Sawti_H5  357.3015
    x57_5     _EAge_31  8.7302849999999989e+02
    x57_5     Adj_161   1
    x57_5     Adj_259   1
    x57_5     Adj_263   1
    x58_0     OBJ       -33326.3013
    x58_0     AA_58     1
    x58_0     _EAge_31  -2407.3088
    x58_2     OBJ       -94826.3461
    x58_2     AA_58     1
    x58_2     Sawti_H2  272.056
    x58_2     Adj_260   1
    x58_3     OBJ       -72283.2975
    x58_3     AA_58     1
    x58_3     Sawti_H3  308.5869
    x58_3     _EAge_31  3.0091360000000003e+02
    x58_3     Adj_261   1
    x58_4     OBJ       -53741.3772
    x58_4     AA_58     1
    x58_4     Sawti_H4  340.875
    x58_4     _EAge_31  601.8272
    x58_4     Adj_262   1
    x58_5     OBJ       -39242.1577
    x58_5     AA_58     1
    x58_5     Sawti_H5  369.4618
    x58_5     _EAge_31  902.7408
    x58_5     Adj_263   1
    x59_0     OBJ       -35167.4022
    x59_0     AA_59     1
    x59_0     _EAge_31  -2540.3
    x59_2     OBJ       -100064.9975
    x59_2     AA_59     1
    x59_2     Sawti_H2  287.0857
    x59_2     Adj_154   1
    x59_2     Adj_158   1
    x59_2     Adj_244   1
    x59_2     Adj_248   1
    x59_2     Adj_252   1
    x59_2     Adj_256   1
    x59_3     OBJ       -76276.5653
    x59_3     AA_59     1
    x59_3     Sawti_H3  325.6347
    x59_3     _EAge_31  3.1753749999999997e+02
    x59_3     Adj_155   1
    x59_3     Adj_159   1
    x59_3     Adj_245   1
    x59_3     Adj_249   1
    x59_3     Adj_253   1
    x59_3     Adj_257   1
    x59_4     OBJ       -56710.3025
    x59_4     AA_59     1
    x59_4     Sawti_H4  359.7065
    x59_4     _EAge_31  635.075
    x59_4     Adj_156   1
    x59_4     Adj_160   1
    x59_4     Adj_246   1
    x59_4     Adj_250   1
    x59_4     Adj_254   1
    x59_4     Adj_258   1
    x59_5     OBJ       -41410.0782
    x59_5     AA_59     1
    x59_5     Sawti_H5  389.8726
    x59_5     _EAge_31  952.6125
    x59_5     Adj_157   1
    x59_5     Adj_161   1
    x59_5     Adj_247   1
    x59_5     Adj_251   1
    x59_5     Adj_255   1
    x59_5     Adj_259   1
    x60_0     OBJ       -29447.7797
    x60_0     AA_60     1
    x60_0     _EAge_31  -2127.1456
    x60_2     OBJ       -83790.437
    x60_2     AA_60     1
    x60_2     Sawti_H2  240.3941
    x60_2     Adj_252   1
    x60_2     Adj_256   1
    x60_2     Adj_260   1
    x60_3     OBJ       -63870.9529
    x60_3     AA_60     1
    x60_3     Sawti_H3  272.6735
    x60_3     _EAge_31  2.6589320000000004e+02
    x60_3     Adj_253   1
    x60_3     Adj_257   1
    x60_3     Adj_261   1
    x60_4     OBJ       -47486.945
    x60_4     AA_60     1
    x60_4     Sawti_H4  301.2039
    x60_4     _EAge_31  531.7864
    x60_4     Adj_254   1
    x60_4     Adj_258   1
    x60_4     Adj_262   1
    x60_5     OBJ       -34675.1475
    x60_5     AA_60     1
    x60_5     Sawti_H5  326.4637
    x60_5     _EAge_31  797.6796
    x60_5     Adj_255   1
    x60_5     Adj_259   1
    x60_5     Adj_263   1
    x61_0     OBJ       -33437.126
    x61_0     AA_61     1
    x61_0     _EAge_31  -2415.3144
    x61_2     OBJ       -95141.6858
    x61_2     AA_61     1
    x61_2     Sawti_H2  272.9607
    x61_2     Adj_240   1
    x61_2     Adj_244   1
    x61_2     Adj_252   1
    x61_3     OBJ       -72523.6715
    x61_3     AA_61     1
    x61_3     Sawti_H3  309.6131
    x61_3     _EAge_31  3.0191429999999997e+02
    x61_3     Adj_112   1
    x61_3     Adj_241   1
    x61_3     Adj_245   1
    x61_3     Adj_253   1
    x61_4     OBJ       -53920.0911
    x61_4     AA_61     1
    x61_4     Sawti_H4  342.0085
    x61_4     _EAge_31  603.8286
    x61_4     Adj_113   1
    x61_4     Adj_242   1
    x61_4     Adj_246   1
    x61_4     Adj_254   1
    x61_5     OBJ       -39372.6552
    x61_5     AA_61     1
    x61_5     Sawti_H5  370.6904
    x61_5     _EAge_31  905.7429
    x61_5     Adj_114   1
    x61_5     Adj_243   1
    x61_5     Adj_247   1
    x61_5     Adj_255   1
    x64_0     OBJ       -14053.7405
    x64_0     AA_64     1
    x64_0     _EAge_32  -1732.3536
    x64_4     OBJ       -21309.5585
    x64_4     AA_64     1
    x64_4     Sawti_H4  135.9031
    x64_4     Adj_106   1
    x64_4     Adj_172   1
    x64_5     OBJ       -16271.0767
    x64_5     AA_64     1
    x64_5     Sawti_H5  154.1578
    x64_5     _EAge_32  2.1654420000000005e+02
    x64_5     Adj_107   1
    x64_5     Adj_173   1
    x65_0     OBJ       -14750.7189
    x65_0     AA_65     1
    x65_0     _EAge_32  -1818.268
    x65_4     OBJ       -22366.3805
    x65_4     AA_65     1
    x65_4     Sawti_H4  142.6431
    x65_4     Adj_270   1
    x65_4     Adj_272   1
    x65_4     Adj_280   1
    x65_5     OBJ       -17078.0212
    x65_5     AA_65     1
    x65_5     Sawti_H5  161.8031
    x65_5     _EAge_32  227.2835
    x65_5     Adj_271   1
    x65_5     Adj_273   1
    x65_5     Adj_281   1
    x66_0     OBJ       -9174.3205
    x66_0     AA_66     1
    x66_0     _EAge_32  -1130.8856
    x66_4     OBJ       -13910.9384
    x66_4     AA_66     1
    x66_4     Sawti_H4  88.7179
    x66_4     Adj_272   1
    x66_5     OBJ       -10621.8036
    x66_5     AA_66     1
    x66_5     Sawti_H5  100.6346
    x66_5     _EAge_32  141.3607
    x66_5     Adj_273   1
    x67_0     OBJ       -19318.3954
    x67_0     AA_67     1
    x67_0     _EAge_31  -1395.4552
    x67_2     OBJ       -54968.3816
    x67_2     AA_67     1
    x67_2     Sawti_H2  157.7038
    x67_2     Adj_190   1
    x67_2     Adj_274   1
    x67_3     OBJ       -41900.7591
    x67_3     AA_67     1
    x67_3     Sawti_H3  178.8799
    x67_3     _EAge_31  1.7443189999999998e+02
    x67_3     Adj_91    1
    x67_3     Adj_100   1
    x67_3     Adj_191   1
    x67_3     Adj_275   1
    x67_4     OBJ       -31152.4872
    x67_4     AA_67     1
    x67_4     Sawti_H4  197.5964
    x67_4     _EAge_31  3.4886379999999997e+02
    x67_4     Adj_88    1
    x67_4     Adj_92    1
    x67_4     Adj_101   1
    x67_4     Adj_192   1
    x67_4     Adj_276   1
    x67_5     OBJ       -22747.6644
    x67_5     AA_67     1
    x67_5     Sawti_H5  214.1674
    x67_5     _EAge_31  523.2957
    x67_5     Adj_89    1
    x67_5     Adj_93    1
    x67_5     Adj_102   1
    x67_5     Adj_193   1
    x67_5     Adj_277   1
    x68_0     OBJ       -25543.3833
    x68_0     AA_68     1
    x68_0     _EAge_31  -1.8451136000000001e+03
    x68_2     OBJ       -72680.9041
    x68_2     AA_68     1
    x68_2     Sawti_H2  208.5209
    x68_2     Adj_190   1
    x68_2     Adj_264   1
    x68_3     OBJ       -55402.4871
    x68_3     AA_68     1
    x68_3     Sawti_H3  236.5205
    x68_3     _EAge_31  2.3063920000000002e+02
    x68_3     Adj_191   1
    x68_3     Adj_265   1
    x68_4     OBJ       -41190.7876
    x68_4     AA_68     1
    x68_4     Sawti_H4  261.2681
    x68_4     _EAge_31  461.2784
    x68_4     Adj_192   1
    x68_4     Adj_266   1
    x68_5     OBJ       -30077.6695
    x68_5     AA_68     1
    x68_5     Sawti_H5  283.1788
    x68_5     _EAge_31  691.9176
    x68_5     Adj_193   1
    x68_5     Adj_267   1
    x69_0     OBJ       -28222.3069
    x69_0     AA_69     1
    x69_0     _EAge_31  -2038.6248
    x69_2     OBJ       -80303.4884
    x69_2     AA_69     1
    x69_2     Sawti_H2  230.3901
    x69_2     Adj_264   1
    x69_2     Adj_268   1
    x69_3     OBJ       -61212.9559
    x69_3     AA_69     1
    x69_3     Sawti_H3  261.3262
    x69_3     _EAge_31  2.5482809999999998e+02
    x69_3     Adj_265   1
    x69_3     Adj_269   1
    x69_4     OBJ       -45510.7703
    x69_4     AA_69     1
    x69_4     Sawti_H4  288.6692
    x69_4     _EAge_31  509.6562
    x69_4     Adj_266   1
    x69_4     Adj_270   1
    x69_4     Adj_272   1
    x69_5     OBJ       -33232.1373
    x69_5     AA_69     1
    x69_5     Sawti_H5  312.8779
    x69_5     _EAge_31  7.6448430000000008e+02
    x69_5     Adj_267   1
    x69_5     Adj_271   1
    x69_5     Adj_273   1
    x70_0     OBJ       -24050.5425
    x70_0     AA_70     1
    x70_0     _EAge_31  -1737.2792
    x70_2     OBJ       -68433.1889
    x70_2     AA_70     1
    x70_2     Sawti_H2  196.3343
    x70_2     Adj_268   1
    x70_2     Adj_274   1
    x70_3     OBJ       -52164.5804
    x70_3     AA_70     1
    x70_3     Sawti_H3  222.6975
    x70_3     _EAge_31  217.1599
    x70_3     Adj_269   1
    x70_3     Adj_275   1
    x70_4     OBJ       -38783.4602
    x70_4     AA_70     1
    x70_4     Sawti_H4  245.9987
    x70_4     _EAge_31  4.3431980000000004e+02
    x70_4     Adj_270   1
    x70_4     Adj_276   1
    x70_4     Adj_280   1
    x70_5     OBJ       -28319.8299
    x70_5     AA_70     1
    x70_5     Sawti_H5  266.6289
    x70_5     _EAge_31  6.5147970000000009e+02
    x70_5     Adj_271   1
    x70_5     Adj_277   1
    x70_5     Adj_281   1
    x71_0     OBJ       -22795.642
    x71_0     AA_71     1
    x71_0     _EAge_31  -1646.632
    x71_2     OBJ       -64862.5067
    x71_2     AA_71     1
    x71_2     Sawti_H2  186.09
    x71_2     Adj_274   1
    x71_3     OBJ       -49442.7558
    x71_3     AA_71     1
    x71_3     Sawti_H3  211.0777
    x71_3     _EAge_31  2.0582899999999998e+02
    x71_3     Adj_100   1
    x71_3     Adj_275   1
    x71_4     OBJ       -36759.8308
    x71_4     AA_71     1
    x71_4     Sawti_H4  233.1631
    x71_4     _EAge_31  411.658
    x71_4     Adj_101   1
    x71_4     Adj_276   1
    x71_4     Adj_280   1
    x71_5     OBJ       -26842.168
    x71_5     AA_71     1
    x71_5     Sawti_H5  252.7169
    x71_5     _EAge_31  6.1748700000000008e+02
    x71_5     Adj_102   1
    x71_5     Adj_277   1
    x71_5     Adj_281   1
    x72_0     OBJ       -23115.2808
    x72_0     AA_72     1
    x72_0     _EAge_31  -1573.8576
    x72_1     OBJ       -91769.0126
    x72_1     AA_72     1
    x72_1     Sawti_H1  177.8656
    x72_1     Adj_167   1
    x72_2     OBJ       -69952.7833
    x72_2     AA_72     1
    x72_2     Sawti_H2  201.7489
    x72_2     _EAge_31  196.7322
    x72_2     Adj_95    1
    x72_2     Adj_163   1
    x72_2     Adj_168   1
    x72_3     OBJ       -52008.6803
    x72_3     AA_72     1
    x72_3     Sawti_H3  222.8583
    x72_3     _EAge_31  393.4644
    x72_3     Adj_96    1
    x72_3     Adj_164   1
    x72_3     Adj_169   1
    x72_4     OBJ       -37976.9358
    x72_4     AA_72     1
    x72_4     Sawti_H4  241.5478
    x72_4     _EAge_31  590.1966
    x72_4     Adj_97    1
    x72_4     Adj_125   1
    x72_4     Adj_165   1
    x72_4     Adj_170   1
    x72_5     OBJ       -27361.4247
    x72_5     AA_72     1
    x72_5     Sawti_H5  258.152
    x72_5     _EAge_31  7.8692879999999991e+02
    x72_5     Adj_98    1
    x72_5     Adj_126   1
    x72_5     Adj_166   1
    x72_5     Adj_171   1
    x73_0     OBJ       -23081.8189
    x73_0     AA_73     1
    x73_0     _EAge_31  -1667.304
    x73_2     OBJ       -65676.7917
    x73_2     AA_73     1
    x73_2     Sawti_H2  188.4262
    x73_2     Adj_95    1
    x73_2     Adj_163   1
    x73_3     OBJ       -50063.4609
    x73_3     AA_73     1
    x73_3     Sawti_H3  213.7275
    x73_3     _EAge_31  208.413
    x73_3     Adj_79    1
    x73_3     Adj_83    1
    x73_3     Adj_96    1
    x73_3     Adj_164   1
    x73_4     OBJ       -37221.3143
    x73_4     AA_73     1
    x73_4     Sawti_H4  236.0902
    x73_4     _EAge_31  416.826
    x73_4     Adj_80    1
    x73_4     Adj_84    1
    x73_4     Adj_97    1
    x73_4     Adj_165   1
    x73_5     OBJ       -27179.145
    x73_5     AA_73     1
    x73_5     Sawti_H5  255.8895
    x73_5     _EAge_31  625.239
    x73_5     Adj_81    1
    x73_5     Adj_85    1
    x73_5     Adj_98    1
    x73_5     Adj_166   1
    x74_0     OBJ       -30646.9509
    x74_0     AA_74     1
    x74_0     _EAge_31  -2.2137672000000002e+03
    x74_2     OBJ       -87202.5477
    x74_2     AA_74     1
    x74_2     Sawti_H2  250.1834
    x74_2     Adj_95    1
    x74_3     OBJ       -66471.9032
    x74_3     AA_74     1
    x74_3     Sawti_H3  283.7773
    x74_3     _EAge_31  2.7672090000000003e+02
    x74_3     Adj_75    1
    x74_3     Adj_79    1
    x74_3     Adj_96    1
    x74_4     OBJ       -49420.7064
    x74_4     AA_74     1
    x74_4     Sawti_H4  313.4695
    x74_4     _EAge_31  553.4418
    x74_4     Adj_76    1
    x74_4     Adj_80    1
    x74_4     Adj_97    1
    x74_5     OBJ       -36087.1874
    x74_5     AA_74     1
    x74_5     Sawti_H5  339.758
    x74_5     _EAge_31  830.1627
    x74_5     Adj_77    1
    x74_5     Adj_81    1
    x74_5     Adj_98    1
    x75_5     OBJ       -2162.4941
    x75_5     Sawti_H5  163.9155
    x75_5     _EAge_32  2089.4272
    x75_5     Adj_64    1
    x75_5     Adj_68    1
    x75_5     Adj_199   1
    x75_5     Adj_205   1
    x76_0     OBJ       -21735.3955
    x76_0     AA_76     1
    x76_0     _EAge_32  -2455.044
    x76_3     OBJ       -44702.3648
    x76_3     AA_76     1
    x76_3     Sawti_H3  192.5982
    x76_3     Adj_69    1
    x76_3     Adj_75    1
    x76_3     Adj_203   1
    x76_4     OBJ       -34132.8331
    x76_4     AA_76     1
    x76_4     Sawti_H4  218.4682
    x76_4     _EAge_32  306.8805
    x76_4     Adj_70    1
    x76_4     Adj_76    1
    x76_4     Adj_204   1
    x76_5     OBJ       -25404.1904
    x76_5     AA_76     1
    x76_5     Sawti_H5  241.3001
    x76_5     _EAge_32  6.1376100000000008e+02
    x76_5     Adj_68    1
    x76_5     Adj_71    1
    x76_5     Adj_77    1
    x76_5     Adj_205   1
    x77_0     OBJ       -17241.2122
    x77_0     AA_77     1
    x77_0     _EAge_32  -1947.4192
    x77_3     OBJ       -35459.3481
    x77_3     AA_77     1
    x77_3     Sawti_H3  152.775
    x77_3     Adj_178   1
    x77_3     Adj_181   1
    x77_4     OBJ       -27075.2569
    x77_4     AA_77     1
    x77_4     Sawti_H4  173.296
    x77_4     _EAge_32  2.4342739999999998e+02
    x77_4     Adj_179   1
    x77_4     Adj_182   1
    x77_4     Adj_185   1
    x77_4     Adj_188   1
    x77_5     OBJ       -20151.4179
    x77_5     AA_77     1
    x77_5     Sawti_H5  191.407
    x77_5     _EAge_32  486.8548
    x77_5     Adj_180   1
    x77_5     Adj_183   1
    x77_5     Adj_186   1
    x77_5     Adj_189   1
    x77_5     Adj_196   1
    x77_5     Adj_199   1
    x78_0     OBJ       -8479.6123
    x78_0     AA_78     1
    x78_0     _EAge_32  -9.5778399999999988e+02
    x78_3     OBJ       -17439.6975
    x78_3     AA_78     1
    x78_3     Sawti_H3  75.1382
    x78_3     Adj_181   1
    x78_4     OBJ       -13316.2147
    x78_4     AA_78     1
    x78_4     Sawti_H4  85.2308
    x78_4     _EAge_32  1.1972300000000001e+02
    x78_4     Adj_56    1
    x78_4     Adj_62    1
    x78_4     Adj_182   1
    x78_4     Adj_185   1
    x78_5     OBJ       -9910.9163
    x78_5     AA_78     1
    x78_5     Sawti_H5  94.1382
    x78_5     _EAge_32  2.3944600000000003e+02
    x78_5     Adj_57    1
    x78_5     Adj_63    1
    x78_5     Adj_183   1
    x78_5     Adj_186   1
    x79_0     OBJ       -19456.5292
    x79_0     AA_79     1
    x79_0     _EAge_31  -1.4054327999999998e+03
    x79_2     OBJ       -55361.4262
    x79_2     AA_79     1
    x79_2     Sawti_H2  158.8315
    x79_2     Adj_51    1
    x79_2     Adj_282   1
    x79_3     OBJ       -42200.3653
    x79_3     AA_79     1
    x79_3     Sawti_H3  180.1589
    x79_3     _EAge_31  1.7567909999999998e+02
    x79_3     Adj_52    1
    x79_3     Adj_283   1
    x79_4     OBJ       -31375.2392
    x79_4     AA_79     1
    x79_4     Sawti_H4  199.0093
    x79_4     _EAge_31  351.3582
    x79_4     Adj_53    1
    x79_4     Adj_284   1
    x79_5     OBJ       -22910.3188
    x79_5     AA_79     1
    x79_5     Sawti_H5  215.6988
    x79_5     _EAge_31  527.0373
    x79_5     Adj_54    1
    x79_5     Adj_285   1
    x80_0     OBJ       -32994.2347
    x80_0     AA_80     1
    x80_0     _EAge_31  -2383.3224
    x80_2     OBJ       -93881.4871
    x80_2     AA_80     1
    x80_2     Sawti_H2  269.3452
    x80_2     Adj_17    1
    x80_2     Adj_29    1
    x80_2     Adj_282   1
    x80_3     OBJ       -71563.0597
    x80_3     AA_80     1
    x80_3     Sawti_H3  305.5121
    x80_3     _EAge_31  297.9153
    x80_3     Adj_18    1
    x80_3     Adj_30    1
    x80_3     Adj_283   1
    x80_4     OBJ       -53205.8929
    x80_4     AA_80     1
    x80_4     Sawti_H4  337.4785
    x80_4     _EAge_31  595.8306
    x80_4     Adj_15    1
    x80_4     Adj_19    1
    x80_4     Adj_31    1
    x80_4     Adj_284   1
    x80_5     OBJ       -38851.145
    x80_5     AA_80     1
    x80_5     Sawti_H5  365.7804
    x80_5     _EAge_31  8.9374589999999989e+02
    x80_5     Adj_16    1
    x80_5     Adj_20    1
    x80_5     Adj_32    1
    x80_5     Adj_285   1
    x81_0     OBJ       -4858.841
    x81_0     AA_81     1
    x81_0     _EAge_32  -510.87376
    x81_2     OBJ       -13769.504
    x81_2     AA_81     1
    x81_2     Sawti_H2  40.078
    x81_2     Adj_34    1
    x81_2     Adj_47    1
    x81_3     OBJ       -10513.8103
    x81_3     AA_81     1
    x81_3     Sawti_H3  45.4614
    x81_3     _EAge_32  6.3859220000000008e+01
    x81_3     Adj_35    1
    x81_3     Adj_48    1
    x81_4     OBJ       -7825.1588
    x81_4     AA_81     1
    x81_4     Sawti_H4  50.2125
    x81_4     _EAge_32  1.2771844000000002e+02
    x81_4     Adj_36    1
    x81_4     Adj_49    1
    x81_5     OBJ       -5719.3278
    x81_5     AA_81     1
    x81_5     Sawti_H5  54.4272
    x81_5     _EAge_32  191.57766
    x81_5     Adj_37    1
    x81_5     Adj_50    1
    x82_0     OBJ       -22246.4557
    x82_0     AA_82     1
    x82_0     _EAge_32  -2.3390624000000003e+03
    x82_2     OBJ       -63044.3891
    x82_2     AA_82     1
    x82_2     Sawti_H2  183.4994
    x82_2     Adj_29    1
    x82_2     Adj_47    1
    x82_2     Adj_51    1
    x82_2     Adj_282   1
    x82_3     OBJ       -48138.0263
    x82_3     AA_82     1
    x82_3     Sawti_H3  208.1473
    x82_3     _EAge_32  2.9238280000000003e+02
    x82_3     Adj_30    1
    x82_3     Adj_48    1
    x82_3     Adj_52    1
    x82_3     Adj_283   1
    x82_4     OBJ       -35827.8958
    x82_4     AA_82     1
    x82_4     Sawti_H4  229.9006
    x82_4     _EAge_32  584.7656
    x82_4     Adj_31    1
    x82_4     Adj_49    1
    x82_4     Adj_53    1
    x82_4     Adj_284   1
    x82_5     OBJ       -26186.2394
    x82_5     AA_82     1
    x82_5     Sawti_H5  249.1978
    x82_5     _EAge_32  877.1484
    x82_5     Adj_32    1
    x82_5     Adj_50    1
    x82_5     Adj_54    1
    x82_5     Adj_285   1
    x83_0     OBJ       -16034.6079
    x83_0     AA_83     1
    x83_0     _EAge_32  -1976.528
    x83_4     OBJ       -24313.1297
    x83_4     AA_83     1
    x83_4     Sawti_H4  155.0586
    x83_4     Adj_23    1
    x83_4     Adj_288   1
    x83_4     Adj_300   1
    x83_5     OBJ       -18564.4765
    x83_5     AA_83     1
    x83_5     Sawti_H5  175.8863
    x83_5     _EAge_32  2.4706600000000003e+02
    x83_5     Adj_24    1
    x83_5     Adj_289   1
    x83_5     Adj_301   1
    x84_0     OBJ       -13654.9962
    x84_0     AA_84     1
    x84_0     _EAge_32  -1.6832015999999999e+03
    x84_4     OBJ       -20704.9462
    x84_4     AA_84     1
    x84_4     Sawti_H4  132.0472
    x84_4     Adj_7     1
    x84_4     Adj_300   1
    x84_5     OBJ       -15809.4203
    x84_5     AA_84     1
    x84_5     Sawti_H5  149.7839
    x84_5     _EAge_32  2.1040020000000004e+02
    x84_5     Adj_8     1
    x84_5     Adj_301   1
    x85_0     OBJ       -12444.2492
    x85_0     AA_85     1
    x85_0     _EAge_32  -1308.4272
    x85_2     OBJ       -35265.8464
    x85_2     AA_85     1
    x85_2     Sawti_H2  102.6461
    x85_2     Adj_25    1
    x85_2     Adj_290   1
    x85_2     Adj_294   1
    x85_3     OBJ       -26927.5072
    x85_3     AA_85     1
    x85_3     Sawti_H3  116.4337
    x85_3     _EAge_32  1.6355339999999998e+02
    x85_3     Adj_26    1
    x85_3     Adj_291   1
    x85_3     Adj_295   1
    x85_4     OBJ       -20041.4515
    x85_4     AA_85     1
    x85_4     Sawti_H4  128.6021
    x85_4     _EAge_32  327.1068
    x85_4     Adj_23    1
    x85_4     Adj_27    1
    x85_4     Adj_288   1
    x85_4     Adj_292   1
    x85_4     Adj_296   1
    x85_5     OBJ       -14648.0901
    x85_5     AA_85     1
    x85_5     Sawti_H5  139.3966
    x85_5     _EAge_32  4.9066020000000003e+02
    x85_5     Adj_24    1
    x85_5     Adj_28    1
    x85_5     Adj_289   1
    x85_5     Adj_293   1
    x85_5     Adj_297   1
    x86_0     OBJ       -9913.7822
    x86_0     AA_86     1
    x86_0     _EAge_32  -1.0423663999999999e+03
    x86_2     OBJ       -28094.7378
    x86_2     AA_86     1
    x86_2     Sawti_H2  81.7736
    x86_2     Adj_1     1
    x86_2     Adj_302   1
    x86_2     Adj_310   1
    x86_3     OBJ       -21451.9523
    x86_3     AA_86     1
    x86_3     Sawti_H3  92.7576
    x86_3     _EAge_32  1.3029579999999999e+02
    x86_3     Adj_2     1
    x86_3     Adj_303   1
    x86_3     Adj_311   1
    x86_4     OBJ       -15966.1367
    x86_4     AA_86     1
    x86_4     Sawti_H4  102.4516
    x86_4     _EAge_32  260.5916
    x86_4     Adj_3     1
    x86_4     Adj_304   1
    x86_4     Adj_312   1
    x86_5     OBJ       -11669.4846
    x86_5     AA_86     1
    x86_5     Sawti_H5  111.0511
    x86_5     _EAge_32  390.8874
    x86_5     Adj_4     1
    x86_5     Adj_305   1
    x86_5     Adj_313   1
    x87_0     OBJ       -19631.7282
    x87_0     AA_87     1
    x87_0     _EAge_32  -2064.1416
    x87_2     OBJ       -55634.4944
    x87_2     AA_87     1
    x87_2     Sawti_H2  161.9319
    x87_2     Adj_9     1
    x87_2     Adj_302   1
    x87_2     Adj_306   1
    x87_3     OBJ       -42480.1444
    x87_3     AA_87     1
    x87_3     Sawti_H3  183.6828
    x87_3     _EAge_32  258.0177
    x87_3     Adj_10    1
    x87_3     Adj_303   1
    x87_3     Adj_307   1
    x87_4     OBJ       -31616.8797
    x87_4     AA_87     1
    x87_4     Sawti_H4  202.8793
    x87_4     _EAge_32  516.0354
    x87_4     Adj_11    1
    x87_4     Adj_304   1
    x87_4     Adj_308   1
    x87_5     OBJ       -23108.4512
    x87_5     AA_87     1
    x87_5     Sawti_H5  219.9085
    x87_5     _EAge_32  7.7405310000000009e+02
    x87_5     Adj_12    1
    x87_5     Adj_305   1
    x87_5     Adj_309   1
    x88_0     OBJ       -12706.4461
    x88_0     AA_88     1
    x88_0     _EAge_32  -1.3359959999999999e+03
    x88_2     OBJ       -36008.8881
    x88_2     AA_88     1
    x88_2     Sawti_H2  104.8089
    x88_2     Adj_25    1
    x88_2     Adj_294   1
    x88_2     Adj_306   1
    x88_3     OBJ       -27494.8624
    x88_3     AA_88     1
    x88_3     Sawti_H3  118.8869
    x88_3     _EAge_32  1.6699949999999998e+02
    x88_3     Adj_26    1
    x88_3     Adj_295   1
    x88_3     Adj_307   1
    x88_4     OBJ       -20463.7194
    x88_4     AA_88     1
    x88_4     Sawti_H4  131.3117
    x88_4     _EAge_32  3.3399899999999997e+02
    x88_4     Adj_27    1
    x88_4     Adj_296   1
    x88_4     Adj_308   1
    x88_5     OBJ       -14956.7214
    x88_5     AA_88     1
    x88_5     Sawti_H5  142.3336
    x88_5     _EAge_32  500.9985
    x88_5     Adj_28    1
    x88_5     Adj_297   1
    x88_5     Adj_309   1
    x89_0     OBJ       -14531.2334
    x89_0     AA_89     1
    x89_0     _EAge_32  -1.5278591999999999e+03
    x89_2     OBJ       -41180.1657
    x89_2     AA_89     1
    x89_2     Sawti_H2  119.8606
    x89_2     Adj_1     1
    x89_2     Adj_290   1
    x89_2     Adj_310   1
    x89_3     OBJ       -31443.431
    x89_3     AA_89     1
    x89_3     Sawti_H3  135.9604
    x89_3     _EAge_32  1.9098239999999998e+02
    x89_3     Adj_2     1
    x89_3     Adj_291   1
    x89_3     Adj_311   1
    x89_4     OBJ       -23402.5375
    x89_4     AA_89     1
    x89_4     Sawti_H4  150.1695
    x89_4     _EAge_32  381.9648
    x89_4     Adj_3     1
    x89_4     Adj_7     1
    x89_4     Adj_288   1
    x89_4     Adj_292   1
    x89_4     Adj_300   1
    x89_4     Adj_312   1
    x89_5     OBJ       -17104.6732
    x89_5     AA_89     1
    x89_5     Sawti_H5  162.7743
    x89_5     _EAge_32  572.9472
    x89_5     Adj_4     1
    x89_5     Adj_8     1
    x89_5     Adj_289   1
    x89_5     Adj_293   1
    x89_5     Adj_301   1
    x89_5     Adj_313   1
    x90_0     OBJ       -19684.3473
    x90_0     AA_90     1
    x90_0     _EAge_32  -2069.6744
    x90_2     OBJ       -55783.6119
    x90_2     AA_90     1
    x90_2     Sawti_H2  162.3659
    x90_2     Adj_290   1
    x90_2     Adj_294   1
    x90_2     Adj_302   1
    x90_2     Adj_306   1
    x90_2     Adj_310   1
    x90_3     OBJ       -42594.0042
    x90_3     AA_90     1
    x90_3     Sawti_H3  184.1751
    x90_3     _EAge_32  258.7093
    x90_3     Adj_291   1
    x90_3     Adj_295   1
    x90_3     Adj_303   1
    x90_3     Adj_307   1
    x90_3     Adj_311   1
    x90_4     OBJ       -31701.6226
    x90_4     AA_90     1
    x90_4     Sawti_H4  203.4231
    x90_4     _EAge_32  517.4186
    x90_4     Adj_292   1
    x90_4     Adj_296   1
    x90_4     Adj_304   1
    x90_4     Adj_308   1
    x90_4     Adj_312   1
    x90_5     OBJ       -23170.3889
    x90_5     AA_90     1
    x90_5     Sawti_H5  220.4979
    x90_5     _EAge_32  776.1279
    x90_5     Adj_293   1
    x90_5     Adj_297   1
    x90_5     Adj_305   1
    x90_5     Adj_309   1
    x90_5     Adj_313   1
    x91_4     OBJ       -33236.1604
    x91_4     AA_21     1
    x91_4     AA_22     1
    x91_4     Sawti_H4  212.509
    x91_4     _EAge_32  2.1266819999999998e+02
    x91_4     Adj_128   1
    x91_4     Adj_132   1
    x91_5     OBJ       -24921.5952
    x91_5     AA_21     1
    x91_5     AA_22     1
    x91_5     Sawti_H5  236.54
    x91_5     _EAge_32  522.70817
    x91_5     Adj_129   1
    x91_5     Adj_133   1
    x92_3     OBJ       -39075.5645
    x92_3     AA_46     1
    x92_3     AA_47     1
    x92_3     Sawti_H3  168.6245
    x92_3     _EAge_32  1.0538830000000004e+02
    x92_3     Adj_210   1
    x92_3     Adj_213   1
    x92_3     Adj_221   1
    x92_3     Adj_225   1
    x92_4     OBJ       -29501.8575
    x92_4     AA_46     1
    x92_4     AA_47     1
    x92_4     Sawti_H4  189.0377
    x92_4     _EAge_32  3.5991389999999990e+02
    x92_4     Adj_211   1
    x92_4     Adj_214   1
    x92_4     Adj_222   1
    x92_4     Adj_226   1
    x92_5     OBJ       -21784.6249
    x92_5     AA_46     1
    x92_5     AA_47     1
    x92_5     Sawti_H5  207.0891
    x92_5     _EAge_32  614.4395
    x92_5     Adj_212   1
    x92_5     Adj_215   1
    x92_5     Adj_223   1
    x92_5     Adj_227   1
    x94_3     OBJ       -57216.9439
    x94_3     AA_21     1
    x94_3     AA_25     1
    x94_3     Sawti_H3  245.1757
    x94_3     _EAge_51  9.8453380000000010e+01
    x94_3     Adj_131   1
    x94_3     Adj_147   1
    x94_4     OBJ       -43155.0594
    x94_4     AA_21     1
    x94_4     AA_25     1
    x94_4     Sawti_H4  274.7803
    x94_4     _EAge_32  2.1266819999999996e+02
    x94_4     _EAge_51  1.9690676000000002e+02
    x94_4     Adj_128   1
    x94_4     Adj_132   1
    x94_4     Adj_148   1
    x94_5     OBJ       -31842.1664
    x94_5     AA_21     1
    x94_5     AA_25     1
    x94_5     Sawti_H5  300.9502
    x94_5     _EAge_32  425.3364
    x94_5     _EAge_51  295.36014
    x94_5     Adj_129   1
    x94_5     Adj_133   1
    x94_5     Adj_149   1
    x95_2     OBJ       -67195.0774
    x95_2     AA_4      1
    x95_2     AA_6      1
    x95_2     Sawti_H2  195.7736
    x95_2     _EAge_32  7.5603500000000011e+01
    x95_2     Adj_17    1
    x95_2     Adj_29    1
    x95_3     OBJ       -50952.0166
    x95_3     AA_4      1
    x95_3     AA_6      1
    x95_3     Sawti_H3  220.4656
    x95_3     _EAge_32  3.7738849999999996e+02
    x95_3     Adj_18    1
    x95_3     Adj_30    1
    x95_4     OBJ       -37738.728
    x95_4     AA_4      1
    x95_4     AA_6      1
    x95_4     Sawti_H4  242.2834
    x95_4     _EAge_32  679.1735
    x95_4     Adj_15    1
    x95_4     Adj_19    1
    x95_4     Adj_31    1
    x95_5     OBJ       -27483.4038
    x95_5     AA_4      1
    x95_5     AA_6      1
    x95_5     Sawti_H5  261.6417
    x95_5     _EAge_32  9.8095850000000007e+02
    x95_5     Adj_16    1
    x95_5     Adj_20    1
    x95_5     Adj_32    1
    x96_1     OBJ       -158053.1529
    x96_1     AA_28     1
    x96_1     AA_72     1
    x96_1     Sawti_H1  306.3367
    x96_1     Adj_167   1
    x96_2     OBJ       -120479.208
    x96_2     AA_28     1
    x96_2     AA_72     1
    x96_2     Sawti_H2  347.4708
    x96_2     _EAge_31  338.8306
    x96_2     Adj_95    1
    x96_2     Adj_163   1
    x96_2     Adj_168   1
    x96_3     OBJ       -89574.2001
    x96_3     AA_28     1
    x96_3     AA_72     1
    x96_3     Sawti_H3  383.8273
    x96_3     _EAge_31  677.6612
    x96_3     Adj_96    1
    x96_3     Adj_164   1
    x96_3     Adj_169   1
    x96_4     OBJ       -65407.421
    x96_4     AA_28     1
    x96_4     AA_72     1
    x96_4     Sawti_H4  416.0162
    x96_4     _EAge_31  1016.4918
    x96_4     Adj_97    1
    x96_4     Adj_125   1
    x96_4     Adj_165   1
    x96_4     Adj_170   1
    x96_5     OBJ       -47124.3977
    x96_5     AA_28     1
    x96_5     AA_72     1
    x96_5     Sawti_H5  444.6135
    x96_5     _EAge_31  1.3553223999999998e+03
    x96_5     Adj_98    1
    x96_5     Adj_126   1
    x96_5     Adj_166   1
    x96_5     Adj_171   1
    x97_5     OBJ       -23056.1476
    x97_5     AA_38     1
    x97_5     AA_39     1
    x97_5     Sawti_H5  217.6583
    x97_5     _EAge_32  7.9269364999999993e+02
    x97_5     Adj_64    1
    x97_5     Adj_65    1
    x97_5     Adj_196   1
    x97_5     Adj_199   1
    x100_4    OBJ       -38884.5315
    x100_4    Adj_179   1
    x100_4    AA_7      1
    x100_4    AA_9      1
    x100_4    AA_78     1
    x100_4    Sawti_H4  248.9921
    x100_4    _EAge_32  4.2714709999999997e+02
    x100_4    Adj_36    1
    x100_4    Adj_41    1
    x100_4    Adj_45    1
    x100_4    Adj_56    1
    x100_4    Adj_59    1
    x100_4    Adj_62    1
    x100_4    Adj_182   1
    x100_4    Adj_185   1
    x100_5    OBJ       -28855.2065
    x100_5    Adj_180   1
    x100_5    AA_7      1
    x100_5    AA_9      1
    x100_5    AA_78     1
    x100_5    Sawti_H5  274.1696
    x100_5    _EAge_32  7.7111360000000013e+02
    x100_5    Adj_37    1
    x100_5    Adj_42    1
    x100_5    Adj_46    1
    x100_5    Adj_57    1
    x100_5    Adj_60    1
    x100_5    Adj_63    1
    x100_5    Adj_183   1
    x100_5    Adj_186   1
    x102_3    OBJ       -59399.0416
    x102_3    AA_7      1
    x102_3    AA_34     1
    x102_3    AA_81     1
    x102_3    Sawti_H3  256.5739
    x102_3    _EAge_32  2.6880861999999996e+02
    x102_3    Adj_35    1
    x102_3    Adj_40    1
    x102_3    Adj_48    1
    x102_3    Adj_178   1
    x102_4    OBJ       -44544.6378
    x102_4    AA_7      1
    x102_4    AA_34     1
    x102_4    AA_81     1
    x102_4    Sawti_H4  285.6223
    x102_4    _EAge_32  643.13604
    x102_4    Adj_36    1
    x102_4    Adj_41    1
    x102_4    Adj_45    1
    x102_4    Adj_49    1
    x102_4    Adj_59    1
    x102_4    Adj_179   1
    x102_5    OBJ       -32732.0698
    x102_5    AA_7      1
    x102_5    AA_34     1
    x102_5    AA_81     1
    x102_5    Sawti_H5  311.3167
    x102_5    _EAge_32  1017.46346
    x102_5    Adj_37    1
    x102_5    Adj_42    1
    x102_5    Adj_46    1
    x102_5    Adj_50    1
    x102_5    Adj_60    1
    x102_5    Adj_180   1
    x103_2    OBJ       -76813.8931
    x103_2    AA_81     1
    x103_2    AA_82     1
    x103_2    Sawti_H2  223.5774
    x103_2    Adj_29    1
    x103_2    Adj_34    1
    x103_2    Adj_47    1
    x103_2    Adj_51    1
    x103_2    Adj_282   1
    x103_3    OBJ       -58651.8366
    x103_3    AA_81     1
    x103_3    AA_82     1
    x103_3    Sawti_H3  253.6087
    x103_3    _EAge_32  3.5624201999999997e+02
    x103_3    Adj_30    1
    x103_3    Adj_35    1
    x103_3    Adj_48    1
    x103_3    Adj_52    1
    x103_3    Adj_283   1
    x103_4    OBJ       -43653.0546
    x103_4    AA_81     1
    x103_4    AA_82     1
    x103_4    Sawti_H4  280.1131
    x103_4    _EAge_32  712.48404
    x103_4    Adj_31    1
    x103_4    Adj_36    1
    x103_4    Adj_49    1
    x103_4    Adj_53    1
    x103_4    Adj_284   1
    x103_5    OBJ       -31905.5672
    x103_5    AA_81     1
    x103_5    AA_82     1
    x103_5    Sawti_H5  303.625
    x103_5    _EAge_32  1.0687260600000002e+03
    x103_5    Adj_32    1
    x103_5    Adj_37    1
    x103_5    Adj_50    1
    x103_5    Adj_54    1
    x103_5    Adj_285   1
    x104_3    OBJ       -48094.263
    x104_3    AA_47     1
    x104_3    AA_48     1
    x104_3    Sawti_H3  207.212
    x104_3    Adj_210   1
    x104_3    Adj_213   1
    x104_3    Adj_221   1
    x104_3    Adj_225   1
    x104_4    OBJ       -36722.743
    x104_4    AA_47     1
    x104_4    AA_48     1
    x104_4    Sawti_H4  235.045
    x104_4    _EAge_32  3.3016579999999993e+02
    x104_4    Adj_211   1
    x104_4    Adj_214   1
    x104_4    Adj_222   1
    x104_4    Adj_226   1
    x104_5    OBJ       -27331.7938
    x104_5    AA_47     1
    x104_5    AA_48     1
    x104_5    Sawti_H5  259.6093
    x104_5    _EAge_32  660.3316
    x104_5    Adj_212   1
    x104_5    Adj_215   1
    x104_5    Adj_223   1
    x104_5    Adj_227   1
    x106_5    OBJ       -28150.794
    x106_5    Adj_64    1
    x106_5    AA_38     1
    x106_5    AA_77     1
    x106_5    Sawti_H5  266.924
    x106_5    _EAge_32  4.8685479999999990e+02
    x106_5    Adj_65    1
    x106_5    Adj_180   1
    x106_5    Adj_183   1
    x106_5    Adj_186   1
    x106_5    Adj_189   1
    x106_5    Adj_196   1
    x106_5    Adj_199   1
    x108_5    OBJ       -38821.7081
    x108_5    Adj_199   1
    x108_5    AA_10     1
    x108_5    AA_38     1
    x108_5    Sawti_H5  365.7068
    x108_5    _EAge_31  709.0482
    x108_5    Adj_64    1
    x108_5    Adj_65    1
    x108_5    Adj_68    1
    x108_5    Adj_71    1
    x108_5    Adj_74    1
    x108_5    Adj_196   1
    x109_2    OBJ       -64137.8063
    x109_2    AA_27     1
    x109_2    AA_52     1
    x109_2    Sawti_H2  186.6819
    x109_2    Adj_142   1
    x109_2    Adj_150   1
    x109_2    Adj_154   1
    x109_2    Adj_158   1
    x109_2    Adj_248   1
    x109_3    OBJ       -48972.9134
    x109_3    AA_27     1
    x109_3    AA_52     1
    x109_3    Sawti_H3  211.7573
    x109_3    _EAge_32  2.9745369999999997e+02
    x109_3    Adj_143   1
    x109_3    Adj_151   1
    x109_3    Adj_155   1
    x109_3    Adj_159   1
    x109_3    Adj_249   1
    x109_4    OBJ       -36449.2808
    x109_4    AA_27     1
    x109_4    AA_52     1
    x109_4    Sawti_H4  233.8879
    x109_4    _EAge_32  5.9490739999999994e+02
    x109_4    Adj_140   1
    x109_4    Adj_144   1
    x109_4    Adj_152   1
    x109_4    Adj_156   1
    x109_4    Adj_160   1
    x109_4    Adj_238   1
    x109_4    Adj_250   1
    x109_5    OBJ       -26640.4033
    x109_5    AA_27     1
    x109_5    AA_52     1
    x109_5    Sawti_H5  253.5198
    x109_5    _EAge_32  8.9236110000000019e+02
    x109_5    Adj_141   1
    x109_5    Adj_145   1
    x109_5    Adj_153   1
    x109_5    Adj_157   1
    x109_5    Adj_161   1
    x109_5    Adj_239   1
    x109_5    Adj_251   1
    x110_4    OBJ       -36277.3189
    x110_4    AA_65     1
    x110_4    AA_66     1
    x110_4    Sawti_H4  231.361
    x110_4    Adj_270   1
    x110_4    Adj_272   1
    x110_4    Adj_280   1
    x110_5    OBJ       -27699.8248
    x110_5    AA_65     1
    x110_5    AA_66     1
    x110_5    Sawti_H5  262.4377
    x110_5    _EAge_32  3.6864419999999996e+02
    x110_5    Adj_271   1
    x110_5    Adj_273   1
    x110_5    Adj_281   1
    x113_2    OBJ       -121458.3164
    x113_2    AA_8      1
    x113_2    AA_81     1
    x113_2    Sawti_H2  350.6604
    x113_2    _EAge_31  302.8594
    x113_2    Adj_34    1
    x113_2    Adj_47    1
    x113_2    Adj_51    1
    x113_3    OBJ       -90578.5734
    x113_3    AA_8      1
    x113_3    AA_81     1
    x113_3    Sawti_H3  388.5406
    x113_3    _EAge_31  605.7188
    x113_3    _EAge_32  6.3859220000000008e+01
    x113_3    Adj_35    1
    x113_3    Adj_40    1
    x113_3    Adj_48    1
    x113_3    Adj_52    1
    x113_4    OBJ       -66288.7528
    x113_4    AA_8      1
    x113_4    AA_81     1
    x113_4    Sawti_H4  422.0633
    x113_4    _EAge_31  908.5782
    x113_4    _EAge_32  1.2771844000000002e+02
    x113_4    Adj_36    1
    x113_4    Adj_41    1
    x113_4    Adj_49    1
    x113_4    Adj_53    1
    x113_5    OBJ       -47840.8732
    x113_5    AA_8      1
    x113_5    AA_81     1
    x113_5    Sawti_H5  451.8393
    x113_5    _EAge_31  1211.4376
    x113_5    _EAge_32  191.57766
    x113_5    Adj_37    1
    x113_5    Adj_42    1
    x113_5    Adj_50    1
    x113_5    Adj_54    1
    x114_4    OBJ       -55560.2671
    x114_4    AA_18     1
    x114_4    AA_72     1
    x114_4    Sawti_H4  352.2703
    x114_4    _EAge_31  590.1966
    x114_4    Adj_97    1
    x114_4    Adj_120   1
    x114_4    Adj_125   1
    x114_4    Adj_165   1
    x114_4    Adj_170   1
    x114_5    OBJ       -40766.3301
    x114_5    AA_18     1
    x114_5    AA_72     1
    x114_5    Sawti_H5  383.7329
    x114_5    _EAge_22  1.2886699999999996e+02
    x114_5    _EAge_31  7.8692879999999991e+02
    x114_5    Adj_98    1
    x114_5    Adj_121   1
    x114_5    Adj_126   1
    x114_5    Adj_166   1
    x114_5    Adj_171   1
    x116_2    OBJ       -67374.9803
    x116_2    Adj_219   1
    x116_2    Adj_218   1
    x116_2    Adj_217   1
    x116_2    AA_40     1
    x116_2    AA_41     1
    x116_2    Sawti_H2  195.0268
    x116_2    _EAge_32  108.0973
    x116_2    Adj_216   1
    x116_3    OBJ       -50447.1646
    x116_3    Adj_219   1
    x116_3    Adj_218   1
    x116_3    Adj_216   1
    x116_3    AA_40     1
    x116_3    AA_41     1
    x116_3    Sawti_H3  216.9357
    x116_3    _EAge_31  1.2170100000000001e+02
    x116_3    _EAge_32  216.1946
    x116_3    Adj_116   1
    x116_3    Adj_217   1
    x116_4    OBJ       -37028.9909
    x116_4    Adj_219   1
    x116_4    Adj_217   1
    x116_4    Adj_216   1
    x116_4    AA_40     1
    x116_4    AA_41     1
    x116_4    Sawti_H4  236.3287
    x116_4    _EAge_31  243.402
    x116_4    _EAge_32  324.2919
    x116_4    Adj_117   1
    x116_4    Adj_218   1
    x116_5    OBJ       -26783.7768
    x116_5    Adj_218   1
    x116_5    Adj_217   1
    x116_5    Adj_216   1
    x116_5    AA_40     1
    x116_5    AA_41     1
    x116_5    Sawti_H5  253.5438
    x116_5    _EAge_31  365.103
    x116_5    _EAge_32  432.3892
    x116_5    Adj_118   1
    x116_5    Adj_219   1
    x117_2    OBJ       -83377.9971
    x117_2    AA_26     1
    x117_2    AA_52     1
    x117_2    Sawti_H2  242.6832
    x117_2    Adj_142   1
    x117_2    Adj_150   1
    x117_2    Adj_154   1
    x117_2    Adj_248   1
    x117_3    OBJ       -63663.9084
    x117_3    AA_26     1
    x117_3    AA_52     1
    x117_3    Sawti_H3  275.2807
    x117_3    _EAge_32  386.6845
    x117_3    Adj_143   1
    x117_3    Adj_151   1
    x117_3    Adj_155   1
    x117_3    Adj_249   1
    x117_4    OBJ       -47383.4108
    x117_4    AA_26     1
    x117_4    AA_52     1
    x117_4    Sawti_H4  304.0501
    x117_4    _EAge_32  773.369
    x117_4    Adj_140   1
    x117_4    Adj_144   1
    x117_4    Adj_152   1
    x117_4    Adj_156   1
    x117_4    Adj_238   1
    x117_4    Adj_250   1
    x117_5    OBJ       -34632.0461
    x117_5    AA_26     1
    x117_5    AA_52     1
    x117_5    Sawti_H5  329.5712
    x117_5    _EAge_32  1.1600534999999998e+03
    x117_5    Adj_141   1
    x117_5    Adj_145   1
    x117_5    Adj_153   1
    x117_5    Adj_157   1
    x117_5    Adj_239   1
    x117_5    Adj_251   1
    x118_4    OBJ       -45013.8165
    x118_4    AA_18     1
    x118_4    AA_28     1
    x118_4    Sawti_H4  285.1909
    x118_4    _EAge_31  4.2629519999999997e+02
    x118_4    Adj_120   1
    x118_4    Adj_125   1
    x118_4    Adj_170   1
    x118_5    OBJ       -33167.8784
    x118_5    AA_18     1
    x118_5    AA_28     1
    x118_5    Sawti_H5  312.0424
    x118_5    _EAge_22  1.2886699999999996e+02
    x118_5    _EAge_31  568.3936
    x118_5    Adj_121   1
    x118_5    Adj_126   1
    x118_5    Adj_171   1
    x119_4    OBJ       -49374.6425
    x119_4    AA_3      1
    x119_4    AA_4      1
    x119_4    Sawti_H4  311.0439
    x119_4    _EAge_32  226.8105
    x119_4    Adj_15    1
    x119_4    Adj_19    1
    x119_5    OBJ       -37211.785
    x119_5    AA_3      1
    x119_5    AA_4      1
    x119_5    Sawti_H5  348.5836
    x119_5    _EAge_32  302.414
    x119_5    _EAge_51  246.5331
    x119_5    Adj_16    1
    x119_5    Adj_20    1
    x121_4    OBJ       -1.9100652499999997e+04
    x121_4    Adj_121   1
    x121_4    AA_18     1
    x121_4    AA_20     1
    x121_4    Sawti_H4  138.656
    x121_4    Adj_120   1
    x121_4    Adj_125   1
    x121_5    OBJ       -13855.9314
    x121_5    Adj_120   1
    x121_5    AA_18     1
    x121_5    AA_20     1
    x121_5    Sawti_H5  156.437
    x121_5    _EAge_22  1.2886699999999996e+02
    x121_5    Adj_121   1
    x121_5    Adj_126   1
    x122_2    OBJ       -83878.3497
    x122_2    AA_86     1
    x122_2    AA_90     1
    x122_2    Sawti_H2  244.1395
    x122_2    Adj_1     1
    x122_2    Adj_290   1
    x122_2    Adj_294   1
    x122_2    Adj_302   1
    x122_2    Adj_306   1
    x122_2    Adj_310   1
    x122_3    OBJ       -64045.9565
    x122_3    AA_86     1
    x122_3    AA_90     1
    x122_3    Sawti_H3  276.9327
    x122_3    _EAge_32  3.8900509999999997e+02
    x122_3    Adj_2     1
    x122_3    Adj_291   1
    x122_3    Adj_295   1
    x122_3    Adj_303   1
    x122_3    Adj_307   1
    x122_3    Adj_311   1
    x122_4    OBJ       -47667.7593
    x122_4    AA_86     1
    x122_4    AA_90     1
    x122_4    Sawti_H4  305.8747
    x122_4    _EAge_32  7.7801019999999994e+02
    x122_4    Adj_3     1
    x122_4    Adj_292   1
    x122_4    Adj_296   1
    x122_4    Adj_304   1
    x122_4    Adj_308   1
    x122_4    Adj_312   1
    x122_5    OBJ       -34839.8735
    x122_5    AA_86     1
    x122_5    AA_90     1
    x122_5    Sawti_H5  331.549
    x122_5    _EAge_32  1167.0153
    x122_5    Adj_4     1
    x122_5    Adj_293   1
    x122_5    Adj_297   1
    x122_5    Adj_305   1
    x122_5    Adj_309   1
    x122_5    Adj_313   1
    x123_2    OBJ       -69274.9035
    x123_2    AA_86     1
    x123_2    AA_89     1
    x123_2    Sawti_H2  201.6342
    x123_2    Adj_1     1
    x123_2    Adj_290   1
    x123_2    Adj_302   1
    x123_2    Adj_310   1
    x123_3    OBJ       -52895.3833
    x123_3    AA_86     1
    x123_3    AA_89     1
    x123_3    Sawti_H3  228.718
    x123_3    _EAge_32  321.2782
    x123_3    Adj_2     1
    x123_3    Adj_291   1
    x123_3    Adj_303   1
    x123_3    Adj_311   1
    x123_4    OBJ       -39368.6742
    x123_4    AA_86     1
    x123_4    AA_89     1
    x123_4    Sawti_H4  252.6211
    x123_4    _EAge_32  6.4255639999999994e+02
    x123_4    Adj_3     1
    x123_4    Adj_7     1
    x123_4    Adj_288   1
    x123_4    Adj_292   1
    x123_4    Adj_300   1
    x123_4    Adj_304   1
    x123_4    Adj_312   1
    x123_5    OBJ       -28774.1578
    x123_5    AA_86     1
    x123_5    AA_89     1
    x123_5    Sawti_H5  273.8254
    x123_5    _EAge_32  963.8346
    x123_5    Adj_4     1
    x123_5    Adj_8     1
    x123_5    Adj_289   1
    x123_5    Adj_293   1
    x123_5    Adj_301   1
    x123_5    Adj_305   1
    x123_5    Adj_313   1
    x124_4    OBJ       -5.7077588299999996e+04
    x124_4    Adj_121   1
    x124_4    AA_18     1
    x124_4    AA_20     1
    x124_4    AA_72     1
    x124_4    Sawti_H4  380.2038
    x124_4    _EAge_31  590.1966
    x124_4    Adj_97    1
    x124_4    Adj_120   1
    x124_4    Adj_125   1
    x124_4    Adj_165   1
    x124_4    Adj_170   1
    x124_5    OBJ       -41217.3561
    x124_5    Adj_120   1
    x124_5    AA_18     1
    x124_5    AA_20     1
    x124_5    AA_72     1
    x124_5    Sawti_H5  414.589
    x124_5    _EAge_22  1.2886699999999996e+02
    x124_5    _EAge_31  7.8692879999999991e+02
    x124_5    Adj_98    1
    x124_5    Adj_121   1
    x124_5    Adj_126   1
    x124_5    Adj_166   1
    x124_5    Adj_171   1
    x125_2    OBJ       -55305.2976
    x125_2    AA_1      1
    x125_2    AA_89     1
    x125_2    Sawti_H2  161.1218
    x125_2    _EAge_32  5.7959230000000005e+01
    x125_2    Adj_1     1
    x125_2    Adj_290   1
    x125_2    Adj_310   1
    x125_3    OBJ       -41956.4036
    x125_3    AA_1      1
    x125_3    AA_89     1
    x125_3    Sawti_H3  181.5337
    x125_3    _EAge_32  306.90086
    x125_3    Adj_2     1
    x125_3    Adj_291   1
    x125_3    Adj_311   1
    x125_4    OBJ       -31086.3607
    x125_4    AA_1      1
    x125_4    AA_89     1
    x125_4    Sawti_H4  199.5682
    x125_4    _EAge_32  5.5584248999999988e+02
    x125_4    Adj_3     1
    x125_4    Adj_7     1
    x125_4    Adj_288   1
    x125_4    Adj_292   1
    x125_4    Adj_300   1
    x125_4    Adj_312   1
    x125_5    OBJ       -22644.4651
    x125_5    AA_1      1
    x125_5    AA_89     1
    x125_5    Sawti_H5  215.5694
    x125_5    _EAge_32  8.0478411999999992e+02
    x125_5    Adj_4     1
    x125_5    Adj_8     1
    x125_5    Adj_289   1
    x125_5    Adj_293   1
    x125_5    Adj_301   1
    x125_5    Adj_313   1
    x126_2    OBJ       -83729.2322
    x126_2    AA_86     1
    x126_2    AA_87     1
    x126_2    Sawti_H2  243.7055
    x126_2    Adj_1     1
    x126_2    Adj_9     1
    x126_2    Adj_302   1
    x126_2    Adj_306   1
    x126_2    Adj_310   1
    x126_3    OBJ       -63932.0967
    x126_3    AA_86     1
    x126_3    AA_87     1
    x126_3    Sawti_H3  276.4404
    x126_3    _EAge_32  3.8831349999999992e+02
    x126_3    Adj_2     1
    x126_3    Adj_10    1
    x126_3    Adj_303   1
    x126_3    Adj_307   1
    x126_3    Adj_311   1
    x126_4    OBJ       -47583.0164
    x126_4    AA_86     1
    x126_4    AA_87     1
    x126_4    Sawti_H4  305.3309
    x126_4    _EAge_32  776.627
    x126_4    Adj_3     1
    x126_4    Adj_11    1
    x126_4    Adj_304   1
    x126_4    Adj_308   1
    x126_4    Adj_312   1
    x126_5    OBJ       -34777.9358
    x126_5    AA_86     1
    x126_5    AA_87     1
    x126_5    Sawti_H5  330.9596
    x126_5    _EAge_32  1.1649405000000002e+03
    x126_5    Adj_4     1
    x126_5    Adj_12    1
    x126_5    Adj_305   1
    x126_5    Adj_309   1
    x126_5    Adj_313   1
    x127_3    OBJ       -25534.5367
    x127_3    Adj_105   1
    x127_3    Adj_104   1
    x127_3    AA_14     1
    x127_3    AA_42     1
    x127_3    Sawti_H3  110.801
    x127_3    _EAge_51  5.9232769999999995e+01
    x127_3    Adj_103   1
    x127_3    Adj_206   1
    x127_4    OBJ       -19209.787
    x127_4    Adj_105   1
    x127_4    Adj_103   1
    x127_4    AA_14     1
    x127_4    AA_42     1
    x127_4    Sawti_H4  123.6887
    x127_4    _EAge_51  118.46554
    x127_4    _EAge_53  1.2290799999999999e+02
    x127_4    Adj_104   1
    x127_4    Adj_207   1
    x127_5    OBJ       -14147.157
    x127_5    Adj_104   1
    x127_5    Adj_103   1
    x127_5    AA_14     1
    x127_5    AA_42     1
    x127_5    Sawti_H5  135.0762
    x127_5    _EAge_51  177.69831
    x127_5    _EAge_53  245.816
    x127_5    Adj_105   1
    x127_5    Adj_208   1
    x128_3    OBJ       -54625.609
    x128_3    AA_11     1
    x128_3    AA_13     1
    x128_3    Sawti_H3  235.3521
    x128_3    Adj_69    1
    x128_3    Adj_75    1
    x128_3    Adj_79    1
    x128_3    Adj_83    1
    x128_3    Adj_91    1
    x128_3    Adj_100   1
    x128_4    OBJ       -41709.8022
    x128_4    AA_11     1
    x128_4    AA_13     1
    x128_4    Sawti_H4  266.9648
    x128_4    _EAge_32  3.7500320000000011e+02
    x128_4    Adj_70    1
    x128_4    Adj_73    1
    x128_4    Adj_76    1
    x128_4    Adj_80    1
    x128_4    Adj_84    1
    x128_4    Adj_88    1
    x128_4    Adj_92    1
    x128_4    Adj_101   1
    x128_5    OBJ       -31043.5338
    x128_5    AA_11     1
    x128_5    AA_13     1
    x128_5    Sawti_H5  294.865
    x128_5    _EAge_32  750.0064
    x128_5    Adj_71    1
    x128_5    Adj_74    1
    x128_5    Adj_77    1
    x128_5    Adj_81    1
    x128_5    Adj_85    1
    x128_5    Adj_89    1
    x128_5    Adj_93    1
    x128_5    Adj_102   1
    x129_2    OBJ       -78710.465
    x129_2    AA_26     1
    x129_2    AA_27     1
    x129_2    Sawti_H2  229.0977
    x129_2    Adj_142   1
    x129_2    Adj_150   1
    x129_2    Adj_154   1
    x129_2    Adj_158   1
    x129_3    OBJ       -60099.9786
    x129_3    AA_26     1
    x129_3    AA_27     1
    x129_3    Sawti_H3  259.8704
    x129_3    _EAge_32  365.0378
    x129_3    Adj_143   1
    x129_3    Adj_151   1
    x129_3    Adj_155   1
    x129_3    Adj_159   1
    x129_4    OBJ       -44730.8694
    x129_4    AA_26     1
    x129_4    AA_27     1
    x129_4    Sawti_H4  287.0292
    x129_4    _EAge_32  7.3007560000000012e+02
    x129_4    Adj_144   1
    x129_4    Adj_152   1
    x129_4    Adj_156   1
    x129_4    Adj_160   1
    x129_5    OBJ       -32693.331
    x129_5    AA_26     1
    x129_5    AA_27     1
    x129_5    Sawti_H5  311.1216
    x129_5    _EAge_32  1095.1134
    x129_5    Adj_145   1
    x129_5    Adj_153   1
    x129_5    Adj_157   1
    x129_5    Adj_161   1
    x130_2    OBJ       -42219.8697
    x130_2    AA_1      1
    x130_2    AA_86     1
    x130_2    Sawti_H2  123.0348
    x130_2    _EAge_32  5.7959229999999991e+01
    x130_2    Adj_1     1
    x130_2    Adj_302   1
    x130_2    Adj_310   1
    x130_3    OBJ       -31964.9249
    x130_3    AA_1      1
    x130_3    AA_86     1
    x130_3    Sawti_H3  138.3309
    x130_3    _EAge_32  2.4621426000000002e+02
    x130_3    Adj_2     1
    x130_3    Adj_303   1
    x130_3    Adj_311   1
    x130_4    OBJ       -23649.9599
    x130_4    AA_1      1
    x130_4    AA_86     1
    x130_4    Sawti_H4  151.8503
    x130_4    _EAge_32  4.3446929000000006e+02
    x130_4    Adj_3     1
    x130_4    Adj_7     1
    x130_4    Adj_304   1
    x130_4    Adj_312   1
    x130_5    OBJ       -17209.2765
    x130_5    AA_1      1
    x130_5    AA_86     1
    x130_5    Sawti_H5  163.8462
    x130_5    _EAge_32  6.2272431999999992e+02
    x130_5    Adj_4     1
    x130_5    Adj_8     1
    x130_5    Adj_305   1
    x130_5    Adj_313   1
    x131_4    OBJ       -25299.1652
    x131_4    Adj_179   1
    x131_4    AA_9      1
    x131_4    AA_78     1
    x131_4    Sawti_H4  161.6529
    x131_4    _EAge_32  1.1972300000000001e+02
    x131_4    Adj_45    1
    x131_4    Adj_56    1
    x131_4    Adj_59    1
    x131_4    Adj_62    1
    x131_4    Adj_182   1
    x131_4    Adj_185   1
    x131_5    OBJ       -19060.59
    x131_5    Adj_180   1
    x131_5    AA_9      1
    x131_5    AA_78     1
    x131_5    Sawti_H5  180.8254
    x131_5    _EAge_32  361.2148
    x131_5    Adj_46    1
    x131_5    Adj_57    1
    x131_5    Adj_60    1
    x131_5    Adj_63    1
    x131_5    Adj_183   1
    x131_5    Adj_186   1
    x132_4    OBJ       -28388.7694
    x132_4    AA_1      1
    x132_4    AA_84     1
    x132_4    Sawti_H4  181.4459
    x132_4    _EAge_32  1.7387769000000003e+02
    x132_4    Adj_3     1
    x132_4    Adj_7     1
    x132_4    Adj_300   1
    x132_5    OBJ       -21349.2122
    x132_5    AA_1      1
    x132_5    AA_84     1
    x132_5    Sawti_H5  202.579
    x132_5    _EAge_32  442.23712
    x132_5    Adj_4     1
    x132_5    Adj_8     1
    x132_5    Adj_301   1
    x134_3    OBJ       -27063.3006
    x134_3    Adj_208   1
    x134_3    Adj_207   1
    x134_3    AA_42     1
    x134_3    AA_43     1
    x134_3    Sawti_H3  121.0241
    x134_3    Adj_103   1
    x134_3    Adj_206   1
    x134_3    Adj_210   1
    x134_3    Adj_213   1
    x137_2    OBJ       -89293.0587
    x137_2    AA_23     1
    x137_2    AA_52     1
    x137_2    AA_53     1
    x137_2    Sawti_H2  258.4486
    x137_2    Adj_142   1
    x137_2    Adj_150   1
    x137_2    Adj_154   1
    x137_2    Adj_240   1
    x137_2    Adj_244   1
    x137_2    Adj_248   1
    x137_3    OBJ       -68135.536
    x137_3    AA_23     1
    x137_3    AA_52     1
    x137_3    AA_53     1
    x137_3    Sawti_H3  293.1593
    x137_3    _EAge_31  1.1057709999999999e+02
    x137_3    _EAge_32  2.5251080000000002e+02
    x137_3    Adj_143   1
    x137_3    Adj_151   1
    x137_3    Adj_155   1
    x137_3    Adj_241   1
    x137_3    Adj_245   1
    x137_3    Adj_249   1
    x137_4    OBJ       -50690.5004
    x137_4    AA_23     1
    x137_4    AA_52     1
    x137_4    AA_53     1
    x137_4    Sawti_H4  323.8111
    x137_4    _EAge_31  221.1542
    x137_4    _EAge_32  5.0502160000000009e+02
    x137_4    Adj_136   1
    x137_4    Adj_140   1
    x137_4    Adj_144   1
    x137_4    Adj_152   1
    x137_4    Adj_156   1
    x137_4    Adj_238   1
    x137_4    Adj_242   1
    x137_4    Adj_246   1
    x137_4    Adj_250   1
    x137_5    OBJ       -37035.6186
    x137_5    AA_23     1
    x137_5    AA_52     1
    x137_5    AA_53     1
    x137_5    Sawti_H5  350.9816
    x137_5    _EAge_31  3.3173130000000003e+02
    x137_5    _EAge_32  757.5324
    x137_5    Adj_137   1
    x137_5    Adj_141   1
    x137_5    Adj_145   1
    x137_5    Adj_153   1
    x137_5    Adj_157   1
    x137_5    Adj_239   1
    x137_5    Adj_243   1
    x137_5    Adj_247   1
    x137_5    Adj_251   1
    x138_4    OBJ       -53876.6243
    x138_4    AA_33     1
    x138_4    AA_67     1
    x138_4    Sawti_H4  606.207
    x138_4    _EAge_11  1
    x138_4    _EAge_31  3.4886379999999997e+02
    x138_4    Adj_73    1
    x138_4    Adj_88    1
    x138_4    Adj_92    1
    x138_4    Adj_101   1
    x138_4    Adj_188   1
    x138_4    Adj_192   1
    x138_4    Adj_276   1
    x138_5    OBJ       -2.9659475899999998e+04
    x138_5    AA_33     1
    x138_5    AA_67     1
    x138_5    Sawti_H5  677.6593
    x138_5    _EAge_11  1
    x138_5    _EAge_31  523.2957
    x138_5    Adj_74    1
    x138_5    Adj_89    1
    x138_5    Adj_93    1
    x138_5    Adj_102   1
    x138_5    Adj_189   1
    x138_5    Adj_193   1
    x138_5    Adj_277   1
    x139_2    OBJ       -118163.1753
    x139_2    AA_25     1
    x139_2    AA_51     1
    x139_2    Sawti_H2  337.9541
    x139_2    Adj_146   1
    x139_2    Adj_228   1
    x139_3    OBJ       -90039.0438
    x139_3    AA_25     1
    x139_3    AA_51     1
    x139_3    Sawti_H3  383.3277
    x139_3    _EAge_51  3.3785267999999996e+02
    x139_3    Adj_131   1
    x139_3    Adj_147   1
    x139_3    Adj_229   1
    x139_4    OBJ       -66919.6666
    x139_4    AA_25     1
    x139_4    AA_51     1
    x139_4    Sawti_H4  423.397
    x139_4    _EAge_51  675.70536
    x139_4    Adj_132   1
    x139_4    Adj_148   1
    x139_4    Adj_230   1
    x139_5    OBJ       -48855.9137
    x139_5    AA_25     1
    x139_5    AA_51     1
    x139_5    Sawti_H5  458.9053
    x139_5    _EAge_51  1.0135580400000001e+03
    x139_5    Adj_133   1
    x139_5    Adj_149   1
    x139_5    Adj_231   1
    x140_2    OBJ       -71274.7345
    x140_2    AA_85     1
    x140_2    AA_88     1
    x140_2    Sawti_H2  207.455
    x140_2    Adj_25    1
    x140_2    Adj_290   1
    x140_2    Adj_294   1
    x140_2    Adj_306   1
    x140_3    OBJ       -54422.3696
    x140_3    AA_85     1
    x140_3    AA_88     1
    x140_3    Sawti_H3  235.3206
    x140_3    _EAge_32  3.3055289999999997e+02
    x140_3    Adj_26    1
    x140_3    Adj_291   1
    x140_3    Adj_295   1
    x140_3    Adj_307   1
    x140_4    OBJ       -40505.1709
    x140_4    AA_85     1
    x140_4    AA_88     1
    x140_4    Sawti_H4  259.9138
    x140_4    _EAge_32  661.1058
    x140_4    Adj_23    1
    x140_4    Adj_27    1
    x140_4    Adj_288   1
    x140_4    Adj_292   1
    x140_4    Adj_296   1
    x140_4    Adj_308   1
    x140_5    OBJ       -29604.8115
    x140_5    AA_85     1
    x140_5    AA_88     1
    x140_5    Sawti_H5  281.7302
    x140_5    _EAge_32  991.6587
    x140_5    Adj_24    1
    x140_5    Adj_28    1
    x140_5    Adj_289   1
    x140_5    Adj_293   1
    x140_5    Adj_297   1
    x140_5    Adj_309   1
    x141_4    OBJ       -76687.9262
    x141_4    AA_33     1
    x141_4    AA_32     1
    x141_4    AA_78     1
    x141_4    Sawti_H4  476.8943
    x141_4    _EAge_32  1.1972300000000001e+02
    x141_4    Adj_56    1
    x141_4    Adj_62    1
    x141_4    Adj_182   1
    x141_4    Adj_185   1
    x141_4    Adj_188   1
    x141_5    OBJ       -58126.1188
    x141_5    AA_33     1
    x141_5    AA_32     1
    x141_5    AA_78     1
    x141_5    Sawti_H5  538.4068
    x141_5    _EAge_32  2.3944600000000003e+02
    x141_5    Adj_57    1
    x141_5    Adj_63    1
    x141_5    Adj_183   1
    x141_5    Adj_186   1
    x141_5    Adj_189   1
    x142_2    OBJ       -76446.0121
    x142_2    AA_85     1
    x142_2    AA_89     1
    x142_2    Sawti_H2  222.5067
    x142_2    Adj_1     1
    x142_2    Adj_25    1
    x142_2    Adj_290   1
    x142_2    Adj_294   1
    x142_2    Adj_310   1
    x142_3    OBJ       -58370.9382
    x142_3    AA_85     1
    x142_3    AA_89     1
    x142_3    Sawti_H3  252.3941
    x142_3    _EAge_32  3.5453580000000005e+02
    x142_3    Adj_2     1
    x142_3    Adj_26    1
    x142_3    Adj_291   1
    x142_3    Adj_295   1
    x142_3    Adj_311   1
    x142_4    OBJ       -43443.989
    x142_4    AA_85     1
    x142_4    AA_89     1
    x142_4    Sawti_H4  278.7716
    x142_4    _EAge_32  709.0716
    x142_4    Adj_3     1
    x142_4    Adj_7     1
    x142_4    Adj_23    1
    x142_4    Adj_27    1
    x142_4    Adj_288   1
    x142_4    Adj_292   1
    x142_4    Adj_296   1
    x142_4    Adj_300   1
    x142_4    Adj_312   1
    x142_5    OBJ       -31752.7633
    x142_5    AA_85     1
    x142_5    AA_89     1
    x142_5    Sawti_H5  302.1709
    x142_5    _EAge_32  1.0636073999999999e+03
    x142_5    Adj_4     1
    x142_5    Adj_8     1
    x142_5    Adj_24    1
    x142_5    Adj_28    1
    x142_5    Adj_289   1
    x142_5    Adj_293   1
    x142_5    Adj_297   1
    x142_5    Adj_301   1
    x142_5    Adj_313   1
    x143_4    OBJ       -51452.8585
    x143_4    AA_23     1
    x143_4    AA_55     1
    x143_4    Sawti_H4  324.9052
    x143_4    _EAge_31  221.1542
    x143_4    Adj_136   1
    x143_4    Adj_140   1
    x143_4    Adj_144   1
    x143_4    Adj_238   1
    x143_5    OBJ       -38590.7059
    x143_5    AA_23     1
    x143_5    AA_55     1
    x143_5    Sawti_H5  362.201
    x143_5    _EAge_22  232.3596
    x143_5    _EAge_31  3.3173130000000003e+02
    x143_5    Adj_137   1
    x143_5    Adj_141   1
    x143_5    Adj_145   1
    x143_5    Adj_239   1
    x144_4    OBJ       -46531.1377
    x144_4    Adj_121   1
    x144_4    AA_18     1
    x144_4    AA_20     1
    x144_4    AA_28     1
    x144_4    Sawti_H4  313.1244
    x144_4    _EAge_31  4.2629519999999997e+02
    x144_4    Adj_120   1
    x144_4    Adj_125   1
    x144_4    Adj_170   1
    x144_5    OBJ       -33618.9044
    x144_5    Adj_120   1
    x144_5    AA_18     1
    x144_5    AA_20     1
    x144_5    AA_28     1
    x144_5    Sawti_H5  342.8985
    x144_5    _EAge_22  1.2886699999999996e+02
    x144_5    _EAge_31  568.3936
    x144_5    Adj_121   1
    x144_5    Adj_126   1
    x144_5    Adj_171   1
    x145_4    OBJ       -29331.4493
    x145_4    AA_23     1
    x145_4    AA_54     1
    x145_4    Sawti_H4  185.6063
    x145_4    _EAge_31  221.1542
    x145_4    Adj_128   1
    x145_4    Adj_136   1
    x145_4    Adj_140   1
    x145_4    Adj_144   1
    x145_5    OBJ       -21726.1315
    x145_5    AA_23     1
    x145_5    AA_54     1
    x145_5    Sawti_H5  204.209
    x145_5    _EAge_22  7.0233370000000008e+01
    x145_5    _EAge_31  3.3173130000000003e+02
    x145_5    Adj_129   1
    x145_5    Adj_137   1
    x145_5    Adj_141   1
    x145_5    Adj_145   1
    x146_3    OBJ       -26291.6653
    x146_3    AA_43     1
    x146_3    AA_44     1
    x146_3    Sawti_H3  117.5734
    x146_3    Adj_206   1
    x146_3    Adj_210   1
    x146_3    Adj_213   1
    x147_2    OBJ       -133154.3487
    x147_2    AA_24     1
    x147_2    AA_25     1
    x147_2    Sawti_H2  380.8298
    x147_2    Adj_146   1
    x147_3    OBJ       -101462.1536
    x147_3    AA_24     1
    x147_3    AA_25     1
    x147_3    Sawti_H3  431.9599
    x147_3    _EAge_51  3.8071557999999993e+02
    x147_3    Adj_131   1
    x147_3    Adj_147   1
    x147_4    OBJ       -75409.6578
    x147_4    AA_24     1
    x147_4    AA_25     1
    x147_4    Sawti_H4  477.1127
    x147_4    _EAge_51  7.6143116000000009e+02
    x147_4    Adj_132   1
    x147_4    Adj_148   1
    x147_5    OBJ       -55054.1855
    x147_5    AA_24     1
    x147_5    AA_25     1
    x147_5    Sawti_H5  517.1259
    x147_5    _EAge_51  1142.14674
    x147_5    Adj_133   1
    x147_5    Adj_149   1
    x149_3    OBJ       -34665.7067
    x149_3    AA_43     1
    x149_3    AA_46     1
    x149_3    Sawti_H3  152.4546
    x149_3    _EAge_32  1.0538829999999999e+02
    x149_3    Adj_206   1
    x149_3    Adj_210   1
    x149_3    Adj_213   1
    x149_3    Adj_221   1
    x149_4    OBJ       -26194.3395
    x149_4    AA_43     1
    x149_4    AA_46     1
    x149_4    Sawti_H4  170.7081
    x149_4    _EAge_32  210.7766
    x149_4    _EAge_53  2.1829330000000004e+02
    x149_4    Adj_207   1
    x149_4    Adj_211   1
    x149_4    Adj_214   1
    x149_4    Adj_222   1
    x149_5    OBJ       -19352.1933
    x149_5    AA_43     1
    x149_5    AA_46     1
    x149_5    Sawti_H5  186.832
    x149_5    _EAge_32  3.1616490000000005e+02
    x149_5    _EAge_53  4.3658660000000009e+02
    x149_5    Adj_208   1
    x149_5    Adj_212   1
    x149_5    Adj_215   1
    x149_5    Adj_223   1
    x150_3    OBJ       -39038.9056
    x150_3    AA_43     1
    x150_3    AA_47     1
    x150_3    Sawti_H3  171.0271
    x150_3    Adj_206   1
    x150_3    Adj_210   1
    x150_3    Adj_213   1
    x150_3    Adj_221   1
    x150_3    Adj_225   1
    x150_4    OBJ       -29868.1182
    x150_4    AA_43     1
    x150_4    AA_47     1
    x150_4    Sawti_H4  194.012
    x150_4    _EAge_32  149.1373
    x150_4    _EAge_53  2.1829330000000004e+02
    x150_4    Adj_207   1
    x150_4    Adj_211   1
    x150_4    Adj_214   1
    x150_4    Adj_222   1
    x150_4    Adj_226   1
    x150_5    OBJ       -22259.3418
    x150_5    AA_43     1
    x150_5    AA_47     1
    x150_5    Sawti_H5  214.2761
    x150_5    _EAge_32  2.9827459999999996e+02
    x150_5    _EAge_53  4.3658660000000009e+02
    x150_5    Adj_208   1
    x150_5    Adj_212   1
    x150_5    Adj_215   1
    x150_5    Adj_223   1
    x150_5    Adj_227   1
    x151_3    OBJ       -62622.4581
    x151_3    Adj_118   1
    x151_3    Adj_117   1
    x151_3    AA_17     1
    x151_3    AA_40     1
    x151_3    Sawti_H3  268.6565
    x151_3    _EAge_31  1.2170100000000001e+02
    x151_3    Adj_112   1
    x151_3    Adj_116   1
    x151_3    Adj_217   1
    x151_4    OBJ       -47228.9821
    x151_4    Adj_118   1
    x151_4    Adj_116   1
    x151_4    AA_17     1
    x151_4    AA_40     1
    x151_4    Sawti_H4  301.0374
    x151_4    _EAge_31  243.402
    x151_4    _EAge_32  2.2920990000000006e+02
    x151_4    Adj_113   1
    x151_4    Adj_117   1
    x151_4    Adj_218   1
    x151_5    OBJ       -34845.4941
    x151_5    Adj_117   1
    x151_5    Adj_116   1
    x151_5    AA_17     1
    x151_5    AA_40     1
    x151_5    Sawti_H5  329.6523
    x151_5    _EAge_31  365.103
    x151_5    _EAge_32  458.4198
    x151_5    Adj_114   1
    x151_5    Adj_118   1
    x151_5    Adj_219   1
    x152_2    OBJ       -38743.4114
    x152_2    AA_7      1
    x152_2    AA_81     1
    x152_2    Sawti_H2  113.0297
    x152_2    _EAge_32  1.0247470000000001e+02
    x152_2    Adj_34    1
    x152_2    Adj_47    1
    x152_3    OBJ       -29101.2477
    x152_3    AA_7      1
    x152_3    AA_81     1
    x152_3    Sawti_H3  126.0372
    x152_3    _EAge_32  2.6880861999999996e+02
    x152_3    Adj_35    1
    x152_3    Adj_40    1
    x152_3    Adj_48    1
    x152_4    OBJ       -21410.5251
    x152_4    AA_7      1
    x152_4    AA_81     1
    x152_4    Sawti_H4  137.5517
    x152_4    _EAge_32  4.3514253999999994e+02
    x152_4    Adj_36    1
    x152_4    Adj_41    1
    x152_4    Adj_45    1
    x152_4    Adj_49    1
    x152_5    OBJ       -15513.9443
    x152_5    AA_7      1
    x152_5    AA_81     1
    x152_5    Sawti_H5  147.7714
    x152_5    _EAge_32  601.47646
    x152_5    Adj_37    1
    x152_5    Adj_42    1
    x152_5    Adj_46    1
    x152_5    Adj_50    1
    x153_3    OBJ       -52899.0456
    x153_3    AA_77     1
    x153_3    AA_78     1
    x153_3    Sawti_H3  227.9132
    x153_3    Adj_178   1
    x153_3    Adj_181   1
    x153_4    OBJ       -40391.4716
    x153_4    Adj_59    1
    x153_4    AA_77     1
    x153_4    AA_78     1
    x153_4    Sawti_H4  258.5268
    x153_4    _EAge_32  3.6315039999999993e+02
    x153_4    Adj_56    1
    x153_4    Adj_62    1
    x153_4    Adj_179   1
    x153_4    Adj_182   1
    x153_4    Adj_185   1
    x153_4    Adj_188   1
    x153_5    OBJ       -30062.3342
    x153_5    Adj_60    1
    x153_5    AA_77     1
    x153_5    AA_78     1
    x153_5    Sawti_H5  285.5452
    x153_5    _EAge_32  726.3008
    x153_5    Adj_57    1
    x153_5    Adj_63    1
    x153_5    Adj_180   1
    x153_5    Adj_183   1
    x153_5    Adj_186   1
    x153_5    Adj_189   1
    x153_5    Adj_196   1
    x153_5    Adj_199   1
    x154_4    OBJ       -30027.2597
    x154_4    AA_31     1
    x154_4    AA_64     1
    x154_4    Sawti_H4  191.5008
    x154_4    Adj_106   1
    x154_4    Adj_172   1
    x154_5    OBJ       -22927.5442
    x154_5    AA_31     1
    x154_5    AA_64     1
    x154_5    Sawti_H5  217.2235
    x154_5    _EAge_32  3.0513204000000007e+02
    x154_5    Adj_107   1
    x154_5    Adj_173   1
    x155_3    OBJ       -48052.7059
    x155_3    AA_44     1
    x155_3    AA_46     1
    x155_3    AA_47     1
    x155_3    Sawti_H3  208.7693
    x155_3    _EAge_32  1.0538830000000004e+02
    x155_3    Adj_210   1
    x155_3    Adj_213   1
    x155_3    Adj_221   1
    x155_3    Adj_225   1
    x155_4    OBJ       -36387.3562
    x155_4    AA_44     1
    x155_4    AA_46     1
    x155_4    AA_47     1
    x155_4    Sawti_H4  234.5811
    x155_4    _EAge_32  3.5991389999999990e+02
    x155_4    _EAge_53  1.1317949999999996e+02
    x155_4    Adj_211   1
    x155_4    Adj_214   1
    x155_4    Adj_222   1
    x155_4    Adj_226   1
    x155_5    OBJ       -26924.4999
    x155_5    AA_44     1
    x155_5    AA_46     1
    x155_5    AA_47     1
    x155_5    Sawti_H5  257.3861
    x155_5    _EAge_32  614.4395
    x155_5    _EAge_53  2.2635899999999992e+02
    x155_5    Adj_212   1
    x155_5    Adj_215   1
    x155_5    Adj_223   1
    x155_5    Adj_227   1
    x156_2    OBJ       -72414.4756
    x156_2    Adj_235   1
    x156_2    Adj_234   1
    x156_2    Adj_233   1
    x156_2    AA_49     1
    x156_2    AA_50     1
    x156_2    Sawti_H2  207.1099
    x156_2    Adj_228   1
    x156_2    Adj_232   1
    x156_3    OBJ       -55179.0363
    x156_3    Adj_235   1
    x156_3    Adj_234   1
    x156_3    Adj_232   1
    x156_3    AA_49     1
    x156_3    AA_50     1
    x156_3    Sawti_H3  234.9165
    x156_3    _EAge_51  2.0704777000000004e+02
    x156_3    Adj_229   1
    x156_3    Adj_233   1
    x156_4    OBJ       -41010.6833
    x156_4    Adj_235   1
    x156_4    Adj_233   1
    x156_4    Adj_232   1
    x156_4    AA_49     1
    x156_4    AA_50     1
    x156_4    Sawti_H4  259.4723
    x156_4    _EAge_51  4.1409553999999991e+02
    x156_4    Adj_230   1
    x156_4    Adj_234   1
    x156_5    OBJ       -29940.5916
    x156_5    Adj_234   1
    x156_5    Adj_233   1
    x156_5    Adj_232   1
    x156_5    AA_49     1
    x156_5    AA_50     1
    x156_5    Sawti_H5  281.233
    x156_5    _EAge_51  6.2114330999999993e+02
    x156_5    Adj_231   1
    x156_5    Adj_235   1
    x157_2    OBJ       -128376.876
    x157_2    Adj_231   1
    x157_2    Adj_230   1
    x157_2    Adj_229   1
    x157_2    AA_50     1
    x157_2    AA_51     1
    x157_2    Sawti_H2  367.1659
    x157_2    Adj_146   1
    x157_2    Adj_228   1
    x157_2    Adj_232   1
    x157_3    OBJ       -97821.7717
    x157_3    Adj_231   1
    x157_3    Adj_230   1
    x157_3    Adj_228   1
    x157_3    AA_50     1
    x157_3    AA_51     1
    x157_3    Sawti_H3  416.4615
    x157_3    _EAge_51  3.6705569999999989e+02
    x157_3    Adj_147   1
    x157_3    Adj_229   1
    x157_3    Adj_233   1
    x157_4    OBJ       -72704.019
    x157_4    Adj_231   1
    x157_4    Adj_229   1
    x157_4    Adj_228   1
    x157_4    AA_50     1
    x157_4    AA_51     1
    x157_4    Sawti_H4  459.9942
    x157_4    _EAge_51  7.3411139999999989e+02
    x157_4    Adj_148   1
    x157_4    Adj_230   1
    x157_4    Adj_234   1
    x157_5    OBJ       -53078.8849
    x157_5    Adj_230   1
    x157_5    Adj_229   1
    x157_5    Adj_228   1
    x157_5    AA_50     1
    x157_5    AA_51     1
    x157_5    Sawti_H5  498.5718
    x157_5    _EAge_51  1.1011671000000001e+03
    x157_5    Adj_149   1
    x157_5    Adj_231   1
    x157_5    Adj_235   1
    x158_4    OBJ       -35117.0632
    x158_4    Adj_185   1
    x158_4    Adj_182   1
    x158_4    AA_9      1
    x158_4    AA_34     1
    x158_4    Sawti_H4  224.4927
    x158_4    _EAge_32  2.0799349999999998e+02
    x158_4    Adj_41    1
    x158_4    Adj_45    1
    x158_4    Adj_56    1
    x158_4    Adj_59    1
    x158_4    Adj_62    1
    x158_4    Adj_179   1
    x158_5    OBJ       -26367.7992
    x158_5    Adj_186   1
    x158_5    Adj_183   1
    x158_5    AA_9      1
    x158_5    AA_34     1
    x158_5    Sawti_H5  250.2325
    x158_5    _EAge_32  5.3775579999999991e+02
    x158_5    Adj_42    1
    x158_5    Adj_46    1
    x158_5    Adj_57    1
    x158_5    Adj_60    1
    x158_5    Adj_63    1
    x158_5    Adj_180   1
    x159_4    OBJ       -39997.8685
    x159_4    Adj_185   1
    x159_4    AA_9      1
    x159_4    AA_35     1
    x159_4    Sawti_H4  255.7324
    x159_4    _EAge_32  251.8757
    x159_4    Adj_45    1
    x159_4    Adj_56    1
    x159_4    Adj_59    1
    x159_4    Adj_62    1
    x159_4    Adj_179   1
    x159_4    Adj_182   1
    x159_5    OBJ       -30000.4571
    x159_5    Adj_186   1
    x159_5    AA_9      1
    x159_5    AA_35     1
    x159_5    Sawti_H5  284.7371
    x159_5    _EAge_32  6.2552019999999993e+02
    x159_5    Adj_46    1
    x159_5    Adj_57    1
    x159_5    Adj_60    1
    x159_5    Adj_63    1
    x159_5    Adj_180   1
    x159_5    Adj_183   1
    x160_4    OBJ       -75354.662
    x160_4    AA_33     1
    x160_4    Adj_182   1
    x160_4    Adj_179   1
    x160_4    AA_9      1
    x160_4    AA_32     1
    x160_4    Sawti_H4  468.0856
    x160_4    Adj_45    1
    x160_4    Adj_56    1
    x160_4    Adj_59    1
    x160_4    Adj_62    1
    x160_4    Adj_185   1
    x160_4    Adj_188   1
    x160_5    OBJ       -57364.8762
    x160_5    AA_33     1
    x160_5    Adj_183   1
    x160_5    Adj_180   1
    x160_5    AA_9      1
    x160_5    AA_32     1
    x160_5    Sawti_H5  530.9558
    x160_5    _EAge_32  121.7688
    x160_5    Adj_46    1
    x160_5    Adj_57    1
    x160_5    Adj_60    1
    x160_5    Adj_63    1
    x160_5    Adj_186   1
    x160_5    Adj_189   1
    x161_2    OBJ       -83400.0354
    x161_2    Adj_4     1
    x161_2    Adj_3     1
    x161_2    Adj_2     1
    x161_2    AA_1      1
    x161_2    AA_86     1
    x161_2    AA_89     1
    x161_2    Sawti_H2  242.8954
    x161_2    _EAge_32  5.7959229999999977e+01
    x161_2    Adj_1     1
    x161_2    Adj_290   1
    x161_2    Adj_302   1
    x161_2    Adj_310   1
    x161_3    OBJ       -63408.3559
    x161_3    Adj_4     1
    x161_3    Adj_3     1
    x161_3    Adj_1     1
    x161_3    AA_1      1
    x161_3    AA_86     1
    x161_3    AA_89     1
    x161_3    Sawti_H3  274.2913
    x161_3    _EAge_32  4.3719665999999989e+02
    x161_3    Adj_2     1
    x161_3    Adj_291   1
    x161_3    Adj_303   1
    x161_3    Adj_311   1
    x161_4    OBJ       -47052.4974
    x161_4    Adj_4     1
    x161_4    Adj_2     1
    x161_4    Adj_1     1
    x161_4    AA_1      1
    x161_4    AA_86     1
    x161_4    AA_89     1
    x161_4    Sawti_H4  302.0198
    x161_4    _EAge_32  8.1643408999999986e+02
    x161_4    Adj_3     1
    x161_4    Adj_7     1
    x161_4    Adj_288   1
    x161_4    Adj_292   1
    x161_4    Adj_300   1
    x161_4    Adj_304   1
    x161_4    Adj_312   1
    x161_5    OBJ       -34313.9497
    x161_5    Adj_3     1
    x161_5    Adj_2     1
    x161_5    Adj_1     1
    x161_5    AA_1      1
    x161_5    AA_86     1
    x161_5    AA_89     1
    x161_5    Sawti_H5  326.6205
    x161_5    _EAge_32  1195.67152
    x161_5    Adj_4     1
    x161_5    Adj_8     1
    x161_5    Adj_289   1
    x161_5    Adj_293   1
    x161_5    Adj_301   1
    x161_5    Adj_305   1
    x161_5    Adj_313   1
    x162_4    OBJ       -33393.4756
    x162_4    AA_7      1
    x162_4    AA_9      1
    x162_4    AA_81     1
    x162_4    Sawti_H4  213.9738
    x162_4    _EAge_32  4.3514253999999994e+02
    x162_4    Adj_36    1
    x162_4    Adj_41    1
    x162_4    Adj_45    1
    x162_4    Adj_49    1
    x162_4    Adj_56    1
    x162_4    Adj_59    1
    x162_4    Adj_62    1
    x162_5    OBJ       -24663.618
    x162_5    AA_7      1
    x162_5    AA_9      1
    x162_5    AA_81     1
    x162_5    Sawti_H5  234.4586
    x162_5    _EAge_32  723.24526
    x162_5    Adj_37    1
    x162_5    Adj_42    1
    x162_5    Adj_46    1
    x162_5    Adj_50    1
    x162_5    Adj_57    1
    x162_5    Adj_60    1
    x162_5    Adj_63    1
    x163_3    OBJ       -30701.5231
    x163_3    AA_44     1
    x163_3    AA_47     1
    x163_3    Sawti_H3  133.7433
    x163_3    Adj_210   1
    x163_3    Adj_213   1
    x163_3    Adj_221   1
    x163_3    Adj_225   1
    x163_4    OBJ       -23473.3168
    x163_4    AA_44     1
    x163_4    AA_47     1
    x163_4    Sawti_H4  151.7142
    x163_4    _EAge_32  149.1373
    x163_4    _EAge_53  1.1317949999999996e+02
    x163_4    Adj_211   1
    x163_4    Adj_214   1
    x163_4    Adj_222   1
    x163_4    Adj_226   1
    x163_5    OBJ       -17485.7617
    x163_5    AA_44     1
    x163_5    AA_47     1
    x163_5    Sawti_H5  167.5636
    x163_5    _EAge_32  2.9827459999999996e+02
    x163_5    _EAge_53  2.2635899999999992e+02
    x163_5    Adj_212   1
    x163_5    Adj_215   1
    x163_5    Adj_223   1
    x163_5    Adj_227   1
    x164_2    OBJ       -83821.2944
    x164_2    AA_23     1
    x164_2    AA_26     1
    x164_2    Sawti_H2  242.5223
    x164_2    Adj_142   1
    x164_2    Adj_150   1
    x164_3    OBJ       -63957.5285
    x164_3    AA_23     1
    x164_3    AA_26     1
    x164_3    Sawti_H3  275.0938
    x164_3    _EAge_31  1.1057709999999999e+02
    x164_3    _EAge_32  2.2713430000000002e+02
    x164_3    Adj_143   1
    x164_3    Adj_151   1
    x164_4    OBJ       -47580.9167
    x164_4    AA_23     1
    x164_4    AA_26     1
    x164_4    Sawti_H4  303.8575
    x164_4    _EAge_31  221.1542
    x164_4    _EAge_32  454.2686
    x164_4    Adj_136   1
    x164_4    Adj_140   1
    x164_4    Adj_144   1
    x164_4    Adj_152   1
    x164_5    OBJ       -34762.856
    x164_5    AA_23     1
    x164_5    AA_26     1
    x164_5    Sawti_H5  329.3531
    x164_5    _EAge_31  3.3173130000000003e+02
    x164_5    _EAge_32  681.4029
    x164_5    Adj_137   1
    x164_5    Adj_141   1
    x164_5    Adj_145   1
    x164_5    Adj_153   1
    x165_3    OBJ       -63174.8921
    x165_3    AA_13     1
    x165_3    AA_67     1
    x165_3    Sawti_H3  270.5386
    x165_3    _EAge_31  1.7443189999999998e+02
    x165_3    Adj_91    1
    x165_3    Adj_100   1
    x165_3    Adj_191   1
    x165_3    Adj_275   1
    x165_4    OBJ       -47396.5144
    x165_4    AA_13     1
    x165_4    AA_67     1
    x165_4    Sawti_H4  301.5668
    x165_4    _EAge_31  3.4886379999999997e+02
    x165_4    _EAge_32  146.0463
    x165_4    Adj_88    1
    x165_4    Adj_92    1
    x165_4    Adj_101   1
    x165_4    Adj_192   1
    x165_4    Adj_276   1
    x165_5    OBJ       -34837.6764
    x165_5    AA_13     1
    x165_5    AA_67     1
    x165_5    Sawti_H5  329.0036
    x165_5    _EAge_31  523.2957
    x165_5    _EAge_32  2.9209260000000006e+02
    x165_5    Adj_89    1
    x165_5    Adj_93    1
    x165_5    Adj_102   1
    x165_5    Adj_193   1
    x165_5    Adj_277   1
    x166_4    OBJ       -19165.1376
    x166_4    AA_22     1
    x166_4    AA_54     1
    x166_4    Sawti_H4  121.455
    x166_4    Adj_128   1
    x166_4    Adj_136   1
    x166_5    OBJ       -14622.2523
    x166_5    AA_22     1
    x166_5    AA_54     1
    x166_5    Sawti_H5  137.7614
    x166_5    _EAge_22  7.0233370000000008e+01
    x166_5    _EAge_32  97.37177
    x166_5    Adj_129   1
    x166_5    Adj_137   1
    x167_3    OBJ       -70716.8888
    x167_3    AA_13     1
    x167_3    AA_71     1
    x167_3    Sawti_H3  302.7364
    x167_3    _EAge_31  2.0582899999999998e+02
    x167_3    Adj_91    1
    x167_3    Adj_100   1
    x167_3    Adj_275   1
    x167_4    OBJ       -53003.858
    x167_4    AA_13     1
    x167_4    AA_71     1
    x167_4    Sawti_H4  337.1335
    x167_4    _EAge_31  411.658
    x167_4    _EAge_32  146.0463
    x167_4    Adj_92    1
    x167_4    Adj_101   1
    x167_4    Adj_276   1
    x167_4    Adj_280   1
    x167_5    OBJ       -38932.18
    x167_5    AA_13     1
    x167_5    AA_71     1
    x167_5    Sawti_H5  367.5531
    x167_5    _EAge_31  6.1748700000000008e+02
    x167_5    _EAge_32  2.9209260000000006e+02
    x167_5    Adj_93    1
    x167_5    Adj_102   1
    x167_5    Adj_277   1
    x167_5    Adj_281   1
    x168_2    OBJ       -112306.669
    x168_2    AA_4      1
    x168_2    AA_80     1
    x168_2    Sawti_H2  323.1673
    x168_2    _EAge_32  75.6035
    x168_2    Adj_17    1
    x168_2    Adj_29    1
    x168_2    Adj_282   1
    x168_3    OBJ       -85276.449
    x168_3    AA_4      1
    x168_3    AA_80     1
    x168_3    Sawti_H3  364.9591
    x168_3    _EAge_31  297.9153
    x168_3    _EAge_32  151.207
    x168_3    Adj_18    1
    x168_3    Adj_30    1
    x168_3    Adj_283   1
    x168_4    OBJ       -63228.8677
    x168_4    AA_4      1
    x168_4    AA_80     1
    x168_4    Sawti_H4  401.9154
    x168_4    _EAge_31  595.8306
    x168_4    _EAge_32  226.8105
    x168_4    Adj_15    1
    x168_4    Adj_19    1
    x168_4    Adj_31    1
    x168_4    Adj_284   1
    x168_5    OBJ       -46077.3907
    x168_5    AA_4      1
    x168_5    AA_80     1
    x168_5    Sawti_H5  434.6476
    x168_5    _EAge_31  8.9374589999999989e+02
    x168_5    _EAge_32  302.414
    x168_5    Adj_16    1
    x168_5    Adj_20    1
    x168_5    Adj_32    1
    x168_5    Adj_285   1
    x169_4    OBJ       -48882.3604
    x169_4    AA_23     1
    x169_4    AA_52     1
    x169_4    AA_54     1
    x169_4    Sawti_H4  311.0607
    x169_4    _EAge_31  221.1542
    x169_4    _EAge_32  319.1004
    x169_4    Adj_128   1
    x169_4    Adj_136   1
    x169_4    Adj_140   1
    x169_4    Adj_144   1
    x169_4    Adj_152   1
    x169_4    Adj_156   1
    x169_4    Adj_238   1
    x169_4    Adj_250   1
    x169_5    OBJ       -36015.6907
    x169_5    AA_23     1
    x169_5    AA_52     1
    x169_5    AA_54     1
    x169_5    Sawti_H5  340.1937
    x169_5    _EAge_22  7.0233370000000008e+01
    x169_5    _EAge_31  3.3173130000000003e+02
    x169_5    _EAge_32  478.6506
    x169_5    Adj_129   1
    x169_5    Adj_137   1
    x169_5    Adj_141   1
    x169_5    Adj_145   1
    x169_5    Adj_153   1
    x169_5    Adj_157   1
    x169_5    Adj_239   1
    x169_5    Adj_251   1
    x170_4    OBJ       -43095.6138
    x170_4    AA_53     1
    x170_4    AA_55     1
    x170_4    Sawti_H4  272.7383
    x170_4    _EAge_32  185.9212
    x170_4    Adj_136   1
    x170_4    Adj_140   1
    x170_4    Adj_238   1
    x170_4    Adj_242   1
    x170_4    Adj_246   1
    x170_4    Adj_250   1
    x170_5    OBJ       -32496.0271
    x170_5    AA_53     1
    x170_5    AA_55     1
    x170_5    Sawti_H5  305.6647
    x170_5    _EAge_22  232.3596
    x170_5    _EAge_32  278.8818
    x170_5    Adj_137   1
    x170_5    Adj_141   1
    x170_5    Adj_239   1
    x170_5    Adj_243   1
    x170_5    Adj_247   1
    x170_5    Adj_251   1
    x171_4    OBJ       -52738.0917
    x171_4    AA_21     1
    x171_4    AA_25     1
    x171_4    AA_54     1
    x171_4    Sawti_H4  335.1248
    x171_4    _EAge_32  2.1266819999999996e+02
    x171_4    _EAge_51  1.9690676000000002e+02
    x171_4    Adj_128   1
    x171_4    Adj_132   1
    x171_4    Adj_136   1
    x171_4    Adj_148   1
    x171_5    OBJ       -39147.9288
    x171_5    AA_21     1
    x171_5    AA_25     1
    x171_5    AA_54     1
    x171_5    Sawti_H5  369.3926
    x171_5    _EAge_22  7.0233370000000008e+01
    x171_5    _EAge_32  425.3364
    x171_5    _EAge_51  295.36014
    x171_5    Adj_129   1
    x171_5    Adj_133   1
    x171_5    Adj_137   1
    x171_5    Adj_149   1
    x172_4    OBJ       -42819.1927
    x172_4    Adj_129   1
    x172_4    AA_21     1
    x172_4    AA_22     1
    x172_4    AA_54     1
    x172_4    Sawti_H4  272.8535
    x172_4    _EAge_32  2.1266819999999998e+02
    x172_4    Adj_128   1
    x172_4    Adj_132   1
    x172_4    Adj_136   1
    x172_5    OBJ       -32227.3576
    x172_5    Adj_128   1
    x172_5    AA_21     1
    x172_5    AA_22     1
    x172_5    AA_54     1
    x172_5    Sawti_H5  304.9824
    x172_5    _EAge_22  7.0233370000000008e+01
    x172_5    _EAge_32  522.70817
    x172_5    Adj_129   1
    x172_5    Adj_133   1
    x172_5    Adj_137   1
    x173_2    OBJ       -76103.8893
    x173_2    AA_53     1
    x173_2    AA_56     1
    x173_2    Sawti_H2  219.1763
    x173_2    Adj_240   1
    x173_2    Adj_244   1
    x173_2    Adj_248   1
    x173_3    OBJ       -58037.5331
    x173_3    AA_53     1
    x173_3    AA_56     1
    x173_3    Sawti_H3  248.6091
    x173_3    _EAge_31  1.7789419999999998e+02
    x173_3    _EAge_32  92.9606
    x173_3    Adj_112   1
    x173_3    Adj_241   1
    x173_3    Adj_245   1
    x173_3    Adj_249   1
    x173_4    OBJ       -43162.015
    x173_4    AA_53     1
    x173_4    AA_56     1
    x173_4    Sawti_H4  274.6135
    x173_4    _EAge_31  355.7884
    x173_4    _EAge_32  185.9212
    x173_4    Adj_113   1
    x173_4    Adj_238   1
    x173_4    Adj_242   1
    x173_4    Adj_246   1
    x173_4    Adj_250   1
    x173_5    OBJ       -31524.8802
    x173_5    AA_53     1
    x173_5    AA_56     1
    x173_5    Sawti_H5  297.6488
    x173_5    _EAge_31  533.6826
    x173_5    _EAge_32  278.8818
    x173_5    Adj_114   1
    x173_5    Adj_239   1
    x173_5    Adj_243   1
    x173_5    Adj_247   1
    x173_5    Adj_251   1
    x174_4    OBJ       -52985.5044
    x174_4    AA_21     1
    x174_4    AA_23     1
    x174_4    AA_54     1
    x174_4    Sawti_H4  337.0048
    x174_4    _EAge_31  221.1542
    x174_4    _EAge_32  2.1266819999999996e+02
    x174_4    Adj_128   1
    x174_4    Adj_132   1
    x174_4    Adj_136   1
    x174_4    Adj_140   1
    x174_4    Adj_144   1
    x174_5    OBJ       -39331.2368
    x174_5    AA_21     1
    x174_5    AA_23     1
    x174_5    AA_54     1
    x174_5    Sawti_H5  371.43
    x174_5    _EAge_22  7.0233370000000008e+01
    x174_5    _EAge_31  3.3173130000000003e+02
    x174_5    _EAge_32  425.3364
    x174_5    Adj_129   1
    x174_5    Adj_133   1
    x174_5    Adj_137   1
    x174_5    Adj_141   1
    x174_5    Adj_145   1
    x176_4    OBJ       -38913.5546
    x176_4    AA_22     1
    x176_4    AA_23     1
    x176_4    AA_54     1
    x176_4    Sawti_H4  246.7168
    x176_4    _EAge_31  221.1542
    x176_4    Adj_128   1
    x176_4    Adj_136   1
    x176_4    Adj_140   1
    x176_4    Adj_144   1
    x176_5    OBJ       -29042.6214
    x176_5    AA_22     1
    x176_5    AA_23     1
    x176_5    AA_54     1
    x176_5    Sawti_H5  273.528
    x176_5    _EAge_22  7.0233370000000008e+01
    x176_5    _EAge_31  3.3173130000000003e+02
    x176_5    _EAge_32  97.37177
    x176_5    Adj_129   1
    x176_5    Adj_137   1
    x176_5    Adj_141   1
    x176_5    Adj_145   1
    x177_2    OBJ       -69248.6357
    x177_2    AA_23     1
    x177_2    AA_52     1
    x177_2    Sawti_H2  200.1065
    x177_2    Adj_142   1
    x177_2    Adj_150   1
    x177_2    Adj_154   1
    x177_2    Adj_248   1
    x177_3    OBJ       -52830.4633
    x177_3    AA_23     1
    x177_3    AA_52     1
    x177_3    Sawti_H3  226.9807
    x177_3    _EAge_31  1.1057709999999999e+02
    x177_3    _EAge_32  1.5955020000000002e+02
    x177_3    Adj_143   1
    x177_3    Adj_151   1
    x177_3    Adj_155   1
    x177_3    Adj_249   1
    x177_4    OBJ       -39299.3281
    x177_4    AA_23     1
    x177_4    AA_52     1
    x177_4    Sawti_H4  250.7162
    x177_4    _EAge_31  221.1542
    x177_4    _EAge_32  319.1004
    x177_4    Adj_136   1
    x177_4    Adj_140   1
    x177_4    Adj_144   1
    x177_4    Adj_152   1
    x177_4    Adj_156   1
    x177_4    Adj_238   1
    x177_4    Adj_250   1
    x177_5    OBJ       -28709.9283
    x177_5    AA_23     1
    x177_5    AA_52     1
    x177_5    Sawti_H5  271.7513
    x177_5    _EAge_31  3.3173130000000003e+02
    x177_5    _EAge_32  478.6506
    x177_5    Adj_137   1
    x177_5    Adj_141   1
    x177_5    Adj_145   1
    x177_5    Adj_153   1
    x177_5    Adj_157   1
    x177_5    Adj_239   1
    x177_5    Adj_251   1
    x178_3    OBJ       -54129.681
    x178_3    AA_35     1
    x178_3    AA_78     1
    x178_3    Sawti_H3  233.2154
    x178_3    Adj_178   1
    x178_3    Adj_181   1
    x178_4    OBJ       -41331.1327
    x178_4    AA_35     1
    x178_4    AA_78     1
    x178_4    Sawti_H4  264.5411
    x178_4    _EAge_32  3.7159869999999995e+02
    x178_4    Adj_56    1
    x178_4    Adj_59    1
    x178_4    Adj_62    1
    x178_4    Adj_179   1
    x178_4    Adj_182   1
    x178_4    Adj_185   1
    x178_5    OBJ       -30761.6997
    x178_5    AA_35     1
    x178_5    AA_78     1
    x178_5    Sawti_H5  292.1881
    x178_5    _EAge_32  743.1974
    x178_5    Adj_57    1
    x178_5    Adj_60    1
    x178_5    Adj_63    1
    x178_5    Adj_180   1
    x178_5    Adj_183   1
    x178_5    Adj_186   1
    x179_2    OBJ       -115186.1088
    x179_2    AA_53     1
    x179_2    AA_61     1
    x179_2    Sawti_H2  331.3028
    x179_2    Adj_240   1
    x179_2    Adj_244   1
    x179_2    Adj_248   1
    x179_2    Adj_252   1
    x179_3    OBJ       -87828.7442
    x179_3    AA_53     1
    x179_3    AA_61     1
    x179_3    Sawti_H3  375.7917
    x179_3    _EAge_31  3.0191429999999997e+02
    x179_3    _EAge_32  92.9606
    x179_3    Adj_112   1
    x179_3    Adj_241   1
    x179_3    Adj_245   1
    x179_3    Adj_249   1
    x179_3    Adj_253   1
    x179_4    OBJ       -65311.2634
    x179_4    AA_53     1
    x179_4    AA_61     1
    x179_4    Sawti_H4  415.1034
    x179_4    _EAge_31  603.8286
    x179_4    _EAge_32  185.9212
    x179_4    Adj_113   1
    x179_4    Adj_238   1
    x179_4    Adj_242   1
    x179_4    Adj_246   1
    x179_4    Adj_250   1
    x179_4    Adj_254   1
    x179_5    OBJ       -47698.3455
    x179_5    AA_53     1
    x179_5    AA_61     1
    x179_5    Sawti_H5  449.9207
    x179_5    _EAge_31  905.7429
    x179_5    _EAge_32  278.8818
    x179_5    Adj_114   1
    x179_5    Adj_239   1
    x179_5    Adj_243   1
    x179_5    Adj_247   1
    x179_5    Adj_251   1
    x179_5    Adj_255   1
    x180_4    OBJ       -59421.7087
    x180_4    AA_66     1
    x180_4    AA_69     1
    x180_4    Sawti_H4  377.3871
    x180_4    _EAge_31  509.6562
    x180_4    Adj_266   1
    x180_4    Adj_270   1
    x180_4    Adj_272   1
    x180_5    OBJ       -43853.9409
    x180_5    AA_66     1
    x180_5    AA_69     1
    x180_5    Sawti_H5  413.5125
    x180_5    _EAge_31  7.6448430000000008e+02
    x180_5    _EAge_32  141.3607
    x180_5    Adj_267   1
    x180_5    Adj_271   1
    x180_5    Adj_273   1
    x181_4    OBJ       -25568.3168
    x181_4    AA_7      1
    x181_4    AA_9      1
    x181_4    Sawti_H4  163.7613
    x181_4    _EAge_32  3.0742409999999995e+02
    x181_4    Adj_36    1
    x181_4    Adj_41    1
    x181_4    Adj_45    1
    x181_4    Adj_56    1
    x181_4    Adj_59    1
    x181_4    Adj_62    1
    x181_5    OBJ       -18944.2902
    x181_5    AA_7      1
    x181_5    AA_9      1
    x181_5    Sawti_H5  180.0314
    x181_5    _EAge_32  531.6676
    x181_5    Adj_37    1
    x181_5    Adj_42    1
    x181_5    Adj_46    1
    x181_5    Adj_57    1
    x181_5    Adj_60    1
    x181_5    Adj_63    1
    x182_4    OBJ       -31821.3647
    x182_4    AA_15     1
    x182_4    AA_31     1
    x182_4    Sawti_H4  203.4734
    x182_4    _EAge_32  2.0771970000000005e+02
    x182_4    Adj_106   1
    x182_4    Adj_172   1
    x182_5    OBJ       -23851.9304
    x182_5    AA_15     1
    x182_5    AA_31     1
    x182_5    Sawti_H5  226.3957
    x182_5    _EAge_32  504.02724
    x182_5    Adj_107   1
    x182_5    Adj_173   1
    x183_2    OBJ       -71201.6419
    x183_2    AA_45     1
    x183_2    AA_46     1
    x183_2    Sawti_H2  207.2422
    x183_2    Adj_220   1
    x183_3    OBJ       -54366.5591
    x183_3    Adj_220   1
    x183_3    AA_45     1
    x183_3    AA_46     1
    x183_3    Sawti_H3  235.0793
    x183_3    _EAge_32  330.2139
    x183_3    Adj_210   1
    x183_3    Adj_221   1
    x183_3    Adj_225   1
    x183_4    OBJ       -40463.6327
    x183_4    Adj_220   1
    x183_4    AA_45     1
    x183_4    AA_46     1
    x183_4    Sawti_H4  259.6472
    x183_4    _EAge_32  6.6042779999999993e+02
    x183_4    Adj_211   1
    x183_4    Adj_222   1
    x183_4    Adj_226   1
    x183_5    OBJ       -29574.4517
    x183_5    Adj_220   1
    x183_5    AA_45     1
    x183_5    AA_46     1
    x183_5    Sawti_H5  281.4413
    x183_5    _EAge_32  9.9064169999999990e+02
    x183_5    Adj_212   1
    x183_5    Adj_223   1
    x183_5    Adj_227   1
    x184_4    OBJ       -33237.0874
    x184_4    AA_21     1
    x184_4    AA_54     1
    x184_4    Sawti_H4  211.743
    x184_4    _EAge_32  2.1266819999999996e+02
    x184_4    Adj_128   1
    x184_4    Adj_132   1
    x184_4    Adj_136   1
    x184_5    OBJ       -24910.8677
    x184_5    AA_21     1
    x184_5    AA_54     1
    x184_5    Sawti_H5  235.6634
    x184_5    _EAge_22  7.0233370000000008e+01
    x184_5    _EAge_32  425.3364
    x184_5    Adj_129   1
    x184_5    Adj_133   1
    x184_5    Adj_137   1
    x185_3    OBJ       -58739.758
    x185_3    AA_45     1
    x185_3    AA_47     1
    x185_3    Sawti_H3  253.6518
    x185_3    _EAge_32  2.2482559999999998e+02
    x185_3    Adj_210   1
    x185_3    Adj_213   1
    x185_3    Adj_221   1
    x185_3    Adj_225   1
    x185_4    OBJ       -44137.4114
    x185_4    AA_45     1
    x185_4    AA_47     1
    x185_4    Sawti_H4  282.9511
    x185_4    _EAge_32  5.9878849999999989e+02
    x185_4    Adj_211   1
    x185_4    Adj_214   1
    x185_4    Adj_222   1
    x185_4    Adj_226   1
    x185_5    OBJ       -32481.6002
    x185_5    AA_45     1
    x185_5    AA_47     1
    x185_5    Sawti_H5  308.8854
    x185_5    _EAge_32  9.7275139999999988e+02
    x185_5    Adj_212   1
    x185_5    Adj_215   1
    x185_5    Adj_223   1
    x185_5    Adj_227   1
    x186_4    OBJ       -33224.4624
    x186_4    AA_5      1
    x186_4    AA_83     1
    x186_4    Sawti_H4  212.3488
    x186_4    _EAge_32  2.0165508000000011e+02
    x186_4    Adj_23    1
    x186_4    Adj_27    1
    x186_4    Adj_288   1
    x186_4    Adj_300   1
    x186_5    OBJ       -24989.2637
    x186_5    AA_5      1
    x186_5    AA_83     1
    x186_5    Sawti_H5  237.1155
    x186_5    _EAge_32  5.1593943999999988e+02
    x186_5    Adj_24    1
    x186_5    Adj_28    1
    x186_5    Adj_289   1
    x186_5    Adj_301   1
    x187_2    OBJ       -87656.3906
    x187_2    Adj_28    1
    x187_2    Adj_27    1
    x187_2    Adj_26    1
    x187_2    AA_5      1
    x187_2    AA_85     1
    x187_2    AA_88     1
    x187_2    Sawti_H2  255.3078
    x187_2    _EAge_32  6.7218359999999990e+01
    x187_2    Adj_25    1
    x187_2    Adj_290   1
    x187_2    Adj_294   1
    x187_2    Adj_306   1
    x187_3    OBJ       -66614.8152
    x187_3    Adj_28    1
    x187_3    Adj_27    1
    x187_3    Adj_25    1
    x187_3    AA_5      1
    x187_3    AA_85     1
    x187_3    AA_88     1
    x187_3    Sawti_H3  288.1744
    x187_3    _EAge_32  464.98962
    x187_3    Adj_26    1
    x187_3    Adj_291   1
    x187_3    Adj_295   1
    x187_3    Adj_307   1
    x187_4    OBJ       -49416.5036
    x187_4    Adj_28    1
    x187_4    Adj_26    1
    x187_4    Adj_25    1
    x187_4    AA_5      1
    x187_4    AA_85     1
    x187_4    AA_88     1
    x187_4    Sawti_H4  317.204
    x187_4    _EAge_32  8.6276087999999982e+02
    x187_4    Adj_23    1
    x187_4    Adj_27    1
    x187_4    Adj_288   1
    x187_4    Adj_292   1
    x187_4    Adj_296   1
    x187_4    Adj_308   1
    x187_5    OBJ       -36029.5987
    x187_5    Adj_27    1
    x187_5    Adj_26    1
    x187_5    Adj_25    1
    x187_5    AA_5      1
    x187_5    AA_85     1
    x187_5    AA_88     1
    x187_5    Sawti_H5  342.9594
    x187_5    _EAge_32  1.2605321399999998e+03
    x187_5    Adj_24    1
    x187_5    Adj_28    1
    x187_5    Adj_289   1
    x187_5    Adj_293   1
    x187_5    Adj_297   1
    x187_5    Adj_309   1
    x188_2    OBJ       -54447.0922
    x188_2    AA_52     1
    x188_2    AA_53     1
    x188_2    Sawti_H2  158.4758
    x188_2    Adj_142   1
    x188_2    Adj_150   1
    x188_2    Adj_154   1
    x188_2    Adj_240   1
    x188_2    Adj_244   1
    x188_2    Adj_248   1
    x188_3    OBJ       -41573.4943
    x188_3    AA_52     1
    x188_3    AA_53     1
    x188_3    Sawti_H3  179.7624
    x188_3    _EAge_32  2.5251080000000002e+02
    x188_3    Adj_143   1
    x188_3    Adj_151   1
    x188_3    Adj_155   1
    x188_3    Adj_241   1
    x188_3    Adj_245   1
    x188_3    Adj_249   1
    x188_4    OBJ       -30942.0834
    x188_4    AA_52     1
    x188_4    AA_53     1
    x188_4    Sawti_H4  198.5493
    x188_4    _EAge_32  5.0502160000000009e+02
    x188_4    Adj_140   1
    x188_4    Adj_144   1
    x188_4    Adj_152   1
    x188_4    Adj_156   1
    x188_4    Adj_238   1
    x188_4    Adj_242   1
    x188_4    Adj_246   1
    x188_4    Adj_250   1
    x188_5    OBJ       -22615.2495
    x188_5    AA_52     1
    x188_5    AA_53     1
    x188_5    Sawti_H5  215.215
    x188_5    _EAge_32  757.5324
    x188_5    Adj_141   1
    x188_5    Adj_145   1
    x188_5    Adj_153   1
    x188_5    Adj_157   1
    x188_5    Adj_239   1
    x188_5    Adj_243   1
    x188_5    Adj_247   1
    x188_5    Adj_251   1
    x189_2    OBJ       -51647.5025
    x189_2    AA_5      1
    x189_2    AA_85     1
    x189_2    Sawti_H2  150.4989
    x189_2    _EAge_32  6.7218359999999990e+01
    x189_2    Adj_25    1
    x189_2    Adj_290   1
    x189_2    Adj_294   1
    x189_3    OBJ       -39119.9528
    x189_3    AA_5      1
    x189_3    AA_85     1
    x189_3    Sawti_H3  169.2875
    x189_3    _EAge_32  297.99012
    x189_3    Adj_26    1
    x189_3    Adj_291   1
    x189_3    Adj_295   1
    x189_4    OBJ       -28952.7842
    x189_4    AA_5      1
    x189_4    AA_85     1
    x189_4    Sawti_H4  185.8923
    x189_4    _EAge_32  528.76188
    x189_4    Adj_23    1
    x189_4    Adj_27    1
    x189_4    Adj_288   1
    x189_4    Adj_292   1
    x189_4    Adj_296   1
    x189_5    OBJ       -21072.8773
    x189_5    AA_5      1
    x189_5    AA_85     1
    x189_5    Sawti_H5  200.6258
    x189_5    _EAge_32  759.53364
    x189_5    Adj_24    1
    x189_5    Adj_28    1
    x189_5    Adj_289   1
    x189_5    Adj_293   1
    x189_5    Adj_297   1
    x190_4    OBJ       -51255.3526
    x190_4    AA_52     1
    x190_4    AA_55     1
    x190_4    Sawti_H4  325.0978
    x190_4    _EAge_32  319.1004
    x190_4    Adj_136   1
    x190_4    Adj_140   1
    x190_4    Adj_144   1
    x190_4    Adj_152   1
    x190_4    Adj_156   1
    x190_4    Adj_238   1
    x190_4    Adj_250   1
    x190_5    OBJ       -38459.896
    x190_5    AA_52     1
    x190_5    AA_55     1
    x190_5    Sawti_H5  362.4191
    x190_5    _EAge_22  232.3596
    x190_5    _EAge_32  478.6506
    x190_5    Adj_137   1
    x190_5    Adj_141   1
    x190_5    Adj_145   1
    x190_5    Adj_153   1
    x190_5    Adj_157   1
    x190_5    Adj_239   1
    x190_5    Adj_251   1
    x191_4    OBJ       -33363.8641
    x191_4    AA_30     1
    x191_4    AA_31     1
    x191_4    Sawti_H4  212.7803
    x191_4    Adj_106   1
    x191_4    Adj_172   1
    x191_5    OBJ       -25475.234
    x191_5    AA_30     1
    x191_5    AA_31     1
    x191_5    Sawti_H5  241.3612
    x191_5    _EAge_32  3.3903803999999991e+02
    x191_5    Adj_107   1
    x191_5    Adj_173   1
    x192_2    OBJ       -52390.5442
    x192_2    AA_5      1
    x192_2    AA_88     1
    x192_2    Sawti_H2  152.6617
    x192_2    _EAge_32  6.7218359999999990e+01
    x192_2    Adj_25    1
    x192_2    Adj_294   1
    x192_2    Adj_306   1
    x192_3    OBJ       -39687.308
    x192_3    AA_5      1
    x192_3    AA_88     1
    x192_3    Sawti_H3  171.7407
    x192_3    _EAge_32  301.43622
    x192_3    Adj_26    1
    x192_3    Adj_295   1
    x192_3    Adj_307   1
    x192_4    OBJ       -29375.0521
    x192_4    AA_5      1
    x192_4    AA_88     1
    x192_4    Sawti_H4  188.6019
    x192_4    _EAge_32  535.65408
    x192_4    Adj_23    1
    x192_4    Adj_27    1
    x192_4    Adj_296   1
    x192_4    Adj_308   1
    x192_5    OBJ       -21381.5086
    x192_5    AA_5      1
    x192_5    AA_88     1
    x192_5    Sawti_H5  203.5628
    x192_5    _EAge_32  769.87194
    x192_5    Adj_24    1
    x192_5    Adj_28    1
    x192_5    Adj_297   1
    x192_5    Adj_309   1
    x193_2    OBJ       -84182.2293
    x193_2    AA_27     1
    x193_2    AA_52     1
    x193_2    AA_53     1
    x193_2    Sawti_H2  245.024
    x193_2    Adj_142   1
    x193_2    Adj_150   1
    x193_2    Adj_154   1
    x193_2    Adj_158   1
    x193_2    Adj_240   1
    x193_2    Adj_244   1
    x193_2    Adj_248   1
    x193_3    OBJ       -64277.9861
    x193_3    AA_27     1
    x193_3    AA_52     1
    x193_3    AA_53     1
    x193_3    Sawti_H3  277.9359
    x193_3    _EAge_32  3.9041429999999991e+02
    x193_3    Adj_143   1
    x193_3    Adj_151   1
    x193_3    Adj_155   1
    x193_3    Adj_159   1
    x193_3    Adj_241   1
    x193_3    Adj_245   1
    x193_3    Adj_249   1
    x193_4    OBJ       -47840.4531
    x193_4    AA_27     1
    x193_4    AA_52     1
    x193_4    AA_53     1
    x193_4    Sawti_H4  306.9828
    x193_4    _EAge_32  780.8286
    x193_4    Adj_140   1
    x193_4    Adj_144   1
    x193_4    Adj_152   1
    x193_4    Adj_156   1
    x193_4    Adj_160   1
    x193_4    Adj_238   1
    x193_4    Adj_242   1
    x193_4    Adj_246   1
    x193_4    Adj_250   1
    x193_5    OBJ       -34966.0936
    x193_5    AA_27     1
    x193_5    AA_52     1
    x193_5    AA_53     1
    x193_5    Sawti_H5  332.7501
    x193_5    _EAge_32  1171.2429
    x193_5    Adj_141   1
    x193_5    Adj_145   1
    x193_5    Adj_153   1
    x193_5    Adj_157   1
    x193_5    Adj_161   1
    x193_5    Adj_239   1
    x193_5    Adj_243   1
    x193_5    Adj_247   1
    x193_5    Adj_251   1
    x194_3    OBJ       -54830.0657
    x194_3    Adj_202   1
    x194_3    Adj_201   1
    x194_3    AA_36     1
    x194_3    AA_37     1
    x194_3    Sawti_H3  236.233
    x194_3    Adj_200   1
    x194_3    Adj_203   1
    x194_4    OBJ       -41865.9167
    x194_4    Adj_202   1
    x194_4    Adj_200   1
    x194_4    AA_36     1
    x194_4    AA_37     1
    x194_4    Sawti_H4  267.964
    x194_4    _EAge_32  3.7640680000000003e+02
    x194_4    Adj_201   1
    x194_4    Adj_204   1
    x194_5    OBJ       -31159.7258
    x194_5    Adj_201   1
    x194_5    Adj_200   1
    x194_5    AA_36     1
    x194_5    AA_37     1
    x194_5    Sawti_H5  295.9687
    x194_5    _EAge_32  752.8136
    x194_5    Adj_202   1
    x194_5    Adj_205   1
    x196_2    OBJ       -123401.5705
    x196_2    Adj_264   1
    x196_2    AA_67     1
    x196_2    AA_70     1
    x196_2    Sawti_H2  354.0381
    x196_2    Adj_190   1
    x196_2    Adj_268   1
    x196_2    Adj_274   1
    x196_3    OBJ       -94065.3395
    x196_3    Adj_265   1
    x196_3    AA_67     1
    x196_3    AA_70     1
    x196_3    Sawti_H3  401.5774
    x196_3    _EAge_31  391.5918
    x196_3    Adj_91    1
    x196_3    Adj_100   1
    x196_3    Adj_191   1
    x196_3    Adj_269   1
    x196_3    Adj_275   1
    x196_4    OBJ       -69935.9474
    x196_4    Adj_266   1
    x196_4    AA_67     1
    x196_4    AA_70     1
    x196_4    Sawti_H4  443.5951
    x196_4    _EAge_31  7.8318360000000007e+02
    x196_4    Adj_88    1
    x196_4    Adj_92    1
    x196_4    Adj_101   1
    x196_4    Adj_192   1
    x196_4    Adj_270   1
    x196_4    Adj_276   1
    x196_4    Adj_280   1
    x196_5    OBJ       -51067.4943
    x196_5    Adj_267   1
    x196_5    AA_67     1
    x196_5    AA_70     1
    x196_5    Sawti_H5  480.7963
    x196_5    _EAge_31  1174.7754
    x196_5    Adj_89    1
    x196_5    Adj_93    1
    x196_5    Adj_102   1
    x196_5    Adj_193   1
    x196_5    Adj_271   1
    x196_5    Adj_277   1
    x196_5    Adj_281   1
    x197_4    OBJ       -44354.9061
    x197_4    AA_1      1
    x197_4    AA_84     1
    x197_4    AA_86     1
    x197_4    Sawti_H4  283.8975
    x197_4    _EAge_32  4.3446929000000006e+02
    x197_4    Adj_3     1
    x197_4    Adj_7     1
    x197_4    Adj_300   1
    x197_4    Adj_304   1
    x197_4    Adj_312   1
    x197_5    OBJ       -33018.6968
    x197_5    AA_1      1
    x197_5    AA_84     1
    x197_5    AA_86     1
    x197_5    Sawti_H5  313.6301
    x197_5    _EAge_32  8.3312451999999985e+02
    x197_5    Adj_4     1
    x197_5    Adj_8     1
    x197_5    Adj_301   1
    x197_5    Adj_305   1
    x197_5    Adj_313   1
    x198_3    OBJ       -48885.2313
    x198_3    AA_7      1
    x198_3    AA_34     1
    x198_3    Sawti_H3  211.1125
    x198_3    _EAge_32  2.0494940000000003e+02
    x198_3    Adj_35    1
    x198_3    Adj_40    1
    x198_3    Adj_178   1
    x198_4    OBJ       -36719.479
    x198_4    AA_7      1
    x198_4    AA_34     1
    x198_4    Sawti_H4  235.4098
    x198_4    _EAge_32  515.4176
    x198_4    Adj_36    1
    x198_4    Adj_41    1
    x198_4    Adj_45    1
    x198_4    Adj_59    1
    x198_4    Adj_179   1
    x198_5    OBJ       -27012.742
    x198_5    AA_7      1
    x198_5    AA_34     1
    x198_5    Sawti_H5  256.8895
    x198_5    _EAge_32  825.8858
    x198_5    Adj_37    1
    x198_5    Adj_42    1
    x198_5    Adj_46    1
    x198_5    Adj_60    1
    x198_5    Adj_180   1
    x199_2    OBJ       -119830.8883
    x199_2    AA_67     1
    x199_2    AA_71     1
    x199_2    Sawti_H2  343.7938
    x199_2    Adj_190   1
    x199_2    Adj_274   1
    x199_3    OBJ       -91343.5149
    x199_3    AA_67     1
    x199_3    AA_71     1
    x199_3    Sawti_H3  389.9576
    x199_3    _EAge_31  380.2609
    x199_3    Adj_91    1
    x199_3    Adj_100   1
    x199_3    Adj_191   1
    x199_3    Adj_275   1
    x199_4    OBJ       -67912.318
    x199_4    AA_67     1
    x199_4    AA_71     1
    x199_4    Sawti_H4  430.7595
    x199_4    _EAge_31  760.5218
    x199_4    Adj_88    1
    x199_4    Adj_92    1
    x199_4    Adj_101   1
    x199_4    Adj_192   1
    x199_4    Adj_276   1
    x199_4    Adj_280   1
    x199_5    OBJ       -49589.8324
    x199_5    AA_67     1
    x199_5    AA_71     1
    x199_5    Sawti_H5  466.8843
    x199_5    _EAge_31  1140.7827
    x199_5    Adj_89    1
    x199_5    Adj_93    1
    x199_5    Adj_102   1
    x199_5    Adj_193   1
    x199_5    Adj_277   1
    x199_5    Adj_281   1
    MARKER    'MARKER'                 'INTEND'
    H_1       Sawti_H1  -1
    H_1       Flct_1    0.8
    H_1       Flct_5    -1.2
    H_2       Sawti_H2  -1
    H_2       Flct_1    -1
    H_2       Flct_5    1
    H_2       Flct_2    0.8
    H_2       Flct_6    -1.2
    H_3       Sawti_H3  -1
    H_3       Flct_2    -1
    H_3       Flct_6    1
    H_3       Flct_3    0.8
    H_3       Flct_7    -1.2
    H_4       Sawti_H4  -1
    H_4       Flct_3    -1
    H_4       Flct_7    1
    H_4       Flct_4    0.8
    H_4       Flct_8    -1.2
    H_5       Sawti_H5  -1
    H_5       Flct_4    -1
    H_5       Flct_8    1
RHS
    RHS1      OBJ       1.0341310299999999e+05
    RHS1      AA_1      1
    RHS1      AA_2      1
    RHS1      AA_3      1
    RHS1      AA_4      1
    RHS1      AA_5      1
    RHS1      AA_6      1
    RHS1      AA_7      1
    RHS1      AA_8      1
    RHS1      AA_9      1
    RHS1      AA_10     1
    RHS1      AA_11     1
    RHS1      AA_13     1
    RHS1      AA_14     1
    RHS1      AA_15     1
    RHS1      AA_17     1
    RHS1      AA_18     1
    RHS1      AA_20     1
    RHS1      AA_21     1
    RHS1      AA_22     1
    RHS1      AA_23     1
    RHS1      AA_24     1
    RHS1      AA_25     1
    RHS1      AA_26     1
    RHS1      AA_27     1
    RHS1      AA_28     1
    RHS1      AA_29     1
    RHS1      AA_30     1
    RHS1      AA_31     1
    RHS1      AA_32     1
    RHS1      AA_33     1
    RHS1      AA_34     1
    RHS1      AA_35     1
    RHS1      AA_36     1
    RHS1      AA_37     1
    RHS1      AA_38     1
    RHS1      AA_39     1
    RHS1      AA_40     1
    RHS1      AA_41     1
    RHS1      AA_42     1
    RHS1      AA_43     1
    RHS1      AA_44     1
    RHS1      AA_45     1
    RHS1      AA_46     1
    RHS1      AA_47     1
    RHS1      AA_48     1
    RHS1      AA_49     1
    RHS1      AA_50     1
    RHS1      AA_51     1
    RHS1      AA_52     1
    RHS1      AA_53     1
    RHS1      AA_54     1
    RHS1      AA_55     1
    RHS1      AA_56     1
    RHS1      AA_57     1
    RHS1      AA_58     1
    RHS1      AA_59     1
    RHS1      AA_60     1
    RHS1      AA_61     1
    RHS1      AA_64     1
    RHS1      AA_65     1
    RHS1      AA_66     1
    RHS1      AA_67     1
    RHS1      AA_68     1
    RHS1      AA_69     1
    RHS1      AA_70     1
    RHS1      AA_71     1
    RHS1      AA_72     1
    RHS1      AA_73     1
    RHS1      AA_74     1
    RHS1      AA_76     1
    RHS1      AA_77     1
    RHS1      AA_78     1
    RHS1      AA_79     1
    RHS1      AA_80     1
    RHS1      AA_81     1
    RHS1      AA_82     1
    RHS1      AA_83     1
    RHS1      AA_84     1
    RHS1      AA_85     1
    RHS1      AA_86     1
    RHS1      AA_87     1
    RHS1      AA_88     1
    RHS1      AA_89     1
    RHS1      AA_90     1
    RHS1      _EAge_22  -1079.50988
    RHS1      _EAge_31  -7.9258122499999968e+02
    RHS1      _EAge_32  -7887.74594
    RHS1      _EAge_51  -1.0595304600000002e+03
    RHS1      _EAge_53  -681.5712
    RHS1      Adj_1     1
    RHS1      Adj_2     1
    RHS1      Adj_3     1
    RHS1      Adj_4     1
    RHS1      Adj_7     1
    RHS1      Adj_8     1
    RHS1      Adj_9     1
    RHS1      Adj_10    1
    RHS1      Adj_11    1
    RHS1      Adj_12    1
    RHS1      Adj_15    1
    RHS1      Adj_16    1
    RHS1      Adj_17    1
    RHS1      Adj_18    1
    RHS1      Adj_19    1
    RHS1      Adj_20    1
    RHS1      Adj_23    1
    RHS1      Adj_24    1
    RHS1      Adj_25    1
    RHS1      Adj_26    1
    RHS1      Adj_27    1
    RHS1      Adj_28    1
    RHS1      Adj_29    1
    RHS1      Adj_30    1
    RHS1      Adj_31    1
    RHS1      Adj_32    1
    RHS1      Adj_34    1
    RHS1      Adj_35    1
    RHS1      Adj_36    1
    RHS1      Adj_37    1
    RHS1      Adj_38    1
    RHS1      Adj_40    1
    RHS1      Adj_41    1
    RHS1      Adj_42    1
    RHS1      Adj_45    1
    RHS1      Adj_46    1
    RHS1      Adj_47    1
    RHS1      Adj_48    1
    RHS1      Adj_49    1
    RHS1      Adj_50    1
    RHS1      Adj_51    1
    RHS1      Adj_52    1
    RHS1      Adj_53    1
    RHS1      Adj_54    1
    RHS1      Adj_56    1
    RHS1      Adj_57    1
    RHS1      Adj_59    1
    RHS1      Adj_60    1
    RHS1      Adj_62    1
    RHS1      Adj_63    1
    RHS1      Adj_64    1
    RHS1      Adj_65    1
    RHS1      Adj_68    1
    RHS1      Adj_69    1
    RHS1      Adj_70    1
    RHS1      Adj_71    1
    RHS1      Adj_73    1
    RHS1      Adj_74    1
    RHS1      Adj_75    1
    RHS1      Adj_76    1
    RHS1      Adj_77    1
    RHS1      Adj_79    1
    RHS1      Adj_80    1
    RHS1      Adj_81    1
    RHS1      Adj_83    1
    RHS1      Adj_84    1
    RHS1      Adj_85    1
    RHS1      Adj_88    1
    RHS1      Adj_89    1
    RHS1      Adj_91    1
    RHS1      Adj_92    1
    RHS1      Adj_93    1
    RHS1      Adj_95    1
    RHS1      Adj_96    1
    RHS1      Adj_97    1
    RHS1      Adj_98    1
    RHS1      Adj_100   1
    RHS1      Adj_101   1
    RHS1      Adj_102   1
    RHS1      Adj_103   1
    RHS1      Adj_104   1
    RHS1      Adj_105   1
    RHS1      Adj_106   1
    RHS1      Adj_107   1
    RHS1      Adj_112   1
    RHS1      Adj_113   1
    RHS1      Adj_114   1
    RHS1      Adj_116   1
    RHS1      Adj_117   1
    RHS1      Adj_118   1
    RHS1      Adj_120   1
    RHS1      Adj_121   1
    RHS1      Adj_125   1
    RHS1      Adj_126   1
    RHS1      Adj_128   1
    RHS1      Adj_129   1
    RHS1      Adj_131   1
    RHS1      Adj_132   1
    RHS1      Adj_133   1
    RHS1      Adj_136   1
    RHS1      Adj_137   1
    RHS1      Adj_140   1
    RHS1      Adj_141   1
    RHS1      Adj_142   1
    RHS1      Adj_143   1
    RHS1      Adj_144   1
    RHS1      Adj_145   1
    RHS1      Adj_146   1
    RHS1      Adj_147   1
    RHS1      Adj_148   1
    RHS1      Adj_149   1
    RHS1      Adj_150   1
    RHS1      Adj_151   1
    RHS1      Adj_152   1
    RHS1      Adj_153   1
    RHS1      Adj_154   1
    RHS1      Adj_155   1
    RHS1      Adj_156   1
    RHS1      Adj_157   1
    RHS1      Adj_158   1
    RHS1      Adj_159   1
    RHS1      Adj_160   1
    RHS1      Adj_161   1
    RHS1      Adj_163   1
    RHS1      Adj_164   1
    RHS1      Adj_165   1
    RHS1      Adj_166   1
    RHS1      Adj_167   1
    RHS1      Adj_168   1
    RHS1      Adj_169   1
    RHS1      Adj_170   1
    RHS1      Adj_171   1
    RHS1      Adj_172   1
    RHS1      Adj_173   1
    RHS1      Adj_178   1
    RHS1      Adj_179   1
    RHS1      Adj_180   1
    RHS1      Adj_181   1
    RHS1      Adj_182   1
    RHS1      Adj_183   1
    RHS1      Adj_185   1
    RHS1      Adj_186   1
    RHS1      Adj_188   1
    RHS1      Adj_189   1
    RHS1      Adj_190   1
    RHS1      Adj_191   1
    RHS1      Adj_192   1
    RHS1      Adj_193   1
    RHS1      Adj_196   1
    RHS1      Adj_199   1
    RHS1      Adj_200   1
    RHS1      Adj_201   1
    RHS1      Adj_202   1
    RHS1      Adj_203   1
    RHS1      Adj_204   1
    RHS1      Adj_205   1
    RHS1      Adj_206   1
    RHS1      Adj_207   1
    RHS1      Adj_208   1
    RHS1      Adj_210   1
    RHS1      Adj_211   1
    RHS1      Adj_212   1
    RHS1      Adj_213   1
    RHS1      Adj_214   1
    RHS1      Adj_215   1
    RHS1      Adj_216   1
    RHS1      Adj_217   1
    RHS1      Adj_218   1
    RHS1      Adj_219   1
    RHS1      Adj_220   1
    RHS1      Adj_221   1
    RHS1      Adj_222   1
    RHS1      Adj_223   1
    RHS1      Adj_225   1
    RHS1      Adj_226   1
    RHS1      Adj_227   1
    RHS1      Adj_228   1
    RHS1      Adj_229   1
    RHS1      Adj_230   1
    RHS1      Adj_231   1
    RHS1      Adj_232   1
    RHS1      Adj_233   1
    RHS1      Adj_234   1
    RHS1      Adj_235   1
    RHS1      Adj_238   1
    RHS1      Adj_239   1
    RHS1      Adj_240   1
    RHS1      Adj_241   1
    RHS1      Adj_242   1
    RHS1      Adj_243   1
    RHS1      Adj_244   1
    RHS1      Adj_245   1
    RHS1      Adj_246   1
    RHS1      Adj_247   1
    RHS1      Adj_248   1
    RHS1      Adj_249   1
    RHS1      Adj_250   1
    RHS1      Adj_251   1
    RHS1      Adj_252   1
    RHS1      Adj_253   1
    RHS1      Adj_254   1
    RHS1      Adj_255   1
    RHS1      Adj_256   1
    RHS1      Adj_257   1
    RHS1      Adj_258   1
    RHS1      Adj_259   1
    RHS1      Adj_260   1
    RHS1      Adj_261   1
    RHS1      Adj_262   1
    RHS1      Adj_263   1
    RHS1      Adj_264   1
    RHS1      Adj_265   1
    RHS1      Adj_266   1
    RHS1      Adj_267   1
    RHS1      Adj_268   1
    RHS1      Adj_269   1
    RHS1      Adj_270   1
    RHS1      Adj_271   1
    RHS1      Adj_272   1
    RHS1      Adj_273   1
    RHS1      Adj_274   1
    RHS1      Adj_275   1
    RHS1      Adj_276   1
    RHS1      Adj_277   1
    RHS1      Adj_280   1
    RHS1      Adj_281   1
    RHS1      Adj_282   1
    RHS1      Adj_283   1
    RHS1      Adj_284   1
    RHS1      Adj_285   1
    RHS1      Adj_288   1
    RHS1      Adj_289   1
    RHS1      Adj_290   1
    RHS1      Adj_291   1
    RHS1      Adj_292   1
    RHS1      Adj_293   1
    RHS1      Adj_294   1
    RHS1      Adj_295   1
    RHS1      Adj_296   1
    RHS1      Adj_297   1
    RHS1      Adj_300   1
    RHS1      Adj_301   1
    RHS1      Adj_302   1
    RHS1      Adj_303   1
    RHS1      Adj_304   1
    RHS1      Adj_305   1
    RHS1      Adj_306   1
    RHS1      Adj_307   1
    RHS1      Adj_308   1
    RHS1      Adj_309   1
    RHS1      Adj_310   1
    RHS1      Adj_311   1
    RHS1      Adj_312   1
    RHS1      Adj_313   1
BOUNDS
 BV BND1      x1_0    
 BV BND1      x1_1    
 BV BND1      x1_2    
 BV BND1      x1_3    
 BV BND1      x1_4    
 BV BND1      x1_5    
 BV BND1      x2_0    
 BV BND1      x2_1    
 BV BND1      x2_2    
 BV BND1      x2_3    
 BV BND1      x2_4    
 BV BND1      x2_5    
 BV BND1      x3_0    
 BV BND1      x3_4    
 BV BND1      x3_5    
 BV BND1      x4_0    
 BV BND1      x4_1    
 BV BND1      x4_2    
 BV BND1      x4_3    
 BV BND1      x4_4    
 BV BND1      x4_5    
 BV BND1      x5_0    
 BV BND1      x5_1    
 BV BND1      x5_2    
 BV BND1      x5_3    
 BV BND1      x5_4    
 BV BND1      x5_5    
 BV BND1      x6_0    
 BV BND1      x6_2    
 BV BND1      x6_3    
 BV BND1      x6_4    
 BV BND1      x6_5    
 BV BND1      x7_0    
 BV BND1      x7_1    
 BV BND1      x7_2    
 BV BND1      x7_3    
 BV BND1      x7_4    
 BV BND1      x7_5    
 BV BND1      x8_0    
 BV BND1      x8_1    
 BV BND1      x8_2    
 BV BND1      x8_3    
 BV BND1      x8_4    
 BV BND1      x8_5    
 BV BND1      x9_0    
 BV BND1      x9_4    
 BV BND1      x9_5    
 BV BND1      x10_0   
 BV BND1      x10_2   
 BV BND1      x10_3   
 BV BND1      x10_4   
 BV BND1      x10_5   
 BV BND1      x11_0   
 BV BND1      x11_3   
 BV BND1      x11_4   
 BV BND1      x11_5   
 BV BND1      x13_0   
 BV BND1      x13_3   
 BV BND1      x13_4   
 BV BND1      x13_5   
 BV BND1      x14_0   
 BV BND1      x14_2   
 BV BND1      x14_3   
 BV BND1      x14_4   
 BV BND1      x14_5   
 BV BND1      x15_0   
 BV BND1      x15_3   
 BV BND1      x15_4   
 BV BND1      x15_5   
 BV BND1      x17_0   
 BV BND1      x17_3   
 BV BND1      x17_4   
 BV BND1      x17_5   
 BV BND1      x18_0   
 BV BND1      x18_4   
 BV BND1      x18_5   
 BV BND1      x19_1   
 BV BND1      x20_3   
 BV BND1      x20_4   
 BV BND1      x20_5   
 BV BND1      x21_0   
 BV BND1      x21_3   
 BV BND1      x21_4   
 BV BND1      x21_5   
 BV BND1      x22_0   
 BV BND1      x22_4   
 BV BND1      x22_5   
 BV BND1      x23_0   
 BV BND1      x23_2   
 BV BND1      x23_3   
 BV BND1      x23_4   
 BV BND1      x23_5   
 BV BND1      x24_0   
 BV BND1      x24_2   
 BV BND1      x24_3   
 BV BND1      x24_4   
 BV BND1      x24_5   
 BV BND1      x25_0   
 BV BND1      x25_2   
 BV BND1      x25_3   
 BV BND1      x25_4   
 BV BND1      x25_5   
 BV BND1      x26_0   
 BV BND1      x26_2   
 BV BND1      x26_3   
 BV BND1      x26_4   
 BV BND1      x26_5   
 BV BND1      x27_0   
 BV BND1      x27_2   
 BV BND1      x27_3   
 BV BND1      x27_4   
 BV BND1      x27_5   
 BV BND1      x28_0   
 BV BND1      x28_1   
 BV BND1      x28_2   
 BV BND1      x28_3   
 BV BND1      x28_4   
 BV BND1      x28_5   
 BV BND1      x29_0   
 BV BND1      x29_1   
 BV BND1      x29_2   
 BV BND1      x29_3   
 BV BND1      x29_4   
 BV BND1      x29_5   
 BV BND1      x30_0   
 BV BND1      x30_4   
 BV BND1      x30_5   
 BV BND1      x31_0   
 BV BND1      x31_4   
 BV BND1      x31_5   
 BV BND1      x32_0   
 BV BND1      x32_4   
 BV BND1      x32_5   
 BV BND1      x33_4   
 BV BND1      x33_5   
 BV BND1      x34_0   
 BV BND1      x34_3   
 BV BND1      x34_4   
 BV BND1      x34_5   
 BV BND1      x35_0   
 BV BND1      x35_3   
 BV BND1      x35_4   
 BV BND1      x35_5   
 BV BND1      x36_0   
 BV BND1      x36_3   
 BV BND1      x36_4   
 BV BND1      x36_5   
 BV BND1      x37_0   
 BV BND1      x37_3   
 BV BND1      x37_4   
 BV BND1      x37_5   
 BV BND1      x38_0   
 BV BND1      x38_5   
 BV BND1      x39_0   
 BV BND1      x39_5   
 BV BND1      x40_0   
 BV BND1      x40_2   
 BV BND1      x40_3   
 BV BND1      x40_4   
 BV BND1      x40_5   
 BV BND1      x41_0   
 BV BND1      x41_1   
 BV BND1      x41_2   
 BV BND1      x41_3   
 BV BND1      x41_4   
 BV BND1      x41_5   
 BV BND1      x42_0   
 BV BND1      x42_3   
 BV BND1      x42_4   
 BV BND1      x42_5   
 BV BND1      x43_0   
 BV BND1      x43_3   
 BV BND1      x43_4   
 BV BND1      x43_5   
 BV BND1      x44_0   
 BV BND1      x44_3   
 BV BND1      x44_4   
 BV BND1      x44_5   
 BV BND1      x45_0   
 BV BND1      x45_2   
 BV BND1      x45_3   
 BV BND1      x45_4   
 BV BND1      x45_5   
 BV BND1      x46_0   
 BV BND1      x46_2   
 BV BND1      x46_3   
 BV BND1      x46_4   
 BV BND1      x46_5   
 BV BND1      x47_0   
 BV BND1      x47_3   
 BV BND1      x47_4   
 BV BND1      x47_5   
 BV BND1      x48_0   
 BV BND1      x48_3   
 BV BND1      x48_4   
 BV BND1      x48_5   
 BV BND1      x49_0   
 BV BND1      x49_2   
 BV BND1      x49_3   
 BV BND1      x49_4   
 BV BND1      x49_5   
 BV BND1      x50_0   
 BV BND1      x50_2   
 BV BND1      x50_3   
 BV BND1      x50_4   
 BV BND1      x50_5   
 BV BND1      x51_0   
 BV BND1      x51_2   
 BV BND1      x51_3   
 BV BND1      x51_4   
 BV BND1      x51_5   
 BV BND1      x52_0   
 BV BND1      x52_2   
 BV BND1      x52_3   
 BV BND1      x52_4   
 BV BND1      x52_5   
 BV BND1      x53_0   
 BV BND1      x53_2   
 BV BND1      x53_3   
 BV BND1      x53_4   
 BV BND1      x53_5   
 BV BND1      x54_0   
 BV BND1      x54_4   
 BV BND1      x54_5   
 BV BND1      x55_0   
 BV BND1      x55_4   
 BV BND1      x55_5   
 BV BND1      x56_0   
 BV BND1      x56_2   
 BV BND1      x56_3   
 BV BND1      x56_4   
 BV BND1      x56_5   
 BV BND1      x57_0   
 BV BND1      x57_2   
 BV BND1      x57_3   
 BV BND1      x57_4   
 BV BND1      x57_5   
 BV BND1      x58_0   
 BV BND1      x58_2   
 BV BND1      x58_3   
 BV BND1      x58_4   
 BV BND1      x58_5   
 BV BND1      x59_0   
 BV BND1      x59_2   
 BV BND1      x59_3   
 BV BND1      x59_4   
 BV BND1      x59_5   
 BV BND1      x60_0   
 BV BND1      x60_2   
 BV BND1      x60_3   
 BV BND1      x60_4   
 BV BND1      x60_5   
 BV BND1      x61_0   
 BV BND1      x61_2   
 BV BND1      x61_3   
 BV BND1      x61_4   
 BV BND1      x61_5   
 BV BND1      x64_0   
 BV BND1      x64_4   
 BV BND1      x64_5   
 BV BND1      x65_0   
 BV BND1      x65_4   
 BV BND1      x65_5   
 BV BND1      x66_0   
 BV BND1      x66_4   
 BV BND1      x66_5   
 BV BND1      x67_0   
 BV BND1      x67_2   
 BV BND1      x67_3   
 BV BND1      x67_4   
 BV BND1      x67_5   
 BV BND1      x68_0   
 BV BND1      x68_2   
 BV BND1      x68_3   
 BV BND1      x68_4   
 BV BND1      x68_5   
 BV BND1      x69_0   
 BV BND1      x69_2   
 BV BND1      x69_3   
 BV BND1      x69_4   
 BV BND1      x69_5   
 BV BND1      x70_0   
 BV BND1      x70_2   
 BV BND1      x70_3   
 BV BND1      x70_4   
 BV BND1      x70_5   
 BV BND1      x71_0   
 BV BND1      x71_2   
 BV BND1      x71_3   
 BV BND1      x71_4   
 BV BND1      x71_5   
 BV BND1      x72_0   
 BV BND1      x72_1   
 BV BND1      x72_2   
 BV BND1      x72_3   
 BV BND1      x72_4   
 BV BND1      x72_5   
 BV BND1      x73_0   
 BV BND1      x73_2   
 BV BND1      x73_3   
 BV BND1      x73_4   
 BV BND1      x73_5   
 BV BND1      x74_0   
 BV BND1      x74_2   
 BV BND1      x74_3   
 BV BND1      x74_4   
 BV BND1      x74_5   
 BV BND1      x75_5   
 BV BND1      x76_0   
 BV BND1      x76_3   
 BV BND1      x76_4   
 BV BND1      x76_5   
 BV BND1      x77_0   
 BV BND1      x77_3   
 BV BND1      x77_4   
 BV BND1      x77_5   
 BV BND1      x78_0   
 BV BND1      x78_3   
 BV BND1      x78_4   
 BV BND1      x78_5   
 BV BND1      x79_0   
 BV BND1      x79_2   
 BV BND1      x79_3   
 BV BND1      x79_4   
 BV BND1      x79_5   
 BV BND1      x80_0   
 BV BND1      x80_2   
 BV BND1      x80_3   
 BV BND1      x80_4   
 BV BND1      x80_5   
 BV BND1      x81_0   
 BV BND1      x81_2   
 BV BND1      x81_3   
 BV BND1      x81_4   
 BV BND1      x81_5   
 BV BND1      x82_0   
 BV BND1      x82_2   
 BV BND1      x82_3   
 BV BND1      x82_4   
 BV BND1      x82_5   
 BV BND1      x83_0   
 BV BND1      x83_4   
 BV BND1      x83_5   
 BV BND1      x84_0   
 BV BND1      x84_4   
 BV BND1      x84_5   
 BV BND1      x85_0   
 BV BND1      x85_2   
 BV BND1      x85_3   
 BV BND1      x85_4   
 BV BND1      x85_5   
 BV BND1      x86_0   
 BV BND1      x86_2   
 BV BND1      x86_3   
 BV BND1      x86_4   
 BV BND1      x86_5   
 BV BND1      x87_0   
 BV BND1      x87_2   
 BV BND1      x87_3   
 BV BND1      x87_4   
 BV BND1      x87_5   
 BV BND1      x88_0   
 BV BND1      x88_2   
 BV BND1      x88_3   
 BV BND1      x88_4   
 BV BND1      x88_5   
 BV BND1      x89_0   
 BV BND1      x89_2   
 BV BND1      x89_3   
 BV BND1      x89_4   
 BV BND1      x89_5   
 BV BND1      x90_0   
 BV BND1      x90_2   
 BV BND1      x90_3   
 BV BND1      x90_4   
 BV BND1      x90_5   
 BV BND1      x91_4   
 BV BND1      x91_5   
 BV BND1      x92_3   
 BV BND1      x92_4   
 BV BND1      x92_5   
 BV BND1      x94_3   
 BV BND1      x94_4   
 BV BND1      x94_5   
 BV BND1      x95_2   
 BV BND1      x95_3   
 BV BND1      x95_4   
 BV BND1      x95_5   
 BV BND1      x96_1   
 BV BND1      x96_2   
 BV BND1      x96_3   
 BV BND1      x96_4   
 BV BND1      x96_5   
 BV BND1      x97_5   
 BV BND1      x100_4  
 BV BND1      x100_5  
 BV BND1      x102_3  
 BV BND1      x102_4  
 BV BND1      x102_5  
 BV BND1      x103_2  
 BV BND1      x103_3  
 BV BND1      x103_4  
 BV BND1      x103_5  
 BV BND1      x104_3  
 BV BND1      x104_4  
 BV BND1      x104_5  
 BV BND1      x106_5  
 BV BND1      x108_5  
 BV BND1      x109_2  
 BV BND1      x109_3  
 BV BND1      x109_4  
 BV BND1      x109_5  
 BV BND1      x110_4  
 BV BND1      x110_5  
 BV BND1      x113_2  
 BV BND1      x113_3  
 BV BND1      x113_4  
 BV BND1      x113_5  
 BV BND1      x114_4  
 BV BND1      x114_5  
 BV BND1      x116_2  
 BV BND1      x116_3  
 BV BND1      x116_4  
 BV BND1      x116_5  
 BV BND1      x117_2  
 BV BND1      x117_3  
 BV BND1      x117_4  
 BV BND1      x117_5  
 BV BND1      x118_4  
 BV BND1      x118_5  
 BV BND1      x119_4  
 BV BND1      x119_5  
 BV BND1      x121_4  
 BV BND1      x121_5  
 BV BND1      x122_2  
 BV BND1      x122_3  
 BV BND1      x122_4  
 BV BND1      x122_5  
 BV BND1      x123_2  
 BV BND1      x123_3  
 BV BND1      x123_4  
 BV BND1      x123_5  
 BV BND1      x124_4  
 BV BND1      x124_5  
 BV BND1      x125_2  
 BV BND1      x125_3  
 BV BND1      x125_4  
 BV BND1      x125_5  
 BV BND1      x126_2  
 BV BND1      x126_3  
 BV BND1      x126_4  
 BV BND1      x126_5  
 BV BND1      x127_3  
 BV BND1      x127_4  
 BV BND1      x127_5  
 BV BND1      x128_3  
 BV BND1      x128_4  
 BV BND1      x128_5  
 BV BND1      x129_2  
 BV BND1      x129_3  
 BV BND1      x129_4  
 BV BND1      x129_5  
 BV BND1      x130_2  
 BV BND1      x130_3  
 BV BND1      x130_4  
 BV BND1      x130_5  
 BV BND1      x131_4  
 BV BND1      x131_5  
 BV BND1      x132_4  
 BV BND1      x132_5  
 BV BND1      x134_3  
 BV BND1      x137_2  
 BV BND1      x137_3  
 BV BND1      x137_4  
 BV BND1      x137_5  
 BV BND1      x138_4  
 BV BND1      x138_5  
 BV BND1      x139_2  
 BV BND1      x139_3  
 BV BND1      x139_4  
 BV BND1      x139_5  
 BV BND1      x140_2  
 BV BND1      x140_3  
 BV BND1      x140_4  
 BV BND1      x140_5  
 BV BND1      x141_4  
 BV BND1      x141_5  
 BV BND1      x142_2  
 BV BND1      x142_3  
 BV BND1      x142_4  
 BV BND1      x142_5  
 BV BND1      x143_4  
 BV BND1      x143_5  
 BV BND1      x144_4  
 BV BND1      x144_5  
 BV BND1      x145_4  
 BV BND1      x145_5  
 BV BND1      x146_3  
 BV BND1      x147_2  
 BV BND1      x147_3  
 BV BND1      x147_4  
 BV BND1      x147_5  
 BV BND1      x149_3  
 BV BND1      x149_4  
 BV BND1      x149_5  
 BV BND1      x150_3  
 BV BND1      x150_4  
 BV BND1      x150_5  
 BV BND1      x151_3  
 BV BND1      x151_4  
 BV BND1      x151_5  
 BV BND1      x152_2  
 BV BND1      x152_3  
 BV BND1      x152_4  
 BV BND1      x152_5  
 BV BND1      x153_3  
 BV BND1      x153_4  
 BV BND1      x153_5  
 BV BND1      x154_4  
 BV BND1      x154_5  
 BV BND1      x155_3  
 BV BND1      x155_4  
 BV BND1      x155_5  
 BV BND1      x156_2  
 BV BND1      x156_3  
 BV BND1      x156_4  
 BV BND1      x156_5  
 BV BND1      x157_2  
 BV BND1      x157_3  
 BV BND1      x157_4  
 BV BND1      x157_5  
 BV BND1      x158_4  
 BV BND1      x158_5  
 BV BND1      x159_4  
 BV BND1      x159_5  
 BV BND1      x160_4  
 BV BND1      x160_5  
 BV BND1      x161_2  
 BV BND1      x161_3  
 BV BND1      x161_4  
 BV BND1      x161_5  
 BV BND1      x162_4  
 BV BND1      x162_5  
 BV BND1      x163_3  
 BV BND1      x163_4  
 BV BND1      x163_5  
 BV BND1      x164_2  
 BV BND1      x164_3  
 BV BND1      x164_4  
 BV BND1      x164_5  
 BV BND1      x165_3  
 BV BND1      x165_4  
 BV BND1      x165_5  
 BV BND1      x166_4  
 BV BND1      x166_5  
 BV BND1      x167_3  
 BV BND1      x167_4  
 BV BND1      x167_5  
 BV BND1      x168_2  
 BV BND1      x168_3  
 BV BND1      x168_4  
 BV BND1      x168_5  
 BV BND1      x169_4  
 BV BND1      x169_5  
 BV BND1      x170_4  
 BV BND1      x170_5  
 BV BND1      x171_4  
 BV BND1      x171_5  
 BV BND1      x172_4  
 BV BND1      x172_5  
 BV BND1      x173_2  
 BV BND1      x173_3  
 BV BND1      x173_4  
 BV BND1      x173_5  
 BV BND1      x174_4  
 BV BND1      x174_5  
 BV BND1      x176_4  
 BV BND1      x176_5  
 BV BND1      x177_2  
 BV BND1      x177_3  
 BV BND1      x177_4  
 BV BND1      x177_5  
 BV BND1      x178_3  
 BV BND1      x178_4  
 BV BND1      x178_5  
 BV BND1      x179_2  
 BV BND1      x179_3  
 BV BND1      x179_4  
 BV BND1      x179_5  
 BV BND1      x180_4  
 BV BND1      x180_5  
 BV BND1      x181_4  
 BV BND1      x181_5  
 BV BND1      x182_4  
 BV BND1      x182_5  
 BV BND1      x183_2  
 BV BND1      x183_3  
 BV BND1      x183_4  
 BV BND1      x183_5  
 BV BND1      x184_4  
 BV BND1      x184_5  
 BV BND1      x185_3  
 BV BND1      x185_4  
 BV BND1      x185_5  
 BV BND1      x186_4  
 BV BND1      x186_5  
 BV BND1      x187_2  
 BV BND1      x187_3  
 BV BND1      x187_4  
 BV BND1      x187_5  
 BV BND1      x188_2  
 BV BND1      x188_3  
 BV BND1      x188_4  
 BV BND1      x188_5  
 BV BND1      x189_2  
 BV BND1      x189_3  
 BV BND1      x189_4  
 BV BND1      x189_5  
 BV BND1      x190_4  
 BV BND1      x190_5  
 BV BND1      x191_4  
 BV BND1      x191_5  
 BV BND1      x192_2  
 BV BND1      x192_3  
 BV BND1      x192_4  
 BV BND1      x192_5  
 BV BND1      x193_2  
 BV BND1      x193_3  
 BV BND1      x193_4  
 BV BND1      x193_5  
 BV BND1      x194_3  
 BV BND1      x194_4  
 BV BND1      x194_5  
 BV BND1      x196_2  
 BV BND1      x196_3  
 BV BND1      x196_4  
 BV BND1      x196_5  
 BV BND1      x197_4  
 BV BND1      x197_5  
 BV BND1      x198_3  
 BV BND1      x198_4  
 BV BND1      x198_5  
 BV BND1      x199_2  
 BV BND1      x199_3  
 BV BND1      x199_4  
 BV BND1      x199_5  
 UP BND1      H_1       941.0705
 UP BND1      H_2       1129.2846
 UP BND1      H_3       1355.14152
 UP BND1      H_4       1.6261698239999998e+03
 UP BND1      H_5       1.9514037887999998e+03
ENDATA
