NAME k16x240_pre
ROWS
 N  OBJ
 E  CNS...01
 E  CNS...02
 E  CNS...03
 E  CNS...04
 E  CNS...05
 E  CNS...06
 E  CNS...07
 E  CNS...08
 E  CNS...09
 E  CNS...10
 E  CNS...11
 E  CNS...12
 E  CNS...13
 E  CNS...14
 E  CNS...15
 E  CNS...16
 L  UC...001
 L  UC...002
 L  UC...003
 L  UC...004
 L  UC...005
 L  UC...006
 L  UC...007
 L  UC...008
 L  UC...009
 L  UC...010
 L  UC...011
 L  UC...012
 L  UC...013
 L  UC...014
 L  UC...015
 L  UC...016
 L  UC...017
 L  UC...018
 L  UC...019
 L  UC...020
 L  UC...021
 L  UC...022
 L  UC...023
 L  UC...024
 L  UC...025
 L  UC...026
 L  UC...027
 L  UC...028
 L  UC...029
 L  UC...030
 L  UC...031
 L  UC...032
 L  UC...033
 L  UC...034
 L  UC...035
 L  UC...036
 L  UC...037
 L  UC...038
 L  UC...039
 L  UC...040
 L  UC...041
 L  UC...042
 L  UC...043
 L  UC...044
 L  UC...045
 L  UC...046
 L  UC...047
 L  UC...048
 L  UC...049
 L  UC...050
 L  UC...051
 L  UC...052
 L  UC...053
 L  UC...054
 L  UC...055
 L  UC...056
 L  UC...057
 L  UC...058
 L  UC...059
 L  UC...060
 L  UC...061
 L  UC...062
 L  UC...063
 L  UC...064
 L  UC...065
 L  UC...066
 L  UC...067
 L  UC...068
 L  UC...069
 L  UC...070
 L  UC...071
 L  UC...072
 L  UC...073
 L  UC...074
 L  UC...075
 L  UC...076
 L  UC...077
 L  UC...078
 L  UC...079
 L  UC...080
 L  UC...081
 L  UC...082
 L  UC...083
 L  UC...084
 L  UC...085
 L  UC...086
 L  UC...087
 L  UC...088
 L  UC...089
 L  UC...090
 L  UC...091
 L  UC...092
 L  UC...093
 L  UC...094
 L  UC...095
 L  UC...096
 L  UC...097
 L  UC...098
 L  UC...099
 L  UC...100
 L  UC...101
 L  UC...102
 L  UC...103
 L  UC...104
 L  UC...105
 L  UC...106
 L  UC...107
 L  UC...108
 L  UC...109
 L  UC...110
 L  UC...111
 L  UC...112
 L  UC...113
 L  UC...114
 L  UC...115
 L  UC...116
 L  UC...117
 L  UC...118
 L  UC...119
 L  UC...120
 L  UC...121
 L  UC...122
 L  UC...123
 L  UC...124
 L  UC...125
 L  UC...126
 L  UC...127
 L  UC...128
 L  UC...129
 L  UC...130
 L  UC...131
 L  UC...132
 L  UC...133
 L  UC...134
 L  UC...135
 L  UC...136
 L  UC...137
 L  UC...138
 L  UC...139
 L  UC...140
 L  UC...141
 L  UC...142
 L  UC...143
 L  UC...144
 L  UC...145
 L  UC...146
 L  UC...147
 L  UC...148
 L  UC...149
 L  UC...150
 L  UC...151
 L  UC...152
 L  UC...153
 L  UC...154
 L  UC...155
 L  UC...156
 L  UC...157
 L  UC...158
 L  UC...159
 L  UC...160
 L  UC...161
 L  UC...162
 L  UC...163
 L  UC...164
 L  UC...165
 L  UC...166
 L  UC...167
 L  UC...168
 L  UC...169
 L  UC...170
 L  UC...171
 L  UC...172
 L  UC...173
 L  UC...174
 L  UC...175
 L  UC...176
 L  UC...177
 L  UC...178
 L  UC...179
 L  UC...180
 L  UC...181
 L  UC...182
 L  UC...183
 L  UC...184
 L  UC...185
 L  UC...186
 L  UC...187
 L  UC...188
 L  UC...189
 L  UC...190
 L  UC...191
 L  UC...192
 L  UC...193
 L  UC...194
 L  UC...195
 L  UC...196
 L  UC...197
 L  UC...198
 L  UC...199
 L  UC...200
 L  UC...201
 L  UC...202
 L  UC...203
 L  UC...204
 L  UC...205
 L  UC...206
 L  UC...207
 L  UC...208
 L  UC...209
 L  UC...210
 L  UC...211
 L  UC...212
 L  UC...213
 L  UC...214
 L  UC...215
 L  UC...216
 L  UC...217
 L  UC...218
 L  UC...219
 L  UC...220
 L  UC...221
 L  UC...222
 L  UC...223
 L  UC...224
 L  UC...225
 L  UC...226
 L  UC...227
 L  UC...228
 L  UC...229
 L  UC...230
 L  UC...231
 L  UC...232
 L  UC...233
 L  UC...234
 L  UC...235
 L  UC...236
 L  UC...237
 L  UC...238
 L  UC...239
 L  UC...240
COLUMNS
    x....001  OBJ       9
    x....001  CNS...01  -1
    x....001  CNS...02  1
    x....001  UC...001  1
    x....002  OBJ       9
    x....002  CNS...01  1
    x....002  CNS...02  -1
    x....002  UC...002  1
    x....003  OBJ       1
    x....003  CNS...01  -1
    x....003  CNS...03  1
    x....003  UC...003  1
    x....004  OBJ       9
    x....004  CNS...01  1
    x....004  CNS...03  -1
    x....004  UC...004  1
    x....005  OBJ       7
    x....005  CNS...01  -1
    x....005  CNS...04  1
    x....005  UC...005  1
    x....006  OBJ       8
    x....006  CNS...01  1
    x....006  CNS...04  -1
    x....006  UC...006  1
    x....007  OBJ       1
    x....007  CNS...01  -1
    x....007  CNS...05  1
    x....007  UC...007  1
    x....008  OBJ       6
    x....008  CNS...01  1
    x....008  CNS...05  -1
    x....008  UC...008  1
    x....009  OBJ       8
    x....009  CNS...01  -1
    x....009  CNS...06  1
    x....009  UC...009  1
    x....010  OBJ       9
    x....010  CNS...01  1
    x....010  CNS...06  -1
    x....010  UC...010  1
    x....011  OBJ       1
    x....011  CNS...01  -1
    x....011  CNS...07  1
    x....011  UC...011  1
    x....012  OBJ       7
    x....012  CNS...01  1
    x....012  CNS...07  -1
    x....012  UC...012  1
    x....013  OBJ       2
    x....013  CNS...01  -1
    x....013  CNS...08  1
    x....013  UC...013  1
    x....014  OBJ       3
    x....014  CNS...01  1
    x....014  CNS...08  -1
    x....014  UC...014  1
    x....015  OBJ       4
    x....015  CNS...01  -1
    x....015  CNS...09  1
    x....015  UC...015  1
    x....016  OBJ       4
    x....016  CNS...01  1
    x....016  CNS...09  -1
    x....016  UC...016  1
    x....017  OBJ       2
    x....017  CNS...01  -1
    x....017  CNS...10  1
    x....017  UC...017  1
    x....018  OBJ       2
    x....018  CNS...01  1
    x....018  CNS...10  -1
    x....018  UC...018  1
    x....019  OBJ       8
    x....019  CNS...01  -1
    x....019  CNS...11  1
    x....019  UC...019  1
    x....020  OBJ       8
    x....020  CNS...01  1
    x....020  CNS...11  -1
    x....020  UC...020  1
    x....021  OBJ       3
    x....021  CNS...01  -1
    x....021  CNS...12  1
    x....021  UC...021  1
    x....022  OBJ       1
    x....022  CNS...01  1
    x....022  CNS...12  -1
    x....022  UC...022  1
    x....023  OBJ       6
    x....023  CNS...01  -1
    x....023  CNS...13  1
    x....023  UC...023  1
    x....024  OBJ       6
    x....024  CNS...01  1
    x....024  CNS...13  -1
    x....024  UC...024  1
    x....025  OBJ       7
    x....025  CNS...01  -1
    x....025  CNS...14  1
    x....025  UC...025  1
    x....026  OBJ       4
    x....026  CNS...01  1
    x....026  CNS...14  -1
    x....026  UC...026  1
    x....027  OBJ       3
    x....027  CNS...01  -1
    x....027  CNS...15  1
    x....027  UC...027  1
    x....028  OBJ       1
    x....028  CNS...01  1
    x....028  CNS...15  -1
    x....028  UC...028  1
    x....029  OBJ       6
    x....029  CNS...01  -1
    x....029  CNS...16  1
    x....029  UC...029  1
    x....030  OBJ       9
    x....030  CNS...01  1
    x....030  CNS...16  -1
    x....030  UC...030  1
    x....031  OBJ       4
    x....031  CNS...02  -1
    x....031  CNS...03  1
    x....031  UC...031  1
    x....032  OBJ       3
    x....032  CNS...02  1
    x....032  CNS...03  -1
    x....032  UC...032  1
    x....033  OBJ       4
    x....033  CNS...02  -1
    x....033  CNS...04  1
    x....033  UC...033  1
    x....034  OBJ       1
    x....034  CNS...02  1
    x....034  CNS...04  -1
    x....034  UC...034  1
    x....035  OBJ       4
    x....035  CNS...02  -1
    x....035  CNS...05  1
    x....035  UC...035  1
    x....036  OBJ       1
    x....036  CNS...02  1
    x....036  CNS...05  -1
    x....036  UC...036  1
    x....037  OBJ       4
    x....037  CNS...02  -1
    x....037  CNS...06  1
    x....037  UC...037  1
    x....038  OBJ       6
    x....038  CNS...02  1
    x....038  CNS...06  -1
    x....038  UC...038  1
    x....039  OBJ       7
    x....039  CNS...02  -1
    x....039  CNS...07  1
    x....039  UC...039  1
    x....040  OBJ       4
    x....040  CNS...02  1
    x....040  CNS...07  -1
    x....040  UC...040  1
    x....041  OBJ       7
    x....041  CNS...02  -1
    x....041  CNS...08  1
    x....041  UC...041  1
    x....042  OBJ       9
    x....042  CNS...02  1
    x....042  CNS...08  -1
    x....042  UC...042  1
    x....043  OBJ       5
    x....043  CNS...02  -1
    x....043  CNS...09  1
    x....043  UC...043  1
    x....044  OBJ       9
    x....044  CNS...02  1
    x....044  CNS...09  -1
    x....044  UC...044  1
    x....045  OBJ       8
    x....045  CNS...02  -1
    x....045  CNS...10  1
    x....045  UC...045  1
    x....046  OBJ       4
    x....046  CNS...02  1
    x....046  CNS...10  -1
    x....046  UC...046  1
    x....047  OBJ       7
    x....047  CNS...02  -1
    x....047  CNS...11  1
    x....047  UC...047  1
    x....048  OBJ       7
    x....048  CNS...02  1
    x....048  CNS...11  -1
    x....048  UC...048  1
    x....049  OBJ       9
    x....049  CNS...02  -1
    x....049  CNS...12  1
    x....049  UC...049  1
    x....050  OBJ       3
    x....050  CNS...02  1
    x....050  CNS...12  -1
    x....050  UC...050  1
    x....051  OBJ       8
    x....051  CNS...02  -1
    x....051  CNS...13  1
    x....051  UC...051  1
    x....052  OBJ       7
    x....052  CNS...02  1
    x....052  CNS...13  -1
    x....052  UC...052  1
    x....053  OBJ       3
    x....053  CNS...02  -1
    x....053  CNS...14  1
    x....053  UC...053  1
    x....054  OBJ       5
    x....054  CNS...02  1
    x....054  CNS...14  -1
    x....054  UC...054  1
    x....055  OBJ       9
    x....055  CNS...02  -1
    x....055  CNS...15  1
    x....055  UC...055  1
    x....056  OBJ       2
    x....056  CNS...02  1
    x....056  CNS...15  -1
    x....056  UC...056  1
    x....057  OBJ       6
    x....057  CNS...02  -1
    x....057  CNS...16  1
    x....057  UC...057  1
    x....058  OBJ       6
    x....058  CNS...02  1
    x....058  CNS...16  -1
    x....058  UC...058  1
    x....059  OBJ       1
    x....059  CNS...03  -1
    x....059  CNS...04  1
    x....059  UC...059  1
    x....060  OBJ       4
    x....060  CNS...03  1
    x....060  CNS...04  -1
    x....060  UC...060  1
    x....061  OBJ       1
    x....061  CNS...03  -1
    x....061  CNS...05  1
    x....061  UC...061  1
    x....062  OBJ       4
    x....062  CNS...03  1
    x....062  CNS...05  -1
    x....062  UC...062  1
    x....063  OBJ       9
    x....063  CNS...03  -1
    x....063  CNS...06  1
    x....063  UC...063  1
    x....064  OBJ       3
    x....064  CNS...03  1
    x....064  CNS...06  -1
    x....064  UC...064  1
    x....065  OBJ       2
    x....065  CNS...03  -1
    x....065  CNS...07  1
    x....065  UC...065  1
    x....066  OBJ       1
    x....066  CNS...03  1
    x....066  CNS...07  -1
    x....066  UC...066  1
    x....067  OBJ       2
    x....067  CNS...03  -1
    x....067  CNS...08  1
    x....067  UC...067  1
    x....068  OBJ       9
    x....068  CNS...03  1
    x....068  CNS...08  -1
    x....068  UC...068  1
    x....069  OBJ       3
    x....069  CNS...03  -1
    x....069  CNS...09  1
    x....069  UC...069  1
    x....070  OBJ       2
    x....070  CNS...03  1
    x....070  CNS...09  -1
    x....070  UC...070  1
    x....071  OBJ       2
    x....071  CNS...03  -1
    x....071  CNS...10  1
    x....071  UC...071  1
    x....072  OBJ       5
    x....072  CNS...03  1
    x....072  CNS...10  -1
    x....072  UC...072  1
    x....073  OBJ       2
    x....073  CNS...03  -1
    x....073  CNS...11  1
    x....073  UC...073  1
    x....074  OBJ       5
    x....074  CNS...03  1
    x....074  CNS...11  -1
    x....074  UC...074  1
    x....075  OBJ       9
    x....075  CNS...03  -1
    x....075  CNS...12  1
    x....075  UC...075  1
    x....076  OBJ       4
    x....076  CNS...03  1
    x....076  CNS...12  -1
    x....076  UC...076  1
    x....077  OBJ       6
    x....077  CNS...03  -1
    x....077  CNS...13  1
    x....077  UC...077  1
    x....078  OBJ       6
    x....078  CNS...03  1
    x....078  CNS...13  -1
    x....078  UC...078  1
    x....079  OBJ       5
    x....079  CNS...03  -1
    x....079  CNS...14  1
    x....079  UC...079  1
    x....080  OBJ       8
    x....080  CNS...03  1
    x....080  CNS...14  -1
    x....080  UC...080  1
    x....081  OBJ       6
    x....081  CNS...03  -1
    x....081  CNS...15  1
    x....081  UC...081  1
    x....082  OBJ       3
    x....082  CNS...03  1
    x....082  CNS...15  -1
    x....082  UC...082  1
    x....083  OBJ       2
    x....083  CNS...03  -1
    x....083  CNS...16  1
    x....083  UC...083  1
    x....084  OBJ       3
    x....084  CNS...03  1
    x....084  CNS...16  -1
    x....084  UC...084  1
    x....085  OBJ       4
    x....085  CNS...04  -1
    x....085  CNS...05  1
    x....085  UC...085  1
    x....086  OBJ       2
    x....086  CNS...04  1
    x....086  CNS...05  -1
    x....086  UC...086  1
    x....087  OBJ       3
    x....087  CNS...04  -1
    x....087  CNS...06  1
    x....087  UC...087  1
    x....088  OBJ       4
    x....088  CNS...04  1
    x....088  CNS...06  -1
    x....088  UC...088  1
    x....089  OBJ       4
    x....089  CNS...04  -1
    x....089  CNS...07  1
    x....089  UC...089  1
    x....090  OBJ       5
    x....090  CNS...04  1
    x....090  CNS...07  -1
    x....090  UC...090  1
    x....091  OBJ       1
    x....091  CNS...04  -1
    x....091  CNS...08  1
    x....091  UC...091  1
    x....092  OBJ       9
    x....092  CNS...04  1
    x....092  CNS...08  -1
    x....092  UC...092  1
    x....093  OBJ       9
    x....093  CNS...04  -1
    x....093  CNS...09  1
    x....093  UC...093  1
    x....094  OBJ       6
    x....094  CNS...04  1
    x....094  CNS...09  -1
    x....094  UC...094  1
    x....095  OBJ       7
    x....095  CNS...04  -1
    x....095  CNS...10  1
    x....095  UC...095  1
    x....096  OBJ       8
    x....096  CNS...04  1
    x....096  CNS...10  -1
    x....096  UC...096  1
    x....097  OBJ       8
    x....097  CNS...04  -1
    x....097  CNS...11  1
    x....097  UC...097  1
    x....098  OBJ       7
    x....098  CNS...04  1
    x....098  CNS...11  -1
    x....098  UC...098  1
    x....099  OBJ       9
    x....099  CNS...04  -1
    x....099  CNS...12  1
    x....099  UC...099  1
    x....100  OBJ       9
    x....100  CNS...04  1
    x....100  CNS...12  -1
    x....100  UC...100  1
    x....101  OBJ       1
    x....101  CNS...04  -1
    x....101  CNS...13  1
    x....101  UC...101  1
    x....102  OBJ       6
    x....102  CNS...04  1
    x....102  CNS...13  -1
    x....102  UC...102  1
    x....103  OBJ       8
    x....103  CNS...04  -1
    x....103  CNS...14  1
    x....103  UC...103  1
    x....104  OBJ       5
    x....104  CNS...04  1
    x....104  CNS...14  -1
    x....104  UC...104  1
    x....105  OBJ       1
    x....105  CNS...04  -1
    x....105  CNS...15  1
    x....105  UC...105  1
    x....106  OBJ       8
    x....106  CNS...04  1
    x....106  CNS...15  -1
    x....106  UC...106  1
    x....107  OBJ       2
    x....107  CNS...04  -1
    x....107  CNS...16  1
    x....107  UC...107  1
    x....108  OBJ       4
    x....108  CNS...04  1
    x....108  CNS...16  -1
    x....108  UC...108  1
    x....109  OBJ       3
    x....109  CNS...05  -1
    x....109  CNS...06  1
    x....109  UC...109  1
    x....110  OBJ       9
    x....110  CNS...05  1
    x....110  CNS...06  -1
    x....110  UC...110  1
    x....111  OBJ       2
    x....111  CNS...05  -1
    x....111  CNS...07  1
    x....111  UC...111  1
    x....112  OBJ       7
    x....112  CNS...05  1
    x....112  CNS...07  -1
    x....112  UC...112  1
    x....113  OBJ       8
    x....113  CNS...05  -1
    x....113  CNS...08  1
    x....113  UC...113  1
    x....114  OBJ       3
    x....114  CNS...05  1
    x....114  CNS...08  -1
    x....114  UC...114  1
    x....115  OBJ       2
    x....115  CNS...05  -1
    x....115  CNS...09  1
    x....115  UC...115  1
    x....116  OBJ       6
    x....116  CNS...05  1
    x....116  CNS...09  -1
    x....116  UC...116  1
    x....117  OBJ       1
    x....117  CNS...05  -1
    x....117  CNS...10  1
    x....117  UC...117  1
    x....118  OBJ       4
    x....118  CNS...05  1
    x....118  CNS...10  -1
    x....118  UC...118  1
    x....119  OBJ       5
    x....119  CNS...05  -1
    x....119  CNS...11  1
    x....119  UC...119  1
    x....120  OBJ       2
    x....120  CNS...05  1
    x....120  CNS...11  -1
    x....120  UC...120  1
    x....121  OBJ       3
    x....121  CNS...05  -1
    x....121  CNS...12  1
    x....121  UC...121  1
    x....122  OBJ       3
    x....122  CNS...05  1
    x....122  CNS...12  -1
    x....122  UC...122  1
    x....123  OBJ       7
    x....123  CNS...05  -1
    x....123  CNS...13  1
    x....123  UC...123  1
    x....124  OBJ       1
    x....124  CNS...05  1
    x....124  CNS...13  -1
    x....124  UC...124  1
    x....125  OBJ       4
    x....125  CNS...05  -1
    x....125  CNS...14  1
    x....125  UC...125  1
    x....126  OBJ       2
    x....126  CNS...05  1
    x....126  CNS...14  -1
    x....126  UC...126  1
    x....127  OBJ       6
    x....127  CNS...05  -1
    x....127  CNS...15  1
    x....127  UC...127  1
    x....128  OBJ       4
    x....128  CNS...05  1
    x....128  CNS...15  -1
    x....128  UC...128  1
    x....129  OBJ       8
    x....129  CNS...05  -1
    x....129  CNS...16  1
    x....129  UC...129  1
    x....130  OBJ       9
    x....130  CNS...05  1
    x....130  CNS...16  -1
    x....130  UC...130  1
    x....131  OBJ       9
    x....131  CNS...06  -1
    x....131  CNS...07  1
    x....131  UC...131  1
    x....132  OBJ       8
    x....132  CNS...06  1
    x....132  CNS...07  -1
    x....132  UC...132  1
    x....133  OBJ       2
    x....133  CNS...06  -1
    x....133  CNS...08  1
    x....133  UC...133  1
    x....134  OBJ       8
    x....134  CNS...06  1
    x....134  CNS...08  -1
    x....134  UC...134  1
    x....135  OBJ       5
    x....135  CNS...06  -1
    x....135  CNS...09  1
    x....135  UC...135  1
    x....136  OBJ       7
    x....136  CNS...06  1
    x....136  CNS...09  -1
    x....136  UC...136  1
    x....137  OBJ       5
    x....137  CNS...06  -1
    x....137  CNS...10  1
    x....137  UC...137  1
    x....138  OBJ       9
    x....138  CNS...06  1
    x....138  CNS...10  -1
    x....138  UC...138  1
    x....139  OBJ       8
    x....139  CNS...06  -1
    x....139  CNS...11  1
    x....139  UC...139  1
    x....140  OBJ       3
    x....140  CNS...06  1
    x....140  CNS...11  -1
    x....140  UC...140  1
    x....141  OBJ       1
    x....141  CNS...06  -1
    x....141  CNS...12  1
    x....141  UC...141  1
    x....142  OBJ       1
    x....142  CNS...06  1
    x....142  CNS...12  -1
    x....142  UC...142  1
    x....143  OBJ       8
    x....143  CNS...06  -1
    x....143  CNS...13  1
    x....143  UC...143  1
    x....144  OBJ       6
    x....144  CNS...06  1
    x....144  CNS...13  -1
    x....144  UC...144  1
    x....145  OBJ       9
    x....145  CNS...06  -1
    x....145  CNS...14  1
    x....145  UC...145  1
    x....146  OBJ       6
    x....146  CNS...06  1
    x....146  CNS...14  -1
    x....146  UC...146  1
    x....147  OBJ       9
    x....147  CNS...06  -1
    x....147  CNS...15  1
    x....147  UC...147  1
    x....148  OBJ       6
    x....148  CNS...06  1
    x....148  CNS...15  -1
    x....148  UC...148  1
    x....149  OBJ       5
    x....149  CNS...06  -1
    x....149  CNS...16  1
    x....149  UC...149  1
    x....150  OBJ       5
    x....150  CNS...06  1
    x....150  CNS...16  -1
    x....150  UC...150  1
    x....151  OBJ       2
    x....151  CNS...07  -1
    x....151  CNS...08  1
    x....151  UC...151  1
    x....152  OBJ       6
    x....152  CNS...07  1
    x....152  CNS...08  -1
    x....152  UC...152  1
    x....153  OBJ       3
    x....153  CNS...07  -1
    x....153  CNS...09  1
    x....153  UC...153  1
    x....154  OBJ       2
    x....154  CNS...07  1
    x....154  CNS...09  -1
    x....154  UC...154  1
    x....155  OBJ       7
    x....155  CNS...07  -1
    x....155  CNS...10  1
    x....155  UC...155  1
    x....156  OBJ       2
    x....156  CNS...07  1
    x....156  CNS...10  -1
    x....156  UC...156  1
    x....157  OBJ       1
    x....157  CNS...07  -1
    x....157  CNS...11  1
    x....157  UC...157  1
    x....158  OBJ       5
    x....158  CNS...07  1
    x....158  CNS...11  -1
    x....158  UC...158  1
    x....159  OBJ       6
    x....159  CNS...07  -1
    x....159  CNS...12  1
    x....159  UC...159  1
    x....160  OBJ       1
    x....160  CNS...07  1
    x....160  CNS...12  -1
    x....160  UC...160  1
    x....161  OBJ       5
    x....161  CNS...07  -1
    x....161  CNS...13  1
    x....161  UC...161  1
    x....162  OBJ       4
    x....162  CNS...07  1
    x....162  CNS...13  -1
    x....162  UC...162  1
    x....163  OBJ       5
    x....163  CNS...07  -1
    x....163  CNS...14  1
    x....163  UC...163  1
    x....164  OBJ       8
    x....164  CNS...07  1
    x....164  CNS...14  -1
    x....164  UC...164  1
    x....165  OBJ       5
    x....165  CNS...07  -1
    x....165  CNS...15  1
    x....165  UC...165  1
    x....166  OBJ       3
    x....166  CNS...07  1
    x....166  CNS...15  -1
    x....166  UC...166  1
    x....167  OBJ       9
    x....167  CNS...07  -1
    x....167  CNS...16  1
    x....167  UC...167  1
    x....168  OBJ       2
    x....168  CNS...07  1
    x....168  CNS...16  -1
    x....168  UC...168  1
    x....169  OBJ       5
    x....169  CNS...08  -1
    x....169  CNS...09  1
    x....169  UC...169  1
    x....170  OBJ       4
    x....170  CNS...08  1
    x....170  CNS...09  -1
    x....170  UC...170  1
    x....171  OBJ       2
    x....171  CNS...08  -1
    x....171  CNS...10  1
    x....171  UC...171  1
    x....172  OBJ       3
    x....172  CNS...08  1
    x....172  CNS...10  -1
    x....172  UC...172  1
    x....173  OBJ       8
    x....173  CNS...08  -1
    x....173  CNS...11  1
    x....173  UC...173  1
    x....174  OBJ       4
    x....174  CNS...08  1
    x....174  CNS...11  -1
    x....174  UC...174  1
    x....175  OBJ       2
    x....175  CNS...08  -1
    x....175  CNS...12  1
    x....175  UC...175  1
    x....176  OBJ       3
    x....176  CNS...08  1
    x....176  CNS...12  -1
    x....176  UC...176  1
    x....177  OBJ       5
    x....177  CNS...08  -1
    x....177  CNS...13  1
    x....177  UC...177  1
    x....178  OBJ       8
    x....178  CNS...08  1
    x....178  CNS...13  -1
    x....178  UC...178  1
    x....179  OBJ       6
    x....179  CNS...08  -1
    x....179  CNS...14  1
    x....179  UC...179  1
    x....180  OBJ       2
    x....180  CNS...08  1
    x....180  CNS...14  -1
    x....180  UC...180  1
    x....181  OBJ       1
    x....181  CNS...08  -1
    x....181  CNS...15  1
    x....181  UC...181  1
    x....182  OBJ       2
    x....182  CNS...08  1
    x....182  CNS...15  -1
    x....182  UC...182  1
    x....183  OBJ       4
    x....183  CNS...08  -1
    x....183  CNS...16  1
    x....183  UC...183  1
    x....184  OBJ       7
    x....184  CNS...08  1
    x....184  CNS...16  -1
    x....184  UC...184  1
    x....185  OBJ       5
    x....185  CNS...09  -1
    x....185  CNS...10  1
    x....185  UC...185  1
    x....186  OBJ       7
    x....186  CNS...09  1
    x....186  CNS...10  -1
    x....186  UC...186  1
    x....187  OBJ       2
    x....187  CNS...09  -1
    x....187  CNS...11  1
    x....187  UC...187  1
    x....188  OBJ       2
    x....188  CNS...09  1
    x....188  CNS...11  -1
    x....188  UC...188  1
    x....189  OBJ       9
    x....189  CNS...09  -1
    x....189  CNS...12  1
    x....189  UC...189  1
    x....190  OBJ       1
    x....190  CNS...09  1
    x....190  CNS...12  -1
    x....190  UC...190  1
    x....191  OBJ       3
    x....191  CNS...09  -1
    x....191  CNS...13  1
    x....191  UC...191  1
    x....192  OBJ       2
    x....192  CNS...09  1
    x....192  CNS...13  -1
    x....192  UC...192  1
    x....193  OBJ       5
    x....193  CNS...09  -1
    x....193  CNS...14  1
    x....193  UC...193  1
    x....194  OBJ       3
    x....194  CNS...09  1
    x....194  CNS...14  -1
    x....194  UC...194  1
    x....195  OBJ       8
    x....195  CNS...09  -1
    x....195  CNS...15  1
    x....195  UC...195  1
    x....196  OBJ       2
    x....196  CNS...09  1
    x....196  CNS...15  -1
    x....196  UC...196  1
    x....197  OBJ       3
    x....197  CNS...09  -1
    x....197  CNS...16  1
    x....197  UC...197  1
    x....198  OBJ       3
    x....198  CNS...09  1
    x....198  CNS...16  -1
    x....198  UC...198  1
    x....199  OBJ       7
    x....199  CNS...10  -1
    x....199  CNS...11  1
    x....199  UC...199  1
    x....200  OBJ       1
    x....200  CNS...10  1
    x....200  CNS...11  -1
    x....200  UC...200  1
    x....201  OBJ       5
    x....201  CNS...10  -1
    x....201  CNS...12  1
    x....201  UC...201  1
    x....202  OBJ       4
    x....202  CNS...10  1
    x....202  CNS...12  -1
    x....202  UC...202  1
    x....203  OBJ       6
    x....203  CNS...10  -1
    x....203  CNS...13  1
    x....203  UC...203  1
    x....204  OBJ       5
    x....204  CNS...10  1
    x....204  CNS...13  -1
    x....204  UC...204  1
    x....205  OBJ       2
    x....205  CNS...10  -1
    x....205  CNS...14  1
    x....205  UC...205  1
    x....206  OBJ       8
    x....206  CNS...10  1
    x....206  CNS...14  -1
    x....206  UC...206  1
    x....207  OBJ       3
    x....207  CNS...10  -1
    x....207  CNS...15  1
    x....207  UC...207  1
    x....208  OBJ       7
    x....208  CNS...10  1
    x....208  CNS...15  -1
    x....208  UC...208  1
    x....209  OBJ       1
    x....209  CNS...10  -1
    x....209  CNS...16  1
    x....209  UC...209  1
    x....210  OBJ       5
    x....210  CNS...10  1
    x....210  CNS...16  -1
    x....210  UC...210  1
    x....211  OBJ       7
    x....211  CNS...11  -1
    x....211  CNS...12  1
    x....211  UC...211  1
    x....212  OBJ       9
    x....212  CNS...11  1
    x....212  CNS...12  -1
    x....212  UC...212  1
    x....213  OBJ       9
    x....213  CNS...11  -1
    x....213  CNS...13  1
    x....213  UC...213  1
    x....214  OBJ       1
    x....214  CNS...11  1
    x....214  CNS...13  -1
    x....214  UC...214  1
    x....215  OBJ       8
    x....215  CNS...11  -1
    x....215  CNS...14  1
    x....215  UC...215  1
    x....216  OBJ       3
    x....216  CNS...11  1
    x....216  CNS...14  -1
    x....216  UC...216  1
    x....217  OBJ       2
    x....217  CNS...11  -1
    x....217  CNS...15  1
    x....217  UC...217  1
    x....218  OBJ       3
    x....218  CNS...11  1
    x....218  CNS...15  -1
    x....218  UC...218  1
    x....219  OBJ       2
    x....219  CNS...11  -1
    x....219  CNS...16  1
    x....219  UC...219  1
    x....220  OBJ       4
    x....220  CNS...11  1
    x....220  CNS...16  -1
    x....220  UC...220  1
    x....221  OBJ       8
    x....221  CNS...12  -1
    x....221  CNS...13  1
    x....221  UC...221  1
    x....222  OBJ       4
    x....222  CNS...12  1
    x....222  CNS...13  -1
    x....222  UC...222  1
    x....223  OBJ       9
    x....223  CNS...12  -1
    x....223  CNS...14  1
    x....223  UC...223  1
    x....224  OBJ       6
    x....224  CNS...12  1
    x....224  CNS...14  -1
    x....224  UC...224  1
    x....225  OBJ       5
    x....225  CNS...12  -1
    x....225  CNS...15  1
    x....225  UC...225  1
    x....226  OBJ       7
    x....226  CNS...12  1
    x....226  CNS...15  -1
    x....226  UC...226  1
    x....227  OBJ       4
    x....227  CNS...12  -1
    x....227  CNS...16  1
    x....227  UC...227  1
    x....228  OBJ       2
    x....228  CNS...12  1
    x....228  CNS...16  -1
    x....228  UC...228  1
    x....229  OBJ       4
    x....229  CNS...13  -1
    x....229  CNS...14  1
    x....229  UC...229  1
    x....230  OBJ       4
    x....230  CNS...13  1
    x....230  CNS...14  -1
    x....230  UC...230  1
    x....231  OBJ       3
    x....231  CNS...13  -1
    x....231  CNS...15  1
    x....231  UC...231  1
    x....232  OBJ       6
    x....232  CNS...13  1
    x....232  CNS...15  -1
    x....232  UC...232  1
    x....233  OBJ       4
    x....233  CNS...13  -1
    x....233  CNS...16  1
    x....233  UC...233  1
    x....234  OBJ       7
    x....234  CNS...13  1
    x....234  CNS...16  -1
    x....234  UC...234  1
    x....235  OBJ       8
    x....235  CNS...14  -1
    x....235  CNS...15  1
    x....235  UC...235  1
    x....236  OBJ       1
    x....236  CNS...14  1
    x....236  CNS...15  -1
    x....236  UC...236  1
    x....237  OBJ       7
    x....237  CNS...14  -1
    x....237  CNS...16  1
    x....237  UC...237  1
    x....238  OBJ       9
    x....238  CNS...14  1
    x....238  CNS...16  -1
    x....238  UC...238  1
    x....239  OBJ       6
    x....239  CNS...15  -1
    x....239  CNS...16  1
    x....239  UC...239  1
    x....240  OBJ       4
    x....240  CNS...15  1
    x....240  CNS...16  -1
    x....240  UC...240  1
    MARKER    'MARKER'                 'INTORG'
    y....001  OBJ       834
    y....001  UC...001  -1000
    y....002  OBJ       724
    y....002  UC...002  -1000
    y....003  OBJ       962
    y....003  UC...003  -1000
    y....004  OBJ       645
    y....004  UC...004  -1000
    y....005  OBJ       961
    y....005  UC...005  -1000
    y....006  OBJ       942
    y....006  UC...006  -1000
    y....007  OBJ       891
    y....007  UC...007  -1000
    y....008  OBJ       653
    y....008  UC...008  -1000
    y....009  OBJ       921
    y....009  UC...009  -1000
    y....010  OBJ       895
    y....010  UC...010  -1000
    y....011  OBJ       771
    y....011  UC...011  -1000
    y....012  OBJ       912
    y....012  UC...012  -1000
    y....013  OBJ       535
    y....013  UC...013  -1000
    y....014  OBJ       811
    y....014  UC...014  -1000
    y....015  OBJ       673
    y....015  UC...015  -1000
    y....016  OBJ       711
    y....016  UC...016  -1000
    y....017  OBJ       547
    y....017  UC...017  -1000
    y....018  OBJ       757
    y....018  UC...018  -1000
    y....019  OBJ       723
    y....019  UC...019  -1000
    y....020  OBJ       778
    y....020  UC...020  -1000
    y....021  OBJ       690
    y....021  UC...021  -1000
    y....022  OBJ       606
    y....022  UC...022  -1000
    y....023  OBJ       764
    y....023  UC...023  -1000
    y....024  OBJ       805
    y....024  UC...024  -1000
    y....025  OBJ       870
    y....025  UC...025  -1000
    y....026  OBJ       601
    y....026  UC...026  -1000
    y....027  OBJ       629
    y....027  UC...027  -1000
    y....028  OBJ       954
    y....028  UC...028  -1000
    y....029  OBJ       966
    y....029  UC...029  -1000
    y....030  OBJ       808
    y....030  UC...030  -1000
    y....031  OBJ       626
    y....031  UC...031  -1000
    y....032  OBJ       538
    y....032  UC...032  -1000
    y....033  OBJ       929
    y....033  UC...033  -1000
    y....034  OBJ       615
    y....034  UC...034  -1000
    y....035  OBJ       704
    y....035  UC...035  -1000
    y....036  OBJ       806
    y....036  UC...036  -1000
    y....037  OBJ       521
    y....037  UC...037  -1000
    y....038  OBJ       572
    y....038  UC...038  -1000
    y....039  OBJ       777
    y....039  UC...039  -1000
    y....040  OBJ       512
    y....040  UC...040  -1000
    y....041  OBJ       661
    y....041  UC...041  -1000
    y....042  OBJ       767
    y....042  UC...042  -1000
    y....043  OBJ       531
    y....043  UC...043  -1000
    y....044  OBJ       650
    y....044  UC...044  -1000
    y....045  OBJ       966
    y....045  UC...045  -1000
    y....046  OBJ       691
    y....046  UC...046  -1000
    y....047  OBJ       957
    y....047  UC...047  -1000
    y....048  OBJ       883
    y....048  UC...048  -1000
    y....049  OBJ       709
    y....049  UC...049  -1000
    y....050  OBJ       588
    y....050  UC...050  -1000
    y....051  OBJ       506
    y....051  UC...051  -1000
    y....052  OBJ       668
    y....052  UC...052  -1000
    y....053  OBJ       762
    y....053  UC...053  -1000
    y....054  OBJ       859
    y....054  UC...054  -1000
    y....055  OBJ       548
    y....055  UC...055  -1000
    y....056  OBJ       541
    y....056  UC...056  -1000
    y....057  OBJ       791
    y....057  UC...057  -1000
    y....058  OBJ       520
    y....058  UC...058  -1000
    y....059  OBJ       848
    y....059  UC...059  -1000
    y....060  OBJ       984
    y....060  UC...060  -1000
    y....061  OBJ       553
    y....061  UC...061  -1000
    y....062  OBJ       938
    y....062  UC...062  -1000
    y....063  OBJ       627
    y....063  UC...063  -1000
    y....064  OBJ       893
    y....064  UC...064  -1000
    y....065  OBJ       807
    y....065  UC...065  -1000
    y....066  OBJ       617
    y....066  UC...066  -1000
    y....067  OBJ       809
    y....067  UC...067  -1000
    y....068  OBJ       951
    y....068  UC...068  -1000
    y....069  OBJ       519
    y....069  UC...069  -1000
    y....070  OBJ       803
    y....070  UC...070  -1000
    y....071  OBJ       844
    y....071  UC...071  -1000
    y....072  OBJ       702
    y....072  UC...072  -1000
    y....073  OBJ       593
    y....073  UC...073  -1000
    y....074  OBJ       587
    y....074  UC...074  -1000
    y....075  OBJ       948
    y....075  UC...075  -1000
    y....076  OBJ       618
    y....076  UC...076  -1000
    y....077  OBJ       798
    y....077  UC...077  -1000
    y....078  OBJ       798
    y....078  UC...078  -1000
    y....079  OBJ       972
    y....079  UC...079  -1000
    y....080  OBJ       792
    y....080  UC...080  -1000
    y....081  OBJ       690
    y....081  UC...081  -1000
    y....082  OBJ       691
    y....082  UC...082  -1000
    y....083  OBJ       656
    y....083  UC...083  -1000
    y....084  OBJ       634
    y....084  UC...084  -1000
    y....085  OBJ       828
    y....085  UC...085  -1000
    y....086  OBJ       886
    y....086  UC...086  -1000
    y....087  OBJ       869
    y....087  UC...087  -1000
    y....088  OBJ       916
    y....088  UC...088  -1000
    y....089  OBJ       822
    y....089  UC...089  -1000
    y....090  OBJ       699
    y....090  UC...090  -1000
    y....091  OBJ       892
    y....091  UC...091  -1000
    y....092  OBJ       712
    y....092  UC...092  -1000
    y....093  OBJ       503
    y....093  UC...093  -1000
    y....094  OBJ       688
    y....094  UC...094  -1000
    y....095  OBJ       755
    y....095  UC...095  -1000
    y....096  OBJ       585
    y....096  UC...096  -1000
    y....097  OBJ       588
    y....097  UC...097  -1000
    y....098  OBJ       757
    y....098  UC...098  -1000
    y....099  OBJ       669
    y....099  UC...099  -1000
    y....100  OBJ       689
    y....100  UC...100  -1000
    y....101  OBJ       868
    y....101  UC...101  -1000
    y....102  OBJ       555
    y....102  UC...102  -1000
    y....103  OBJ       941
    y....103  UC...103  -1000
    y....104  OBJ       560
    y....104  UC...104  -1000
    y....105  OBJ       639
    y....105  UC...105  -1000
    y....106  OBJ       996
    y....106  UC...106  -1000
    y....107  OBJ       549
    y....107  UC...107  -1000
    y....108  OBJ       949
    y....108  UC...108  -1000
    y....109  OBJ       797
    y....109  UC...109  -1000
    y....110  OBJ       605
    y....110  UC...110  -1000
    y....111  OBJ       955
    y....111  UC...111  -1000
    y....112  OBJ       701
    y....112  UC...112  -1000
    y....113  OBJ       786
    y....113  UC...113  -1000
    y....114  OBJ       855
    y....114  UC...114  -1000
    y....115  OBJ       912
    y....115  UC...115  -1000
    y....116  OBJ       945
    y....116  UC...116  -1000
    y....117  OBJ       821
    y....117  UC...117  -1000
    y....118  OBJ       982
    y....118  UC...118  -1000
    y....119  OBJ       696
    y....119  UC...119  -1000
    y....120  OBJ       661
    y....120  UC...120  -1000
    y....121  OBJ       673
    y....121  UC...121  -1000
    y....122  OBJ       659
    y....122  UC...122  -1000
    y....123  OBJ       753
    y....123  UC...123  -1000
    y....124  OBJ       510
    y....124  UC...124  -1000
    y....125  OBJ       686
    y....125  UC...125  -1000
    y....126  OBJ       522
    y....126  UC...126  -1000
    y....127  OBJ       787
    y....127  UC...127  -1000
    y....128  OBJ       891
    y....128  UC...128  -1000
    y....129  OBJ       977
    y....129  UC...129  -1000
    y....130  OBJ       824
    y....130  UC...130  -1000
    y....131  OBJ       872
    y....131  UC...131  -1000
    y....132  OBJ       570
    y....132  UC...132  -1000
    y....133  OBJ       518
    y....133  UC...133  -1000
    y....134  OBJ       770
    y....134  UC...134  -1000
    y....135  OBJ       692
    y....135  UC...135  -1000
    y....136  OBJ       980
    y....136  UC...136  -1000
    y....137  OBJ       802
    y....137  UC...137  -1000
    y....138  OBJ       625
    y....138  UC...138  -1000
    y....139  OBJ       523
    y....139  UC...139  -1000
    y....140  OBJ       681
    y....140  UC...140  -1000
    y....141  OBJ       505
    y....141  UC...141  -1000
    y....142  OBJ       531
    y....142  UC...142  -1000
    y....143  OBJ       722
    y....143  UC...143  -1000
    y....144  OBJ       900
    y....144  UC...144  -1000
    y....145  OBJ       913
    y....145  UC...145  -1000
    y....146  OBJ       670
    y....146  UC...146  -1000
    y....147  OBJ       711
    y....147  UC...147  -1000
    y....148  OBJ       667
    y....148  UC...148  -1000
    y....149  OBJ       640
    y....149  UC...149  -1000
    y....150  OBJ       624
    y....150  UC...150  -1000
    y....151  OBJ       576
    y....151  UC...151  -1000
    y....152  OBJ       802
    y....152  UC...152  -1000
    y....153  OBJ       678
    y....153  UC...153  -1000
    y....154  OBJ       984
    y....154  UC...154  -1000
    y....155  OBJ       619
    y....155  UC...155  -1000
    y....156  OBJ       587
    y....156  UC...156  -1000
    y....157  OBJ       510
    y....157  UC...157  -1000
    y....158  OBJ       815
    y....158  UC...158  -1000
    y....159  OBJ       543
    y....159  UC...159  -1000
    y....160  OBJ       609
    y....160  UC...160  -1000
    y....161  OBJ       565
    y....161  UC...161  -1000
    y....162  OBJ       974
    y....162  UC...162  -1000
    y....163  OBJ       629
    y....163  UC...163  -1000
    y....164  OBJ       520
    y....164  UC...164  -1000
    y....165  OBJ       623
    y....165  UC...165  -1000
    y....166  OBJ       761
    y....166  UC...166  -1000
    y....167  OBJ       764
    y....167  UC...167  -1000
    y....168  OBJ       616
    y....168  UC...168  -1000
    y....169  OBJ       511
    y....169  UC...169  -1000
    y....170  OBJ       547
    y....170  UC...170  -1000
    y....171  OBJ       790
    y....171  UC...171  -1000
    y....172  OBJ       763
    y....172  UC...172  -1000
    y....173  OBJ       662
    y....173  UC...173  -1000
    y....174  OBJ       713
    y....174  UC...174  -1000
    y....175  OBJ       865
    y....175  UC...175  -1000
    y....176  OBJ       700
    y....176  UC...176  -1000
    y....177  OBJ       803
    y....177  UC...177  -1000
    y....178  OBJ       824
    y....178  UC...178  -1000
    y....179  OBJ       613
    y....179  UC...179  -1000
    y....180  OBJ       850
    y....180  UC...180  -1000
    y....181  OBJ       993
    y....181  UC...181  -1000
    y....182  OBJ       540
    y....182  UC...182  -1000
    y....183  OBJ       835
    y....183  UC...183  -1000
    y....184  OBJ       850
    y....184  UC...184  -1000
    y....185  OBJ       556
    y....185  UC...185  -1000
    y....186  OBJ       857
    y....186  UC...186  -1000
    y....187  OBJ       837
    y....187  UC...187  -1000
    y....188  OBJ       861
    y....188  UC...188  -1000
    y....189  OBJ       617
    y....189  UC...189  -1000
    y....190  OBJ       696
    y....190  UC...190  -1000
    y....191  OBJ       923
    y....191  UC...191  -1000
    y....192  OBJ       565
    y....192  UC...192  -1000
    y....193  OBJ       796
    y....193  UC...193  -1000
    y....194  OBJ       962
    y....194  UC...194  -1000
    y....195  OBJ       654
    y....195  UC...195  -1000
    y....196  OBJ       869
    y....196  UC...196  -1000
    y....197  OBJ       607
    y....197  UC...197  -1000
    y....198  OBJ       635
    y....198  UC...198  -1000
    y....199  OBJ       675
    y....199  UC...199  -1000
    y....200  OBJ       642
    y....200  UC...200  -1000
    y....201  OBJ       741
    y....201  UC...201  -1000
    y....202  OBJ       825
    y....202  UC...202  -1000
    y....203  OBJ       626
    y....203  UC...203  -1000
    y....204  OBJ       783
    y....204  UC...204  -1000
    y....205  OBJ       779
    y....205  UC...205  -1000
    y....206  OBJ       734
    y....206  UC...206  -1000
    y....207  OBJ       556
    y....207  UC...207  -1000
    y....208  OBJ       705
    y....208  UC...208  -1000
    y....209  OBJ       881
    y....209  UC...209  -1000
    y....210  OBJ       641
    y....210  UC...210  -1000
    y....211  OBJ       642
    y....211  UC...211  -1000
    y....212  OBJ       877
    y....212  UC...212  -1000
    y....213  OBJ       752
    y....213  UC...213  -1000
    y....214  OBJ       673
    y....214  UC...214  -1000
    y....215  OBJ       875
    y....215  UC...215  -1000
    y....216  OBJ       610
    y....216  UC...216  -1000
    y....217  OBJ       612
    y....217  UC...217  -1000
    y....218  OBJ       831
    y....218  UC...218  -1000
    y....219  OBJ       685
    y....219  UC...219  -1000
    y....220  OBJ       589
    y....220  UC...220  -1000
    y....221  OBJ       853
    y....221  UC...221  -1000
    y....222  OBJ       740
    y....222  UC...222  -1000
    y....223  OBJ       835
    y....223  UC...223  -1000
    y....224  OBJ       605
    y....224  UC...224  -1000
    y....225  OBJ       503
    y....225  UC...225  -1000
    y....226  OBJ       608
    y....226  UC...226  -1000
    y....227  OBJ       549
    y....227  UC...227  -1000
    y....228  OBJ       627
    y....228  UC...228  -1000
    y....229  OBJ       629
    y....229  UC...229  -1000
    y....230  OBJ       674
    y....230  UC...230  -1000
    y....231  OBJ       715
    y....231  UC...231  -1000
    y....232  OBJ       992
    y....232  UC...232  -1000
    y....233  OBJ       892
    y....233  UC...233  -1000
    y....234  OBJ       928
    y....234  UC...234  -1000
    y....235  OBJ       575
    y....235  UC...235  -1000
    y....236  OBJ       970
    y....236  UC...236  -1000
    y....237  OBJ       604
    y....237  UC...237  -1000
    y....238  OBJ       663
    y....238  UC...238  -1000
    y....239  OBJ       510
    y....239  UC...239  -1000
    y....240  OBJ       740
    y....240  UC...240  -1000
    MARKER    'MARKER'                 'INTEND'
RHS
    RHS1      CNS...01  206
    RHS1      CNS...02  -125
    RHS1      CNS...03  -97
    RHS1      CNS...04  -123
    RHS1      CNS...06  251
    RHS1      CNS...07  -4
    RHS1      CNS...08  -164
    RHS1      CNS...09  149
    RHS1      CNS...10  -95
    RHS1      CNS...11  -77
    RHS1      CNS...12  -135
    RHS1      CNS...13  -59
    RHS1      CNS...14  27
    RHS1      CNS...15  367
    RHS1      CNS...16  -121
BOUNDS
 UP BND1      x....001  1000
 UP BND1      x....002  1000
 UP BND1      x....003  1000
 UP BND1      x....004  1000
 UP BND1      x....005  1000
 UP BND1      x....006  1000
 UP BND1      x....007  1000
 UP BND1      x....008  1000
 UP BND1      x....009  1000
 UP BND1      x....010  1000
 UP BND1      x....011  1000
 UP BND1      x....012  1000
 UP BND1      x....013  1000
 UP BND1      x....014  1000
 UP BND1      x....015  1000
 UP BND1      x....016  1000
 UP BND1      x....017  1000
 UP BND1      x....018  1000
 UP BND1      x....019  1000
 UP BND1      x....020  1000
 UP BND1      x....021  1000
 UP BND1      x....022  1000
 UP BND1      x....023  1000
 UP BND1      x....024  1000
 UP BND1      x....025  1000
 UP BND1      x....026  1000
 UP BND1      x....027  1000
 UP BND1      x....028  1000
 UP BND1      x....029  1000
 UP BND1      x....030  1000
 UP BND1      x....031  1000
 UP BND1      x....032  1000
 UP BND1      x....033  1000
 UP BND1      x....034  1000
 UP BND1      x....035  1000
 UP BND1      x....036  1000
 UP BND1      x....037  1000
 UP BND1      x....038  1000
 UP BND1      x....039  1000
 UP BND1      x....040  1000
 UP BND1      x....041  1000
 UP BND1      x....042  1000
 UP BND1      x....043  1000
 UP BND1      x....044  1000
 UP BND1      x....045  1000
 UP BND1      x....046  1000
 UP BND1      x....047  1000
 UP BND1      x....048  1000
 UP BND1      x....049  1000
 UP BND1      x....050  1000
 UP BND1      x....051  1000
 UP BND1      x....052  1000
 UP BND1      x....053  1000
 UP BND1      x....054  1000
 UP BND1      x....055  1000
 UP BND1      x....056  1000
 UP BND1      x....057  1000
 UP BND1      x....058  1000
 UP BND1      x....059  1000
 UP BND1      x....060  1000
 UP BND1      x....061  1000
 UP BND1      x....062  1000
 UP BND1      x....063  1000
 UP BND1      x....064  1000
 UP BND1      x....065  1000
 UP BND1      x....066  1000
 UP BND1      x....067  1000
 UP BND1      x....068  1000
 UP BND1      x....069  1000
 UP BND1      x....070  1000
 UP BND1      x....071  1000
 UP BND1      x....072  1000
 UP BND1      x....073  1000
 UP BND1      x....074  1000
 UP BND1      x....075  1000
 UP BND1      x....076  1000
 UP BND1      x....077  1000
 UP BND1      x....078  1000
 UP BND1      x....079  1000
 UP BND1      x....080  1000
 UP BND1      x....081  1000
 UP BND1      x....082  1000
 UP BND1      x....083  1000
 UP BND1      x....084  1000
 UP BND1      x....085  1000
 UP BND1      x....086  1000
 UP BND1      x....087  1000
 UP BND1      x....088  1000
 UP BND1      x....089  1000
 UP BND1      x....090  1000
 UP BND1      x....091  1000
 UP BND1      x....092  1000
 UP BND1      x....093  1000
 UP BND1      x....094  1000
 UP BND1      x....095  1000
 UP BND1      x....096  1000
 UP BND1      x....097  1000
 UP BND1      x....098  1000
 UP BND1      x....099  1000
 UP BND1      x....100  1000
 UP BND1      x....101  1000
 UP BND1      x....102  1000
 UP BND1      x....103  1000
 UP BND1      x....104  1000
 UP BND1      x....105  1000
 UP BND1      x....106  1000
 UP BND1      x....107  1000
 UP BND1      x....108  1000
 UP BND1      x....109  1000
 UP BND1      x....110  1000
 UP BND1      x....111  1000
 UP BND1      x....112  1000
 UP BND1      x....113  1000
 UP BND1      x....114  1000
 UP BND1      x....115  1000
 UP BND1      x....116  1000
 UP BND1      x....117  1000
 UP BND1      x....118  1000
 UP BND1      x....119  1000
 UP BND1      x....120  1000
 UP BND1      x....121  1000
 UP BND1      x....122  1000
 UP BND1      x....123  1000
 UP BND1      x....124  1000
 UP BND1      x....125  1000
 UP BND1      x....126  1000
 UP BND1      x....127  1000
 UP BND1      x....128  1000
 UP BND1      x....129  1000
 UP BND1      x....130  1000
 UP BND1      x....131  1000
 UP BND1      x....132  1000
 UP BND1      x....133  1000
 UP BND1      x....134  1000
 UP BND1      x....135  1000
 UP BND1      x....136  1000
 UP BND1      x....137  1000
 UP BND1      x....138  1000
 UP BND1      x....139  1000
 UP BND1      x....140  1000
 UP BND1      x....141  1000
 UP BND1      x....142  1000
 UP BND1      x....143  1000
 UP BND1      x....144  1000
 UP BND1      x....145  1000
 UP BND1      x....146  1000
 UP BND1      x....147  1000
 UP BND1      x....148  1000
 UP BND1      x....149  1000
 UP BND1      x....150  1000
 UP BND1      x....151  1000
 UP BND1      x....152  1000
 UP BND1      x....153  1000
 UP BND1      x....154  1000
 UP BND1      x....155  1000
 UP BND1      x....156  1000
 UP BND1      x....157  1000
 UP BND1      x....158  1000
 UP BND1      x....159  1000
 UP BND1      x....160  1000
 UP BND1      x....161  1000
 UP BND1      x....162  1000
 UP BND1      x....163  1000
 UP BND1      x....164  1000
 UP BND1      x....165  1000
 UP BND1      x....166  1000
 UP BND1      x....167  1000
 UP BND1      x....168  1000
 UP BND1      x....169  1000
 UP BND1      x....170  1000
 UP BND1      x....171  1000
 UP BND1      x....172  1000
 UP BND1      x....173  1000
 UP BND1      x....174  1000
 UP BND1      x....175  1000
 UP BND1      x....176  1000
 UP BND1      x....177  1000
 UP BND1      x....178  1000
 UP BND1      x....179  1000
 UP BND1      x....180  1000
 UP BND1      x....181  1000
 UP BND1      x....182  1000
 UP BND1      x....183  1000
 UP BND1      x....184  1000
 UP BND1      x....185  1000
 UP BND1      x....186  1000
 UP BND1      x....187  1000
 UP BND1      x....188  1000
 UP BND1      x....189  1000
 UP BND1      x....190  1000
 UP BND1      x....191  1000
 UP BND1      x....192  1000
 UP BND1      x....193  1000
 UP BND1      x....194  1000
 UP BND1      x....195  1000
 UP BND1      x....196  1000
 UP BND1      x....197  1000
 UP BND1      x....198  1000
 UP BND1      x....199  1000
 UP BND1      x....200  1000
 UP BND1      x....201  1000
 UP BND1      x....202  1000
 UP BND1      x....203  1000
 UP BND1      x....204  1000
 UP BND1      x....205  1000
 UP BND1      x....206  1000
 UP BND1      x....207  1000
 UP BND1      x....208  1000
 UP BND1      x....209  1000
 UP BND1      x....210  1000
 UP BND1      x....211  1000
 UP BND1      x....212  1000
 UP BND1      x....213  1000
 UP BND1      x....214  1000
 UP BND1      x....215  1000
 UP BND1      x....216  1000
 UP BND1      x....217  1000
 UP BND1      x....218  1000
 UP BND1      x....219  1000
 UP BND1      x....220  1000
 UP BND1      x....221  1000
 UP BND1      x....222  1000
 UP BND1      x....223  1000
 UP BND1      x....224  1000
 UP BND1      x....225  1000
 UP BND1      x....226  1000
 UP BND1      x....227  1000
 UP BND1      x....228  1000
 UP BND1      x....229  1000
 UP BND1      x....230  1000
 UP BND1      x....231  1000
 UP BND1      x....232  1000
 UP BND1      x....233  1000
 UP BND1      x....234  1000
 UP BND1      x....235  1000
 UP BND1      x....236  1000
 UP BND1      x....237  1000
 UP BND1      x....238  1000
 UP BND1      x....239  1000
 UP BND1      x....240  1000
 BV BND1      y....001
 BV BND1      y....002
 BV BND1      y....003
 BV BND1      y....004
 BV BND1      y....005
 BV BND1      y....006
 BV BND1      y....007
 BV BND1      y....008
 BV BND1      y....009
 BV BND1      y....010
 BV BND1      y....011
 BV BND1      y....012
 BV BND1      y....013
 BV BND1      y....014
 BV BND1      y....015
 BV BND1      y....016
 BV BND1      y....017
 BV BND1      y....018
 BV BND1      y....019
 BV BND1      y....020
 BV BND1      y....021
 BV BND1      y....022
 BV BND1      y....023
 BV BND1      y....024
 BV BND1      y....025
 BV BND1      y....026
 BV BND1      y....027
 BV BND1      y....028
 BV BND1      y....029
 BV BND1      y....030
 BV BND1      y....031
 BV BND1      y....032
 BV BND1      y....033
 BV BND1      y....034
 BV BND1      y....035
 BV BND1      y....036
 BV BND1      y....037
 BV BND1      y....038
 BV BND1      y....039
 BV BND1      y....040
 BV BND1      y....041
 BV BND1      y....042
 BV BND1      y....043
 BV BND1      y....044
 BV BND1      y....045
 BV BND1      y....046
 BV BND1      y....047
 BV BND1      y....048
 BV BND1      y....049
 BV BND1      y....050
 BV BND1      y....051
 BV BND1      y....052
 BV BND1      y....053
 BV BND1      y....054
 BV BND1      y....055
 BV BND1      y....056
 BV BND1      y....057
 BV BND1      y....058
 BV BND1      y....059
 BV BND1      y....060
 BV BND1      y....061
 BV BND1      y....062
 BV BND1      y....063
 BV BND1      y....064
 BV BND1      y....065
 BV BND1      y....066
 BV BND1      y....067
 BV BND1      y....068
 BV BND1      y....069
 BV BND1      y....070
 BV BND1      y....071
 BV BND1      y....072
 BV BND1      y....073
 BV BND1      y....074
 BV BND1      y....075
 BV BND1      y....076
 BV BND1      y....077
 BV BND1      y....078
 BV BND1      y....079
 BV BND1      y....080
 BV BND1      y....081
 BV BND1      y....082
 BV BND1      y....083
 BV BND1      y....084
 BV BND1      y....085
 BV BND1      y....086
 BV BND1      y....087
 BV BND1      y....088
 BV BND1      y....089
 BV BND1      y....090
 BV BND1      y....091
 BV BND1      y....092
 BV BND1      y....093
 BV BND1      y....094
 BV BND1      y....095
 BV BND1      y....096
 BV BND1      y....097
 BV BND1      y....098
 BV BND1      y....099
 BV BND1      y....100
 BV BND1      y....101
 BV BND1      y....102
 BV BND1      y....103
 BV BND1      y....104
 BV BND1      y....105
 BV BND1      y....106
 BV BND1      y....107
 BV BND1      y....108
 BV BND1      y....109
 BV BND1      y....110
 BV BND1      y....111
 BV BND1      y....112
 BV BND1      y....113
 BV BND1      y....114
 BV BND1      y....115
 BV BND1      y....116
 BV BND1      y....117
 BV BND1      y....118
 BV BND1      y....119
 BV BND1      y....120
 BV BND1      y....121
 BV BND1      y....122
 BV BND1      y....123
 BV BND1      y....124
 BV BND1      y....125
 BV BND1      y....126
 BV BND1      y....127
 BV BND1      y....128
 BV BND1      y....129
 BV BND1      y....130
 BV BND1      y....131
 BV BND1      y....132
 BV BND1      y....133
 BV BND1      y....134
 BV BND1      y....135
 BV BND1      y....136
 BV BND1      y....137
 BV BND1      y....138
 BV BND1      y....139
 BV BND1      y....140
 BV BND1      y....141
 BV BND1      y....142
 BV BND1      y....143
 BV BND1      y....144
 BV BND1      y....145
 BV BND1      y....146
 BV BND1      y....147
 BV BND1      y....148
 BV BND1      y....149
 BV BND1      y....150
 BV BND1      y....151
 BV BND1      y....152
 BV BND1      y....153
 BV BND1      y....154
 BV BND1      y....155
 BV BND1      y....156
 BV BND1      y....157
 BV BND1      y....158
 BV BND1      y....159
 BV BND1      y....160
 BV BND1      y....161
 BV BND1      y....162
 BV BND1      y....163
 BV BND1      y....164
 BV BND1      y....165
 BV BND1      y....166
 BV BND1      y....167
 BV BND1      y....168
 BV BND1      y....169
 BV BND1      y....170
 BV BND1      y....171
 BV BND1      y....172
 BV BND1      y....173
 BV BND1      y....174
 BV BND1      y....175
 BV BND1      y....176
 BV BND1      y....177
 BV BND1      y....178
 BV BND1      y....179
 BV BND1      y....180
 BV BND1      y....181
 BV BND1      y....182
 BV BND1      y....183
 BV BND1      y....184
 BV BND1      y....185
 BV BND1      y....186
 BV BND1      y....187
 BV BND1      y....188
 BV BND1      y....189
 BV BND1      y....190
 BV BND1      y....191
 BV BND1      y....192
 BV BND1      y....193
 BV BND1      y....194
 BV BND1      y....195
 BV BND1      y....196
 BV BND1      y....197
 BV BND1      y....198
 BV BND1      y....199
 BV BND1      y....200
 BV BND1      y....201
 BV BND1      y....202
 BV BND1      y....203
 BV BND1      y....204
 BV BND1      y....205
 BV BND1      y....206
 BV BND1      y....207
 BV BND1      y....208
 BV BND1      y....209
 BV BND1      y....210
 BV BND1      y....211
 BV BND1      y....212
 BV BND1      y....213
 BV BND1      y....214
 BV BND1      y....215
 BV BND1      y....216
 BV BND1      y....217
 BV BND1      y....218
 BV BND1      y....219
 BV BND1      y....220
 BV BND1      y....221
 BV BND1      y....222
 BV BND1      y....223
 BV BND1      y....224
 BV BND1      y....225
 BV BND1      y....226
 BV BND1      y....227
 BV BND1      y....228
 BV BND1      y....229
 BV BND1      y....230
 BV BND1      y....231
 BV BND1      y....232
 BV BND1      y....233
 BV BND1      y....234
 BV BND1      y....235
 BV BND1      y....236
 BV BND1      y....237
 BV BND1      y....238
 BV BND1      y....239
 BV BND1      y....240
ENDATA
