NAME m100n500k4r1_pre
ROWS
 N  OBJ
 L  c1      
 L  c2      
 L  c3      
 L  c4      
 L  c5      
 L  c6      
 L  c7      
 L  c8      
 L  c9      
 L  c10     
 L  c11     
 L  c12     
 L  c13     
 L  c14     
 L  c15     
 L  c16     
 L  c17     
 L  c18     
 L  c19     
 L  c20     
 L  c21     
 L  c22     
 L  c23     
 L  c24     
 L  c25     
 L  c26     
 L  c27     
 L  c28     
 L  c29     
 L  c30     
 L  c31     
 L  c32     
 L  c33     
 L  c34     
 L  c35     
 L  c36     
 L  c37     
 L  c38     
 L  c39     
 L  c40     
 L  c41     
 L  c42     
 L  c43     
 L  c44     
 L  c45     
 L  c46     
 L  c47     
 L  c48     
 L  c49     
 L  c50     
 L  c51     
 L  c52     
 L  c53     
 L  c54     
 L  c55     
 L  c56     
 L  c57     
 L  c58     
 L  c59     
 L  c60     
 L  c61     
 L  c62     
 L  c63     
 L  c64     
 L  c65     
 L  c66     
 L  c67     
 L  c68     
 L  c69     
 L  c70     
 L  c71     
 L  c72     
 L  c73     
 L  c74     
 L  c75     
 L  c76     
 L  c77     
 L  c78     
 L  c79     
 L  c80     
 L  c81     
 L  c82     
 L  c83     
 L  c84     
 L  c85     
 L  c86     
 L  c87     
 L  c88     
 L  c89     
 L  c90     
 L  c91     
 L  c92     
 L  c93     
 L  c94     
 L  c95     
 L  c96     
 L  c97     
 L  c98     
 L  c99     
 L  c100    
COLUMNS
    MARKER    'MARKER'                 'INTORG'
    x1        OBJ       -1
    x1        c26       1
    x1        c29       1
    x1        c33       1
    x1        c59       1
    x2        OBJ       -1
    x2        c30       1
    x2        c71       1
    x2        c75       1
    x2        c86       1
    x3        OBJ       -1
    x3        c19       1
    x3        c28       1
    x3        c53       1
    x3        c96       1
    x4        OBJ       -1
    x4        c18       1
    x4        c20       1
    x4        c52       1
    x4        c88       1
    x5        OBJ       -1
    x5        c5        1
    x5        c41       1
    x5        c55       1
    x5        c91       1
    x6        OBJ       -1
    x6        c10       1
    x6        c42       1
    x6        c69       1
    x6        c97       1
    x7        OBJ       -1
    x7        c17       1
    x7        c37       1
    x7        c40       1
    x7        c68       1
    x8        OBJ       -1
    x8        c19       1
    x8        c20       1
    x8        c37       1
    x8        c77       1
    x9        OBJ       -1
    x9        c4        1
    x9        c43       1
    x9        c69       1
    x9        c98       1
    x10       OBJ       -1
    x10       c28       1
    x10       c71       1
    x10       c74       1
    x10       c79       1
    x11       OBJ       -1
    x11       c6        1
    x11       c65       1
    x11       c78       1
    x11       c92       1
    x12       OBJ       -1
    x12       c15       1
    x12       c24       1
    x12       c54       1
    x12       c94       1
    x13       OBJ       -1
    x13       c8        1
    x13       c14       1
    x13       c54       1
    x13       c98       1
    x14       OBJ       -1
    x14       c1        1
    x14       c16       1
    x14       c50       1
    x14       c65       1
    x15       OBJ       -1
    x15       c55       1
    x15       c65       1
    x15       c67       1
    x15       c74       1
    x16       OBJ       -1
    x16       c1        1
    x16       c49       1
    x16       c69       1
    x16       c85       1
    x17       OBJ       -1
    x17       c26       1
    x17       c52       1
    x17       c53       1
    x17       c65       1
    x18       OBJ       -1
    x18       c15       1
    x18       c25       1
    x18       c30       1
    x18       c34       1
    x19       OBJ       -1
    x19       c12       1
    x19       c34       1
    x19       c92       1
    x19       c98       1
    x20       OBJ       -1
    x20       c57       1
    x20       c64       1
    x20       c69       1
    x20       c85       1
    x21       OBJ       -1
    x21       c22       1
    x21       c45       1
    x21       c71       1
    x21       c81       1
    x22       OBJ       -1
    x22       c39       1
    x22       c45       1
    x22       c70       1
    x22       c85       1
    x23       OBJ       -1
    x23       c11       1
    x23       c12       1
    x23       c33       1
    x23       c34       1
    x24       OBJ       -1
    x24       c18       1
    x24       c59       1
    x24       c94       1
    x24       c100      1
    x25       OBJ       -1
    x25       c10       1
    x25       c33       1
    x25       c64       1
    x25       c69       1
    x26       OBJ       -1
    x26       c47       1
    x26       c93       1
    x26       c96       1
    x26       c98       1
    x27       OBJ       -1
    x27       c3        1
    x27       c31       1
    x27       c37       1
    x27       c86       1
    x28       OBJ       -1
    x28       c20       1
    x28       c54       1
    x28       c66       1
    x28       c100      1
    x29       OBJ       -1
    x29       c19       1
    x29       c35       1
    x29       c43       1
    x29       c74       1
    x30       OBJ       -1
    x30       c43       1
    x30       c56       1
    x30       c75       1
    x30       c86       1
    x31       OBJ       -1
    x31       c7        1
    x31       c66       1
    x31       c88       1
    x31       c96       1
    x32       OBJ       -1
    x32       c4        1
    x32       c5        1
    x32       c23       1
    x32       c31       1
    x33       OBJ       -1
    x33       c62       1
    x33       c63       1
    x33       c67       1
    x33       c72       1
    x34       OBJ       -1
    x34       c8        1
    x34       c53       1
    x34       c68       1
    x34       c97       1
    x35       OBJ       -1
    x35       c43       1
    x35       c55       1
    x35       c62       1
    x35       c82       1
    x36       OBJ       -1
    x36       c19       1
    x36       c34       1
    x36       c53       1
    x36       c60       1
    x37       OBJ       -1
    x37       c2        1
    x37       c7        1
    x37       c48       1
    x37       c70       1
    x38       OBJ       -1
    x38       c22       1
    x38       c25       1
    x38       c81       1
    x38       c87       1
    x39       OBJ       -1
    x39       c11       1
    x39       c27       1
    x39       c67       1
    x39       c89       1
    x40       OBJ       -1
    x40       c31       1
    x40       c41       1
    x40       c70       1
    x40       c96       1
    x41       OBJ       -1
    x41       c2        1
    x41       c7        1
    x41       c40       1
    x41       c57       1
    x42       OBJ       -1
    x42       c3        1
    x42       c8        1
    x42       c9        1
    x42       c49       1
    x43       OBJ       -1
    x43       c10       1
    x43       c63       1
    x43       c80       1
    x43       c83       1
    x44       OBJ       -1
    x44       c16       1
    x44       c21       1
    x44       c32       1
    x44       c69       1
    x45       OBJ       -1
    x45       c55       1
    x45       c68       1
    x45       c69       1
    x45       c100      1
    x46       OBJ       -1
    x46       c12       1
    x46       c24       1
    x46       c34       1
    x46       c88       1
    x47       OBJ       -1
    x47       c13       1
    x47       c21       1
    x47       c42       1
    x47       c100      1
    x48       OBJ       -1
    x48       c7        1
    x48       c37       1
    x48       c61       1
    x48       c68       1
    x49       OBJ       -1
    x49       c12       1
    x49       c61       1
    x49       c67       1
    x49       c93       1
    x50       OBJ       -1
    x50       c14       1
    x50       c15       1
    x50       c61       1
    x50       c100      1
    x51       OBJ       -1
    x51       c9        1
    x51       c23       1
    x51       c40       1
    x51       c95       1
    x52       OBJ       -1
    x52       c29       1
    x52       c58       1
    x52       c70       1
    x52       c91       1
    x53       OBJ       -1
    x53       c12       1
    x53       c69       1
    x53       c92       1
    x53       c95       1
    x54       OBJ       -1
    x54       c2        1
    x54       c44       1
    x54       c81       1
    x54       c93       1
    x55       OBJ       -1
    x55       c9        1
    x55       c22       1
    x55       c33       1
    x55       c43       1
    x56       OBJ       -1
    x56       c15       1
    x56       c40       1
    x56       c69       1
    x56       c81       1
    x57       OBJ       -1
    x57       c6        1
    x57       c26       1
    x57       c59       1
    x57       c60       1
    x58       OBJ       -1
    x58       c19       1
    x58       c20       1
    x58       c31       1
    x58       c38       1
    x59       OBJ       -1
    x59       c30       1
    x59       c39       1
    x59       c41       1
    x59       c58       1
    x60       OBJ       -1
    x60       c26       1
    x60       c66       1
    x60       c87       1
    x60       c94       1
    x61       OBJ       -1
    x61       c39       1
    x61       c60       1
    x61       c84       1
    x61       c97       1
    x62       OBJ       -1
    x62       c30       1
    x62       c40       1
    x62       c81       1
    x62       c85       1
    x63       OBJ       -1
    x63       c5        1
    x63       c62       1
    x63       c85       1
    x63       c89       1
    x64       OBJ       -1
    x64       c2        1
    x64       c23       1
    x64       c29       1
    x64       c88       1
    x65       OBJ       -1
    x65       c27       1
    x65       c28       1
    x65       c45       1
    x65       c63       1
    x66       OBJ       -1
    x66       c45       1
    x66       c63       1
    x66       c84       1
    x66       c92       1
    x67       OBJ       -1
    x67       c13       1
    x67       c19       1
    x67       c30       1
    x67       c44       1
    x68       OBJ       -1
    x68       c36       1
    x68       c53       1
    x68       c95       1
    x68       c98       1
    x69       OBJ       -1
    x69       c19       1
    x69       c33       1
    x69       c90       1
    x69       c94       1
    x70       OBJ       -1
    x70       c2        1
    x70       c6        1
    x70       c13       1
    x70       c19       1
    x71       OBJ       -1
    x71       c7        1
    x71       c80       1
    x71       c89       1
    x71       c100      1
    x72       OBJ       -1
    x72       c1        1
    x72       c11       1
    x72       c26       1
    x72       c94       1
    x73       OBJ       -1
    x73       c37       1
    x73       c38       1
    x73       c80       1
    x73       c88       1
    x74       OBJ       -1
    x74       c16       1
    x74       c63       1
    x74       c78       1
    x74       c99       1
    x75       OBJ       -1
    x75       c7        1
    x75       c59       1
    x75       c74       1
    x75       c100      1
    x76       OBJ       -1
    x76       c51       1
    x76       c63       1
    x76       c71       1
    x76       c94       1
    x77       OBJ       -1
    x77       c11       1
    x77       c12       1
    x77       c40       1
    x77       c95       1
    x78       OBJ       -1
    x78       c6        1
    x78       c16       1
    x78       c35       1
    x78       c57       1
    x79       OBJ       -1
    x79       c4        1
    x79       c5        1
    x79       c6        1
    x79       c41       1
    x80       OBJ       -1
    x80       c14       1
    x80       c29       1
    x80       c34       1
    x80       c49       1
    x81       OBJ       -1
    x81       c15       1
    x81       c28       1
    x81       c67       1
    x81       c70       1
    x82       OBJ       -1
    x82       c82       1
    x82       c89       1
    x82       c92       1
    x82       c97       1
    x83       OBJ       -1
    x83       c32       1
    x83       c39       1
    x83       c62       1
    x83       c96       1
    x84       OBJ       -1
    x84       c31       1
    x84       c41       1
    x84       c45       1
    x84       c93       1
    x85       OBJ       -1
    x85       c39       1
    x85       c51       1
    x85       c83       1
    x85       c87       1
    x86       OBJ       -1
    x86       c66       1
    x86       c73       1
    x86       c91       1
    x86       c93       1
    x87       OBJ       -1
    x87       c12       1
    x87       c69       1
    x87       c81       1
    x87       c96       1
    x88       OBJ       -1
    x88       c13       1
    x88       c23       1
    x88       c29       1
    x88       c44       1
    x89       OBJ       -1
    x89       c27       1
    x89       c37       1
    x89       c55       1
    x89       c79       1
    x90       OBJ       -1
    x90       c3        1
    x90       c23       1
    x90       c43       1
    x90       c59       1
    x91       OBJ       -1
    x91       c17       1
    x91       c27       1
    x91       c33       1
    x91       c97       1
    x92       OBJ       -1
    x92       c25       1
    x92       c42       1
    x92       c60       1
    x92       c67       1
    x93       OBJ       -1
    x93       c10       1
    x93       c17       1
    x93       c80       1
    x93       c99       1
    x94       OBJ       -1
    x94       c49       1
    x94       c51       1
    x94       c81       1
    x94       c91       1
    x95       OBJ       -1
    x95       c5        1
    x95       c28       1
    x95       c62       1
    x95       c86       1
    x96       OBJ       -1
    x96       c8        1
    x96       c16       1
    x96       c43       1
    x96       c55       1
    x97       OBJ       -1
    x97       c9        1
    x97       c50       1
    x97       c69       1
    x97       c93       1
    x98       OBJ       -1
    x98       c47       1
    x98       c51       1
    x98       c52       1
    x98       c90       1
    x99       OBJ       -1
    x99       c5        1
    x99       c64       1
    x99       c72       1
    x99       c84       1
    x100      OBJ       -1
    x100      c5        1
    x100      c7        1
    x100      c16       1
    x100      c38       1
    x101      OBJ       -1
    x101      c14       1
    x101      c32       1
    x101      c53       1
    x101      c83       1
    x102      OBJ       -1
    x102      c4        1
    x102      c32       1
    x102      c80       1
    x102      c93       1
    x103      OBJ       -1
    x103      c7        1
    x103      c89       1
    x103      c95       1
    x103      c96       1
    x104      OBJ       -1
    x104      c11       1
    x104      c37       1
    x104      c60       1
    x104      c68       1
    x105      OBJ       -1
    x105      c2        1
    x105      c4        1
    x105      c16       1
    x105      c51       1
    x106      OBJ       -1
    x106      c67       1
    x106      c92       1
    x106      c96       1
    x106      c97       1
    x107      OBJ       -1
    x107      c49       1
    x107      c55       1
    x107      c59       1
    x107      c67       1
    x108      OBJ       -1
    x108      c3        1
    x108      c54       1
    x108      c62       1
    x108      c70       1
    x109      OBJ       -1
    x109      c44       1
    x109      c74       1
    x109      c82       1
    x109      c85       1
    x110      OBJ       -1
    x110      c64       1
    x110      c65       1
    x110      c72       1
    x110      c85       1
    x111      OBJ       -1
    x111      c28       1
    x111      c60       1
    x111      c66       1
    x111      c69       1
    x112      OBJ       -1
    x112      c1        1
    x112      c69       1
    x112      c70       1
    x112      c94       1
    x113      OBJ       -1
    x113      c3        1
    x113      c8        1
    x113      c20       1
    x113      c94       1
    x114      OBJ       -1
    x114      c15       1
    x114      c21       1
    x114      c74       1
    x114      c89       1
    x115      OBJ       -1
    x115      c47       1
    x115      c74       1
    x115      c80       1
    x115      c82       1
    x116      OBJ       -1
    x116      c8        1
    x116      c35       1
    x116      c42       1
    x116      c50       1
    x117      OBJ       -1
    x117      c6        1
    x117      c19       1
    x117      c22       1
    x117      c23       1
    x118      OBJ       -1
    x118      c49       1
    x118      c77       1
    x118      c81       1
    x118      c86       1
    x119      OBJ       -1
    x119      c12       1
    x119      c41       1
    x119      c45       1
    x119      c75       1
    x120      OBJ       -1
    x120      c41       1
    x120      c43       1
    x120      c67       1
    x120      c80       1
    x121      OBJ       -1
    x121      c36       1
    x121      c46       1
    x121      c74       1
    x121      c98       1
    x122      OBJ       -1
    x122      c12       1
    x122      c24       1
    x122      c65       1
    x122      c90       1
    x123      OBJ       -1
    x123      c38       1
    x123      c69       1
    x123      c71       1
    x123      c75       1
    x124      OBJ       -1
    x124      c5        1
    x124      c23       1
    x124      c79       1
    x124      c100      1
    x125      OBJ       -1
    x125      c3        1
    x125      c5        1
    x125      c23       1
    x125      c44       1
    x126      OBJ       -1
    x126      c29       1
    x126      c50       1
    x126      c72       1
    x126      c81       1
    x127      OBJ       -1
    x127      c21       1
    x127      c23       1
    x127      c60       1
    x127      c83       1
    x128      OBJ       -1
    x128      c2        1
    x128      c61       1
    x128      c62       1
    x128      c89       1
    x129      OBJ       -1
    x129      c6        1
    x129      c36       1
    x129      c59       1
    x129      c69       1
    x130      OBJ       -1
    x130      c26       1
    x130      c58       1
    x130      c59       1
    x130      c70       1
    x131      OBJ       -1
    x131      c7        1
    x131      c28       1
    x131      c84       1
    x131      c99       1
    x132      OBJ       -1
    x132      c21       1
    x132      c31       1
    x132      c52       1
    x132      c83       1
    x133      OBJ       -1
    x133      c54       1
    x133      c63       1
    x133      c87       1
    x133      c91       1
    x134      OBJ       -1
    x134      c2        1
    x134      c61       1
    x134      c66       1
    x134      c85       1
    x135      OBJ       -1
    x135      c11       1
    x135      c24       1
    x135      c43       1
    x135      c44       1
    x136      OBJ       -1
    x136      c4        1
    x136      c45       1
    x136      c61       1
    x136      c71       1
    x137      OBJ       -1
    x137      c28       1
    x137      c36       1
    x137      c75       1
    x137      c79       1
    x138      OBJ       -1
    x138      c44       1
    x138      c49       1
    x138      c61       1
    x138      c85       1
    x139      OBJ       -1
    x139      c11       1
    x139      c31       1
    x139      c40       1
    x139      c58       1
    x140      OBJ       -1
    x140      c12       1
    x140      c39       1
    x140      c78       1
    x140      c91       1
    x141      OBJ       -1
    x141      c29       1
    x141      c43       1
    x141      c62       1
    x141      c97       1
    x142      OBJ       -1
    x142      c44       1
    x142      c46       1
    x142      c67       1
    x142      c89       1
    x143      OBJ       -1
    x143      c30       1
    x143      c32       1
    x143      c76       1
    x143      c89       1
    x144      OBJ       -1
    x144      c10       1
    x144      c32       1
    x144      c46       1
    x144      c92       1
    x145      OBJ       -1
    x145      c18       1
    x145      c20       1
    x145      c45       1
    x145      c62       1
    x146      OBJ       -1
    x146      c1        1
    x146      c4        1
    x146      c9        1
    x146      c11       1
    x147      OBJ       -1
    x147      c37       1
    x147      c39       1
    x147      c49       1
    x147      c61       1
    x148      OBJ       -1
    x148      c39       1
    x148      c46       1
    x148      c50       1
    x148      c75       1
    x149      OBJ       -1
    x149      c2        1
    x149      c6        1
    x149      c23       1
    x149      c81       1
    x150      OBJ       -1
    x150      c18       1
    x150      c51       1
    x150      c89       1
    x150      c90       1
    x151      OBJ       -1
    x151      c38       1
    x151      c49       1
    x151      c63       1
    x151      c68       1
    x152      OBJ       -1
    x152      c8        1
    x152      c26       1
    x152      c39       1
    x152      c77       1
    x153      OBJ       -1
    x153      c20       1
    x153      c55       1
    x153      c56       1
    x153      c86       1
    x154      OBJ       -1
    x154      c22       1
    x154      c64       1
    x154      c81       1
    x154      c94       1
    x155      OBJ       -1
    x155      c12       1
    x155      c17       1
    x155      c32       1
    x155      c80       1
    x156      OBJ       -1
    x156      c24       1
    x156      c29       1
    x156      c50       1
    x156      c90       1
    x157      OBJ       -1
    x157      c29       1
    x157      c51       1
    x157      c78       1
    x157      c91       1
    x158      OBJ       -1
    x158      c15       1
    x158      c38       1
    x158      c78       1
    x158      c95       1
    x159      OBJ       -1
    x159      c6        1
    x159      c42       1
    x159      c81       1
    x159      c100      1
    x160      OBJ       -1
    x160      c30       1
    x160      c33       1
    x160      c57       1
    x160      c79       1
    x161      OBJ       -1
    x161      c15       1
    x161      c75       1
    x161      c87       1
    x161      c96       1
    x162      OBJ       -1
    x162      c7        1
    x162      c38       1
    x162      c49       1
    x162      c76       1
    x163      OBJ       -1
    x163      c8        1
    x163      c16       1
    x163      c60       1
    x163      c91       1
    x164      OBJ       -1
    x164      c36       1
    x164      c39       1
    x164      c69       1
    x164      c80       1
    x165      OBJ       -1
    x165      c43       1
    x165      c46       1
    x165      c66       1
    x165      c85       1
    x166      OBJ       -1
    x166      c20       1
    x166      c21       1
    x166      c39       1
    x166      c56       1
    x167      OBJ       -1
    x167      c24       1
    x167      c36       1
    x167      c57       1
    x167      c80       1
    x168      OBJ       -1
    x168      c52       1
    x168      c65       1
    x168      c88       1
    x168      c91       1
    x169      OBJ       -1
    x169      c59       1
    x169      c66       1
    x169      c72       1
    x169      c73       1
    x170      OBJ       -1
    x170      c8        1
    x170      c21       1
    x170      c33       1
    x170      c80       1
    x171      OBJ       -1
    x171      c1        1
    x171      c22       1
    x171      c23       1
    x171      c86       1
    x172      OBJ       -1
    x172      c20       1
    x172      c24       1
    x172      c59       1
    x172      c69       1
    x173      OBJ       -1
    x173      c4        1
    x173      c14       1
    x173      c24       1
    x173      c66       1
    x174      OBJ       -1
    x174      c20       1
    x174      c30       1
    x174      c42       1
    x174      c52       1
    x175      OBJ       -1
    x175      c44       1
    x175      c55       1
    x175      c64       1
    x175      c86       1
    x176      OBJ       -1
    x176      c8        1
    x176      c15       1
    x176      c72       1
    x176      c79       1
    x177      OBJ       -1
    x177      c44       1
    x177      c50       1
    x177      c64       1
    x177      c65       1
    x178      OBJ       -1
    x178      c18       1
    x178      c42       1
    x178      c56       1
    x178      c97       1
    x179      OBJ       -1
    x179      c18       1
    x179      c27       1
    x179      c35       1
    x179      c77       1
    x180      OBJ       -1
    x180      c46       1
    x180      c48       1
    x180      c58       1
    x180      c86       1
    x181      OBJ       -1
    x181      c22       1
    x181      c48       1
    x181      c71       1
    x181      c98       1
    x182      OBJ       -1
    x182      c11       1
    x182      c40       1
    x182      c77       1
    x182      c93       1
    x183      OBJ       -1
    x183      c36       1
    x183      c61       1
    x183      c74       1
    x183      c87       1
    x184      OBJ       -1
    x184      c32       1
    x184      c42       1
    x184      c65       1
    x184      c75       1
    x185      OBJ       -1
    x185      c1        1
    x185      c6        1
    x185      c13       1
    x185      c37       1
    x186      OBJ       -1
    x186      c18       1
    x186      c44       1
    x186      c68       1
    x186      c78       1
    x187      OBJ       -1
    x187      c4        1
    x187      c35       1
    x187      c48       1
    x187      c77       1
    x188      OBJ       -1
    x188      c16       1
    x188      c19       1
    x188      c33       1
    x188      c95       1
    x189      OBJ       -1
    x189      c54       1
    x189      c63       1
    x189      c65       1
    x189      c92       1
    x190      OBJ       -1
    x190      c39       1
    x190      c46       1
    x190      c74       1
    x190      c84       1
    x191      OBJ       -1
    x191      c19       1
    x191      c29       1
    x191      c32       1
    x191      c98       1
    x192      OBJ       -1
    x192      c2        1
    x192      c59       1
    x192      c64       1
    x192      c95       1
    x193      OBJ       -1
    x193      c7        1
    x193      c38       1
    x193      c63       1
    x193      c74       1
    x194      OBJ       -1
    x194      c14       1
    x194      c16       1
    x194      c17       1
    x194      c80       1
    x195      OBJ       -1
    x195      c14       1
    x195      c32       1
    x195      c63       1
    x195      c92       1
    x196      OBJ       -1
    x196      c24       1
    x196      c46       1
    x196      c57       1
    x196      c76       1
    x197      OBJ       -1
    x197      c8        1
    x197      c20       1
    x197      c67       1
    x197      c93       1
    x198      OBJ       -1
    x198      c37       1
    x198      c42       1
    x198      c45       1
    x198      c49       1
    x199      OBJ       -1
    x199      c25       1
    x199      c67       1
    x199      c68       1
    x199      c69       1
    x200      OBJ       -1
    x200      c61       1
    x200      c66       1
    x200      c69       1
    x200      c87       1
    x201      OBJ       -1
    x201      c5        1
    x201      c18       1
    x201      c39       1
    x201      c49       1
    x202      OBJ       -1
    x202      c27       1
    x202      c33       1
    x202      c39       1
    x202      c53       1
    x203      OBJ       -1
    x203      c44       1
    x203      c66       1
    x203      c69       1
    x203      c95       1
    x204      OBJ       -1
    x204      c14       1
    x204      c40       1
    x204      c51       1
    x204      c69       1
    x205      OBJ       -1
    x205      c6        1
    x205      c20       1
    x205      c61       1
    x205      c64       1
    x206      OBJ       -1
    x206      c4        1
    x206      c19       1
    x206      c53       1
    x206      c96       1
    x207      OBJ       -1
    x207      c22       1
    x207      c42       1
    x207      c62       1
    x207      c71       1
    x208      OBJ       -1
    x208      c27       1
    x208      c39       1
    x208      c43       1
    x208      c86       1
    x209      OBJ       -1
    x209      c24       1
    x209      c60       1
    x209      c74       1
    x209      c100      1
    x210      OBJ       -1
    x210      c18       1
    x210      c38       1
    x210      c75       1
    x210      c91       1
    x211      OBJ       -1
    x211      c6        1
    x211      c34       1
    x211      c82       1
    x211      c85       1
    x212      OBJ       -1
    x212      c2        1
    x212      c18       1
    x212      c21       1
    x212      c37       1
    x213      OBJ       -1
    x213      c25       1
    x213      c61       1
    x213      c77       1
    x213      c100      1
    x214      OBJ       -1
    x214      c2        1
    x214      c17       1
    x214      c56       1
    x214      c94       1
    x215      OBJ       -1
    x215      c10       1
    x215      c34       1
    x215      c37       1
    x215      c72       1
    x216      OBJ       -1
    x216      c22       1
    x216      c32       1
    x216      c52       1
    x216      c59       1
    x217      OBJ       -1
    x217      c10       1
    x217      c18       1
    x217      c30       1
    x217      c44       1
    x218      OBJ       -1
    x218      c34       1
    x218      c66       1
    x218      c83       1
    x218      c99       1
    x219      OBJ       -1
    x219      c14       1
    x219      c15       1
    x219      c70       1
    x219      c87       1
    x220      OBJ       -1
    x220      c16       1
    x220      c22       1
    x220      c34       1
    x220      c57       1
    x221      OBJ       -1
    x221      c20       1
    x221      c30       1
    x221      c32       1
    x221      c75       1
    x222      OBJ       -1
    x222      c21       1
    x222      c24       1
    x222      c45       1
    x222      c92       1
    x223      OBJ       -1
    x223      c15       1
    x223      c57       1
    x223      c80       1
    x223      c100      1
    x224      OBJ       -1
    x224      c43       1
    x224      c45       1
    x224      c50       1
    x224      c100      1
    x225      OBJ       -1
    x225      c56       1
    x225      c58       1
    x225      c59       1
    x225      c73       1
    x226      OBJ       -1
    x226      c6        1
    x226      c37       1
    x226      c38       1
    x226      c92       1
    x227      OBJ       -1
    x227      c5        1
    x227      c37       1
    x227      c51       1
    x227      c91       1
    x228      OBJ       -1
    x228      c12       1
    x228      c39       1
    x228      c65       1
    x228      c92       1
    x229      OBJ       -1
    x229      c23       1
    x229      c31       1
    x229      c50       1
    x229      c67       1
    x230      OBJ       -1
    x230      c1        1
    x230      c11       1
    x230      c41       1
    x230      c46       1
    x231      OBJ       -1
    x231      c14       1
    x231      c39       1
    x231      c89       1
    x231      c90       1
    x232      OBJ       -1
    x232      c30       1
    x232      c44       1
    x232      c57       1
    x232      c88       1
    x233      OBJ       -1
    x233      c29       1
    x233      c65       1
    x233      c88       1
    x233      c99       1
    x234      OBJ       -1
    x234      c35       1
    x234      c70       1
    x234      c78       1
    x234      c81       1
    x235      OBJ       -1
    x235      c17       1
    x235      c49       1
    x235      c60       1
    x235      c85       1
    x236      OBJ       -1
    x236      c7        1
    x236      c70       1
    x236      c86       1
    x236      c100      1
    x237      OBJ       -1
    x237      c29       1
    x237      c49       1
    x237      c52       1
    x237      c73       1
    x238      OBJ       -1
    x238      c50       1
    x238      c62       1
    x238      c73       1
    x238      c88       1
    x239      OBJ       -1
    x239      c12       1
    x239      c26       1
    x239      c37       1
    x239      c86       1
    x240      OBJ       -1
    x240      c42       1
    x240      c55       1
    x240      c66       1
    x240      c69       1
    x241      OBJ       -1
    x241      c29       1
    x241      c33       1
    x241      c52       1
    x241      c53       1
    x242      OBJ       -1
    x242      c1        1
    x242      c9        1
    x242      c70       1
    x242      c86       1
    x243      OBJ       -1
    x243      c17       1
    x243      c24       1
    x243      c28       1
    x243      c59       1
    x244      OBJ       -1
    x244      c2        1
    x244      c26       1
    x244      c29       1
    x244      c56       1
    x245      OBJ       -1
    x245      c13       1
    x245      c28       1
    x245      c52       1
    x245      c74       1
    x246      OBJ       -1
    x246      c60       1
    x246      c61       1
    x246      c84       1
    x246      c99       1
    x247      OBJ       -1
    x247      c23       1
    x247      c83       1
    x247      c94       1
    x247      c97       1
    x248      OBJ       -1
    x248      c12       1
    x248      c48       1
    x248      c61       1
    x248      c91       1
    x249      OBJ       -1
    x249      c22       1
    x249      c39       1
    x249      c83       1
    x249      c99       1
    x250      OBJ       -1
    x250      c22       1
    x250      c46       1
    x250      c51       1
    x250      c80       1
    x251      OBJ       -1
    x251      c6        1
    x251      c67       1
    x251      c68       1
    x251      c96       1
    x252      OBJ       -1
    x252      c18       1
    x252      c31       1
    x252      c51       1
    x252      c67       1
    x253      OBJ       -1
    x253      c3        1
    x253      c29       1
    x253      c62       1
    x253      c77       1
    x254      OBJ       -1
    x254      c44       1
    x254      c57       1
    x254      c75       1
    x254      c88       1
    x255      OBJ       -1
    x255      c37       1
    x255      c43       1
    x255      c79       1
    x255      c83       1
    x256      OBJ       -1
    x256      c53       1
    x256      c69       1
    x256      c80       1
    x256      c83       1
    x257      OBJ       -1
    x257      c10       1
    x257      c62       1
    x257      c89       1
    x257      c90       1
    x258      OBJ       -1
    x258      c1        1
    x258      c12       1
    x258      c35       1
    x258      c88       1
    x259      OBJ       -1
    x259      c43       1
    x259      c78       1
    x259      c92       1
    x259      c96       1
    x260      OBJ       -1
    x260      c22       1
    x260      c24       1
    x260      c45       1
    x260      c60       1
    x261      OBJ       -1
    x261      c21       1
    x261      c84       1
    x261      c87       1
    x261      c95       1
    x262      OBJ       -1
    x262      c27       1
    x262      c50       1
    x262      c56       1
    x262      c74       1
    x263      OBJ       -1
    x263      c28       1
    x263      c45       1
    x263      c63       1
    x263      c97       1
    x264      OBJ       -1
    x264      c24       1
    x264      c49       1
    x264      c83       1
    x264      c95       1
    x265      OBJ       -1
    x265      c37       1
    x265      c71       1
    x265      c85       1
    x265      c92       1
    x266      OBJ       -1
    x266      c71       1
    x266      c72       1
    x266      c78       1
    x266      c95       1
    x267      OBJ       -1
    x267      c13       1
    x267      c65       1
    x267      c69       1
    x267      c89       1
    x268      OBJ       -1
    x268      c8        1
    x268      c11       1
    x268      c28       1
    x268      c71       1
    x269      OBJ       -1
    x269      c21       1
    x269      c29       1
    x269      c57       1
    x269      c94       1
    x270      OBJ       -1
    x270      c20       1
    x270      c70       1
    x270      c81       1
    x270      c83       1
    x271      OBJ       -1
    x271      c24       1
    x271      c79       1
    x271      c90       1
    x271      c97       1
    x272      OBJ       -1
    x272      c26       1
    x272      c47       1
    x272      c62       1
    x272      c72       1
    x273      OBJ       -1
    x273      c24       1
    x273      c30       1
    x273      c31       1
    x273      c62       1
    x274      OBJ       -1
    x274      c6        1
    x274      c39       1
    x274      c94       1
    x274      c100      1
    x275      OBJ       -1
    x275      c5        1
    x275      c64       1
    x275      c71       1
    x275      c94       1
    x276      OBJ       -1
    x276      c4        1
    x276      c30       1
    x276      c75       1
    x276      c97       1
    x277      OBJ       -1
    x277      c14       1
    x277      c16       1
    x277      c57       1
    x277      c96       1
    x278      OBJ       -1
    x278      c39       1
    x278      c80       1
    x278      c85       1
    x278      c94       1
    x279      OBJ       -1
    x279      c16       1
    x279      c17       1
    x279      c41       1
    x279      c69       1
    x280      OBJ       -1
    x280      c1        1
    x280      c40       1
    x280      c62       1
    x280      c91       1
    x281      OBJ       -1
    x281      c13       1
    x281      c30       1
    x281      c38       1
    x281      c100      1
    x282      OBJ       -1
    x282      c5        1
    x282      c29       1
    x282      c42       1
    x282      c91       1
    x283      OBJ       -1
    x283      c9        1
    x283      c34       1
    x283      c61       1
    x283      c83       1
    x284      OBJ       -1
    x284      c11       1
    x284      c31       1
    x284      c36       1
    x284      c56       1
    x285      OBJ       -1
    x285      c44       1
    x285      c54       1
    x285      c67       1
    x285      c71       1
    x286      OBJ       -1
    x286      c5        1
    x286      c20       1
    x286      c32       1
    x286      c36       1
    x287      OBJ       -1
    x287      c13       1
    x287      c52       1
    x287      c59       1
    x287      c100      1
    x288      OBJ       -1
    x288      c2        1
    x288      c36       1
    x288      c38       1
    x288      c58       1
    x289      OBJ       -1
    x289      c13       1
    x289      c15       1
    x289      c73       1
    x289      c87       1
    x290      OBJ       -1
    x290      c5        1
    x290      c13       1
    x290      c17       1
    x290      c24       1
    x291      OBJ       -1
    x291      c5        1
    x291      c45       1
    x291      c64       1
    x291      c80       1
    x292      OBJ       -1
    x292      c9        1
    x292      c15       1
    x292      c18       1
    x292      c87       1
    x293      OBJ       -1
    x293      c40       1
    x293      c51       1
    x293      c81       1
    x293      c84       1
    x294      OBJ       -1
    x294      c2        1
    x294      c36       1
    x294      c71       1
    x294      c86       1
    x295      OBJ       -1
    x295      c5        1
    x295      c47       1
    x295      c60       1
    x295      c69       1
    x296      OBJ       -1
    x296      c2        1
    x296      c16       1
    x296      c40       1
    x296      c48       1
    x297      OBJ       -1
    x297      c11       1
    x297      c15       1
    x297      c59       1
    x297      c75       1
    x298      OBJ       -1
    x298      c18       1
    x298      c22       1
    x298      c66       1
    x298      c97       1
    x299      OBJ       -1
    x299      c1        1
    x299      c45       1
    x299      c81       1
    x299      c97       1
    x300      OBJ       -1
    x300      c15       1
    x300      c53       1
    x300      c83       1
    x300      c95       1
    x301      OBJ       -1
    x301      c2        1
    x301      c22       1
    x301      c77       1
    x301      c87       1
    x302      OBJ       -1
    x302      c22       1
    x302      c58       1
    x302      c78       1
    x302      c91       1
    x303      OBJ       -1
    x303      c36       1
    x303      c51       1
    x303      c61       1
    x303      c68       1
    x304      OBJ       -1
    x304      c14       1
    x304      c51       1
    x304      c72       1
    x304      c100      1
    x305      OBJ       -1
    x305      c9        1
    x305      c30       1
    x305      c45       1
    x305      c65       1
    x306      OBJ       -1
    x306      c40       1
    x306      c60       1
    x306      c81       1
    x306      c95       1
    x307      OBJ       -1
    x307      c38       1
    x307      c40       1
    x307      c54       1
    x307      c56       1
    x308      OBJ       -1
    x308      c38       1
    x308      c47       1
    x308      c89       1
    x308      c90       1
    x309      OBJ       -1
    x309      c23       1
    x309      c47       1
    x309      c58       1
    x309      c76       1
    x310      OBJ       -1
    x310      c4        1
    x310      c34       1
    x310      c96       1
    x310      c99       1
    x311      OBJ       -1
    x311      c63       1
    x311      c64       1
    x311      c75       1
    x311      c84       1
    x312      OBJ       -1
    x312      c33       1
    x312      c45       1
    x312      c62       1
    x312      c70       1
    x313      OBJ       -1
    x313      c76       1
    x313      c88       1
    x313      c96       1
    x313      c99       1
    x314      OBJ       -1
    x314      c27       1
    x314      c35       1
    x314      c66       1
    x314      c92       1
    x315      OBJ       -1
    x315      c17       1
    x315      c19       1
    x315      c29       1
    x315      c90       1
    x316      OBJ       -1
    x316      c6        1
    x316      c26       1
    x316      c64       1
    x316      c82       1
    x317      OBJ       -1
    x317      c28       1
    x317      c81       1
    x317      c83       1
    x317      c85       1
    x318      OBJ       -1
    x318      c16       1
    x318      c31       1
    x318      c37       1
    x318      c76       1
    x319      OBJ       -1
    x319      c11       1
    x319      c54       1
    x319      c93       1
    x319      c98       1
    x320      OBJ       -1
    x320      c22       1
    x320      c24       1
    x320      c30       1
    x320      c54       1
    x321      OBJ       -1
    x321      c19       1
    x321      c41       1
    x321      c67       1
    x321      c99       1
    x322      OBJ       -1
    x322      c10       1
    x322      c32       1
    x322      c33       1
    x322      c38       1
    x323      OBJ       -1
    x323      c20       1
    x323      c44       1
    x323      c49       1
    x323      c53       1
    x324      OBJ       -1
    x324      c11       1
    x324      c25       1
    x324      c58       1
    x324      c95       1
    x325      OBJ       -1
    x325      c11       1
    x325      c37       1
    x325      c52       1
    x325      c77       1
    x326      OBJ       -1
    x326      c47       1
    x326      c72       1
    x326      c81       1
    x326      c91       1
    x327      OBJ       -1
    x327      c15       1
    x327      c24       1
    x327      c56       1
    x327      c87       1
    x328      OBJ       -1
    x328      c9        1
    x328      c38       1
    x328      c45       1
    x328      c48       1
    x329      OBJ       -1
    x329      c14       1
    x329      c35       1
    x329      c63       1
    x329      c72       1
    x330      OBJ       -1
    x330      c8        1
    x330      c44       1
    x330      c65       1
    x330      c84       1
    x331      OBJ       -1
    x331      c27       1
    x331      c60       1
    x331      c91       1
    x331      c100      1
    x332      OBJ       -1
    x332      c16       1
    x332      c51       1
    x332      c52       1
    x332      c94       1
    x333      OBJ       -1
    x333      c1        1
    x333      c61       1
    x333      c69       1
    x333      c81       1
    x334      OBJ       -1
    x334      c7        1
    x334      c44       1
    x334      c52       1
    x334      c58       1
    x335      OBJ       -1
    x335      c58       1
    x335      c61       1
    x335      c68       1
    x335      c75       1
    x336      OBJ       -1
    x336      c15       1
    x336      c18       1
    x336      c80       1
    x336      c94       1
    x337      OBJ       -1
    x337      c27       1
    x337      c28       1
    x337      c50       1
    x337      c92       1
    x338      OBJ       -1
    x338      c56       1
    x338      c58       1
    x338      c69       1
    x338      c74       1
    x339      OBJ       -1
    x339      c14       1
    x339      c28       1
    x339      c57       1
    x339      c99       1
    x340      OBJ       -1
    x340      c48       1
    x340      c49       1
    x340      c50       1
    x340      c78       1
    x341      OBJ       -1
    x341      c17       1
    x341      c27       1
    x341      c38       1
    x341      c74       1
    x342      OBJ       -1
    x342      c3        1
    x342      c16       1
    x342      c43       1
    x342      c77       1
    x343      OBJ       -1
    x343      c50       1
    x343      c67       1
    x343      c69       1
    x343      c73       1
    x344      OBJ       -1
    x344      c45       1
    x344      c66       1
    x344      c82       1
    x344      c92       1
    x345      OBJ       -1
    x345      c8        1
    x345      c75       1
    x345      c82       1
    x345      c93       1
    x346      OBJ       -1
    x346      c32       1
    x346      c47       1
    x346      c55       1
    x346      c60       1
    x347      OBJ       -1
    x347      c53       1
    x347      c87       1
    x347      c88       1
    x347      c100      1
    x348      OBJ       -1
    x348      c36       1
    x348      c46       1
    x348      c51       1
    x348      c64       1
    x349      OBJ       -1
    x349      c1        1
    x349      c24       1
    x349      c42       1
    x349      c72       1
    x350      OBJ       -1
    x350      c38       1
    x350      c44       1
    x350      c47       1
    x350      c96       1
    x351      OBJ       -1
    x351      c10       1
    x351      c11       1
    x351      c61       1
    x351      c74       1
    x352      OBJ       -1
    x352      c5        1
    x352      c64       1
    x352      c92       1
    x352      c98       1
    x353      OBJ       -1
    x353      c42       1
    x353      c45       1
    x353      c72       1
    x353      c96       1
    x354      OBJ       -1
    x354      c1        1
    x354      c2        1
    x354      c50       1
    x354      c99       1
    x355      OBJ       -1
    x355      c23       1
    x355      c48       1
    x355      c86       1
    x355      c88       1
    x356      OBJ       -1
    x356      c47       1
    x356      c48       1
    x356      c73       1
    x356      c93       1
    x357      OBJ       -1
    x357      c9        1
    x357      c63       1
    x357      c88       1
    x357      c95       1
    x358      OBJ       -1
    x358      c4        1
    x358      c30       1
    x358      c32       1
    x358      c40       1
    x359      OBJ       -1
    x359      c12       1
    x359      c31       1
    x359      c40       1
    x359      c63       1
    x360      OBJ       -1
    x360      c27       1
    x360      c62       1
    x360      c67       1
    x360      c75       1
    x361      OBJ       -1
    x361      c3        1
    x361      c17       1
    x361      c19       1
    x361      c97       1
    x362      OBJ       -1
    x362      c2        1
    x362      c65       1
    x362      c85       1
    x362      c98       1
    x363      OBJ       -1
    x363      c6        1
    x363      c12       1
    x363      c33       1
    x363      c86       1
    x364      OBJ       -1
    x364      c4        1
    x364      c65       1
    x364      c78       1
    x364      c79       1
    x365      OBJ       -1
    x365      c1        1
    x365      c65       1
    x365      c71       1
    x365      c73       1
    x366      OBJ       -1
    x366      c33       1
    x366      c40       1
    x366      c75       1
    x366      c94       1
    x367      OBJ       -1
    x367      c2        1
    x367      c37       1
    x367      c50       1
    x367      c62       1
    x368      OBJ       -1
    x368      c24       1
    x368      c42       1
    x368      c62       1
    x368      c87       1
    x369      OBJ       -1
    x369      c57       1
    x369      c63       1
    x369      c80       1
    x369      c83       1
    x370      OBJ       -1
    x370      c20       1
    x370      c48       1
    x370      c64       1
    x370      c65       1
    x371      OBJ       -1
    x371      c31       1
    x371      c33       1
    x371      c68       1
    x371      c80       1
    x372      OBJ       -1
    x372      c14       1
    x372      c45       1
    x372      c57       1
    x372      c97       1
    x373      OBJ       -1
    x373      c13       1
    x373      c14       1
    x373      c21       1
    x373      c69       1
    x374      OBJ       -1
    x374      c42       1
    x374      c44       1
    x374      c52       1
    x374      c78       1
    x375      OBJ       -1
    x375      c1        1
    x375      c4        1
    x375      c23       1
    x375      c78       1
    x376      OBJ       -1
    x376      c39       1
    x376      c63       1
    x376      c72       1
    x376      c90       1
    x377      OBJ       -1
    x377      c1        1
    x377      c18       1
    x377      c51       1
    x377      c64       1
    x378      OBJ       -1
    x378      c10       1
    x378      c13       1
    x378      c37       1
    x378      c67       1
    x379      OBJ       -1
    x379      c23       1
    x379      c80       1
    x379      c89       1
    x379      c98       1
    x380      OBJ       -1
    x380      c36       1
    x380      c44       1
    x380      c63       1
    x380      c94       1
    x381      OBJ       -1
    x381      c2        1
    x381      c48       1
    x381      c62       1
    x381      c75       1
    x382      OBJ       -1
    x382      c17       1
    x382      c79       1
    x382      c98       1
    x382      c99       1
    x383      OBJ       -1
    x383      c9        1
    x383      c19       1
    x383      c20       1
    x383      c56       1
    x384      OBJ       -1
    x384      c80       1
    x384      c81       1
    x384      c93       1
    x384      c94       1
    x385      OBJ       -1
    x385      c29       1
    x385      c33       1
    x385      c55       1
    x385      c97       1
    x386      OBJ       -1
    x386      c19       1
    x386      c40       1
    x386      c64       1
    x386      c98       1
    x387      OBJ       -1
    x387      c40       1
    x387      c51       1
    x387      c94       1
    x387      c95       1
    x388      OBJ       -1
    x388      c48       1
    x388      c56       1
    x388      c75       1
    x388      c88       1
    x389      OBJ       -1
    x389      c18       1
    x389      c21       1
    x389      c29       1
    x389      c49       1
    x390      OBJ       -1
    x390      c14       1
    x390      c26       1
    x390      c45       1
    x390      c64       1
    x391      OBJ       -1
    x391      c32       1
    x391      c71       1
    x391      c72       1
    x391      c80       1
    x392      OBJ       -1
    x392      c7        1
    x392      c11       1
    x392      c50       1
    x392      c63       1
    x393      OBJ       -1
    x393      c16       1
    x393      c17       1
    x393      c39       1
    x393      c77       1
    x394      OBJ       -1
    x394      c30       1
    x394      c33       1
    x394      c35       1
    x394      c80       1
    x395      OBJ       -1
    x395      c15       1
    x395      c22       1
    x395      c29       1
    x395      c72       1
    x396      OBJ       -1
    x396      c46       1
    x396      c62       1
    x396      c65       1
    x396      c77       1
    x397      OBJ       -1
    x397      c5        1
    x397      c9        1
    x397      c48       1
    x397      c82       1
    x398      OBJ       -1
    x398      c10       1
    x398      c11       1
    x398      c33       1
    x398      c95       1
    x399      OBJ       -1
    x399      c26       1
    x399      c35       1
    x399      c80       1
    x399      c82       1
    x400      OBJ       -1
    x400      c4        1
    x400      c28       1
    x400      c41       1
    x400      c43       1
    x401      OBJ       -1
    x401      c18       1
    x401      c37       1
    x401      c59       1
    x401      c78       1
    x402      OBJ       -1
    x402      c12       1
    x402      c39       1
    x402      c50       1
    x402      c66       1
    x403      OBJ       -1
    x403      c21       1
    x403      c53       1
    x403      c66       1
    x403      c87       1
    x404      OBJ       -1
    x404      c14       1
    x404      c30       1
    x404      c62       1
    x404      c65       1
    x405      OBJ       -1
    x405      c10       1
    x405      c12       1
    x405      c21       1
    x405      c53       1
    x406      OBJ       -1
    x406      c4        1
    x406      c21       1
    x406      c28       1
    x406      c63       1
    x407      OBJ       -1
    x407      c26       1
    x407      c43       1
    x407      c62       1
    x407      c99       1
    x408      OBJ       -1
    x408      c1        1
    x408      c28       1
    x408      c42       1
    x408      c85       1
    x409      OBJ       -1
    x409      c45       1
    x409      c78       1
    x409      c79       1
    x409      c88       1
    x410      OBJ       -1
    x410      c14       1
    x410      c26       1
    x410      c42       1
    x410      c94       1
    x411      OBJ       -1
    x411      c27       1
    x411      c78       1
    x411      c79       1
    x411      c88       1
    x412      OBJ       -1
    x412      c6        1
    x412      c9        1
    x412      c51       1
    x412      c90       1
    x413      OBJ       -1
    x413      c15       1
    x413      c17       1
    x413      c60       1
    x413      c62       1
    x414      OBJ       -1
    x414      c21       1
    x414      c43       1
    x414      c79       1
    x414      c81       1
    x415      OBJ       -1
    x415      c3        1
    x415      c4        1
    x415      c46       1
    x415      c63       1
    x416      OBJ       -1
    x416      c3        1
    x416      c30       1
    x416      c79       1
    x416      c86       1
    x417      OBJ       -1
    x417      c63       1
    x417      c66       1
    x417      c67       1
    x417      c74       1
    x418      OBJ       -1
    x418      c3        1
    x418      c29       1
    x418      c79       1
    x418      c90       1
    x419      OBJ       -1
    x419      c15       1
    x419      c55       1
    x419      c56       1
    x419      c67       1
    x420      OBJ       -1
    x420      c60       1
    x420      c63       1
    x420      c65       1
    x420      c74       1
    x421      OBJ       -1
    x421      c4        1
    x421      c22       1
    x421      c25       1
    x421      c89       1
    x422      OBJ       -1
    x422      c3        1
    x422      c31       1
    x422      c42       1
    x422      c82       1
    x423      OBJ       -1
    x423      c33       1
    x423      c34       1
    x423      c47       1
    x423      c83       1
    x424      OBJ       -1
    x424      c12       1
    x424      c13       1
    x424      c32       1
    x424      c85       1
    x425      OBJ       -1
    x425      c50       1
    x425      c76       1
    x425      c93       1
    x425      c95       1
    x426      OBJ       -1
    x426      c22       1
    x426      c27       1
    x426      c30       1
    x426      c65       1
    x427      OBJ       -1
    x427      c36       1
    x427      c40       1
    x427      c82       1
    x427      c83       1
    x428      OBJ       -1
    x428      c12       1
    x428      c23       1
    x428      c45       1
    x428      c99       1
    x429      OBJ       -1
    x429      c5        1
    x429      c26       1
    x429      c65       1
    x429      c100      1
    x430      OBJ       -1
    x430      c6        1
    x430      c7        1
    x430      c29       1
    x430      c61       1
    x431      OBJ       -1
    x431      c52       1
    x431      c88       1
    x431      c93       1
    x431      c99       1
    x432      OBJ       -1
    x432      c4        1
    x432      c73       1
    x432      c82       1
    x432      c83       1
    x433      OBJ       -1
    x433      c30       1
    x433      c41       1
    x433      c66       1
    x433      c78       1
    x434      OBJ       -1
    x434      c36       1
    x434      c56       1
    x434      c70       1
    x434      c87       1
    x435      OBJ       -1
    x435      c19       1
    x435      c21       1
    x435      c52       1
    x435      c75       1
    x436      OBJ       -1
    x436      c41       1
    x436      c58       1
    x436      c86       1
    x436      c95       1
    x437      OBJ       -1
    x437      c12       1
    x437      c62       1
    x437      c65       1
    x437      c84       1
    x438      OBJ       -1
    x438      c57       1
    x438      c67       1
    x438      c70       1
    x438      c71       1
    x439      OBJ       -1
    x439      c17       1
    x439      c55       1
    x439      c63       1
    x439      c97       1
    x440      OBJ       -1
    x440      c35       1
    x440      c41       1
    x440      c65       1
    x440      c69       1
    x441      OBJ       -1
    x441      c19       1
    x441      c34       1
    x441      c64       1
    x441      c81       1
    x442      OBJ       -1
    x442      c19       1
    x442      c39       1
    x442      c49       1
    x442      c54       1
    x443      OBJ       -1
    x443      c27       1
    x443      c56       1
    x443      c93       1
    x443      c99       1
    x444      OBJ       -1
    x444      c12       1
    x444      c50       1
    x444      c94       1
    x444      c96       1
    x445      OBJ       -1
    x445      c5        1
    x445      c10       1
    x445      c29       1
    x445      c60       1
    x446      OBJ       -1
    x446      c74       1
    x446      c75       1
    x446      c84       1
    x446      c91       1
    x447      OBJ       -1
    x447      c36       1
    x447      c38       1
    x447      c86       1
    x447      c99       1
    x448      OBJ       -1
    x448      c34       1
    x448      c39       1
    x448      c54       1
    x448      c71       1
    x449      OBJ       -1
    x449      c4        1
    x449      c18       1
    x449      c52       1
    x449      c86       1
    x450      OBJ       -1
    x450      c4        1
    x450      c41       1
    x450      c64       1
    x450      c66       1
    x451      OBJ       -1
    x451      c30       1
    x451      c40       1
    x451      c55       1
    x451      c96       1
    x452      OBJ       -1
    x452      c3        1
    x452      c33       1
    x452      c48       1
    x452      c90       1
    x453      OBJ       -1
    x453      c12       1
    x453      c37       1
    x453      c75       1
    x453      c85       1
    x454      OBJ       -1
    x454      c10       1
    x454      c44       1
    x454      c58       1
    x454      c74       1
    x455      OBJ       -1
    x455      c41       1
    x455      c59       1
    x455      c64       1
    x455      c94       1
    x456      OBJ       -1
    x456      c11       1
    x456      c78       1
    x456      c96       1
    x456      c97       1
    x457      OBJ       -1
    x457      c47       1
    x457      c59       1
    x457      c95       1
    x457      c98       1
    x458      OBJ       -1
    x458      c22       1
    x458      c37       1
    x458      c49       1
    x458      c78       1
    x459      OBJ       -1
    x459      c17       1
    x459      c19       1
    x459      c31       1
    x459      c75       1
    x460      OBJ       -1
    x460      c48       1
    x460      c66       1
    x460      c77       1
    x460      c87       1
    x461      OBJ       -1
    x461      c40       1
    x461      c70       1
    x461      c84       1
    x461      c92       1
    x462      OBJ       -1
    x462      c34       1
    x462      c43       1
    x462      c88       1
    x462      c96       1
    x463      OBJ       -1
    x463      c10       1
    x463      c51       1
    x463      c74       1
    x463      c100      1
    x464      OBJ       -1
    x464      c4        1
    x464      c44       1
    x464      c46       1
    x464      c51       1
    x465      OBJ       -1
    x465      c2        1
    x465      c39       1
    x465      c91       1
    x465      c100      1
    x466      OBJ       -1
    x466      c15       1
    x466      c22       1
    x466      c36       1
    x466      c66       1
    x467      OBJ       -1
    x467      c31       1
    x467      c71       1
    x467      c83       1
    x467      c95       1
    x468      OBJ       -1
    x468      c48       1
    x468      c56       1
    x468      c60       1
    x468      c78       1
    x469      OBJ       -1
    x469      c25       1
    x469      c50       1
    x469      c81       1
    x469      c86       1
    x470      OBJ       -1
    x470      c65       1
    x470      c66       1
    x470      c68       1
    x470      c83       1
    x471      OBJ       -1
    x471      c4        1
    x471      c17       1
    x471      c55       1
    x471      c74       1
    x472      OBJ       -1
    x472      c47       1
    x472      c51       1
    x472      c61       1
    x472      c77       1
    x473      OBJ       -1
    x473      c10       1
    x473      c47       1
    x473      c76       1
    x473      c88       1
    x474      OBJ       -1
    x474      c2        1
    x474      c60       1
    x474      c67       1
    x474      c74       1
    x475      OBJ       -1
    x475      c7        1
    x475      c29       1
    x475      c31       1
    x475      c56       1
    x476      OBJ       -1
    x476      c3        1
    x476      c66       1
    x476      c84       1
    x476      c87       1
    x477      OBJ       -1
    x477      c7        1
    x477      c14       1
    x477      c66       1
    x477      c72       1
    x478      OBJ       -1
    x478      c32       1
    x478      c36       1
    x478      c50       1
    x478      c96       1
    x479      OBJ       -1
    x479      c7        1
    x479      c9        1
    x479      c48       1
    x479      c52       1
    x480      OBJ       -1
    x480      c57       1
    x480      c58       1
    x480      c84       1
    x480      c97       1
    x481      OBJ       -1
    x481      c8        1
    x481      c42       1
    x481      c43       1
    x481      c67       1
    x482      OBJ       -1
    x482      c39       1
    x482      c44       1
    x482      c66       1
    x482      c74       1
    x483      OBJ       -1
    x483      c80       1
    x483      c94       1
    x483      c95       1
    x483      c96       1
    x484      OBJ       -1
    x484      c44       1
    x484      c77       1
    x484      c81       1
    x484      c83       1
    x485      OBJ       -1
    x485      c46       1
    x485      c51       1
    x485      c54       1
    x485      c57       1
    x486      OBJ       -1
    x486      c23       1
    x486      c77       1
    x486      c88       1
    x486      c99       1
    x487      OBJ       -1
    x487      c29       1
    x487      c50       1
    x487      c77       1
    x487      c95       1
    x488      OBJ       -1
    x488      c34       1
    x488      c46       1
    x488      c84       1
    x488      c87       1
    x489      OBJ       -1
    x489      c26       1
    x489      c68       1
    x489      c93       1
    x489      c99       1
    x490      OBJ       -1
    x490      c29       1
    x490      c37       1
    x490      c41       1
    x490      c58       1
    x491      OBJ       -1
    x491      c19       1
    x491      c22       1
    x491      c26       1
    x491      c51       1
    x492      OBJ       -1
    x492      c2        1
    x492      c7        1
    x492      c17       1
    x492      c62       1
    x493      OBJ       -1
    x493      c21       1
    x493      c46       1
    x493      c59       1
    x493      c67       1
    x494      OBJ       -1
    x494      c40       1
    x494      c42       1
    x494      c46       1
    x494      c64       1
    x495      OBJ       -1
    x495      c13       1
    x495      c16       1
    x495      c57       1
    x495      c69       1
    x496      OBJ       -1
    x496      c43       1
    x496      c48       1
    x496      c52       1
    x496      c76       1
    x497      OBJ       -1
    x497      c34       1
    x497      c43       1
    x497      c45       1
    x497      c80       1
    x498      OBJ       -1
    x498      c8        1
    x498      c40       1
    x498      c82       1
    x498      c91       1
    x499      OBJ       -1
    x499      c29       1
    x499      c60       1
    x499      c65       1
    x499      c100      1
    x500      OBJ       -1
    x500      c29       1
    x500      c70       1
    x500      c73       1
    x500      c75       1
    MARKER    'MARKER'                 'INTEND'
RHS
    RHS1      c1        1
    RHS1      c2        1
    RHS1      c3        1
    RHS1      c4        1
    RHS1      c5        1
    RHS1      c6        1
    RHS1      c7        1
    RHS1      c8        1
    RHS1      c9        1
    RHS1      c10       1
    RHS1      c11       1
    RHS1      c12       1
    RHS1      c13       1
    RHS1      c14       1
    RHS1      c15       1
    RHS1      c16       1
    RHS1      c17       1
    RHS1      c18       1
    RHS1      c19       1
    RHS1      c20       1
    RHS1      c21       1
    RHS1      c22       1
    RHS1      c23       1
    RHS1      c24       1
    RHS1      c25       1
    RHS1      c26       1
    RHS1      c27       1
    RHS1      c28       1
    RHS1      c29       1
    RHS1      c30       1
    RHS1      c31       1
    RHS1      c32       1
    RHS1      c33       1
    RHS1      c34       1
    RHS1      c35       1
    RHS1      c36       1
    RHS1      c37       1
    RHS1      c38       1
    RHS1      c39       1
    RHS1      c40       1
    RHS1      c41       1
    RHS1      c42       1
    RHS1      c43       1
    RHS1      c44       1
    RHS1      c45       1
    RHS1      c46       1
    RHS1      c47       1
    RHS1      c48       1
    RHS1      c49       1
    RHS1      c50       1
    RHS1      c51       1
    RHS1      c52       1
    RHS1      c53       1
    RHS1      c54       1
    RHS1      c55       1
    RHS1      c56       1
    RHS1      c57       1
    RHS1      c58       1
    RHS1      c59       1
    RHS1      c60       1
    RHS1      c61       1
    RHS1      c62       1
    RHS1      c63       1
    RHS1      c64       1
    RHS1      c65       1
    RHS1      c66       1
    RHS1      c67       1
    RHS1      c68       1
    RHS1      c69       1
    RHS1      c70       1
    RHS1      c71       1
    RHS1      c72       1
    RHS1      c73       1
    RHS1      c74       1
    RHS1      c75       1
    RHS1      c76       1
    RHS1      c77       1
    RHS1      c78       1
    RHS1      c79       1
    RHS1      c80       1
    RHS1      c81       1
    RHS1      c82       1
    RHS1      c83       1
    RHS1      c84       1
    RHS1      c85       1
    RHS1      c86       1
    RHS1      c87       1
    RHS1      c88       1
    RHS1      c89       1
    RHS1      c90       1
    RHS1      c91       1
    RHS1      c92       1
    RHS1      c93       1
    RHS1      c94       1
    RHS1      c95       1
    RHS1      c96       1
    RHS1      c97       1
    RHS1      c98       1
    RHS1      c99       1
    RHS1      c100      1
BOUNDS
 BV BND1      x1      
 BV BND1      x2      
 BV BND1      x3      
 BV BND1      x4      
 BV BND1      x5      
 BV BND1      x6      
 BV BND1      x7      
 BV BND1      x8      
 BV BND1      x9      
 BV BND1      x10     
 BV BND1      x11     
 BV BND1      x12     
 BV BND1      x13     
 BV BND1      x14     
 BV BND1      x15     
 BV BND1      x16     
 BV BND1      x17     
 BV BND1      x18     
 BV BND1      x19     
 BV BND1      x20     
 BV BND1      x21     
 BV BND1      x22     
 BV BND1      x23     
 BV BND1      x24     
 BV BND1      x25     
 BV BND1      x26     
 BV BND1      x27     
 BV BND1      x28     
 BV BND1      x29     
 BV BND1      x30     
 BV BND1      x31     
 BV BND1      x32     
 BV BND1      x33     
 BV BND1      x34     
 BV BND1      x35     
 BV BND1      x36     
 BV BND1      x37     
 BV BND1      x38     
 BV BND1      x39     
 BV BND1      x40     
 BV BND1      x41     
 BV BND1      x42     
 BV BND1      x43     
 BV BND1      x44     
 BV BND1      x45     
 BV BND1      x46     
 BV BND1      x47     
 BV BND1      x48     
 BV BND1      x49     
 BV BND1      x50     
 BV BND1      x51     
 BV BND1      x52     
 BV BND1      x53     
 BV BND1      x54     
 BV BND1      x55     
 BV BND1      x56     
 BV BND1      x57     
 BV BND1      x58     
 BV BND1      x59     
 BV BND1      x60     
 BV BND1      x61     
 BV BND1      x62     
 BV BND1      x63     
 BV BND1      x64     
 BV BND1      x65     
 BV BND1      x66     
 BV BND1      x67     
 BV BND1      x68     
 BV BND1      x69     
 BV BND1      x70     
 BV BND1      x71     
 BV BND1      x72     
 BV BND1      x73     
 BV BND1      x74     
 BV BND1      x75     
 BV BND1      x76     
 BV BND1      x77     
 BV BND1      x78     
 BV BND1      x79     
 BV BND1      x80     
 BV BND1      x81     
 BV BND1      x82     
 BV BND1      x83     
 BV BND1      x84     
 BV BND1      x85     
 BV BND1      x86     
 BV BND1      x87     
 BV BND1      x88     
 BV BND1      x89     
 BV BND1      x90     
 BV BND1      x91     
 BV BND1      x92     
 BV BND1      x93     
 BV BND1      x94     
 BV BND1      x95     
 BV BND1      x96     
 BV BND1      x97     
 BV BND1      x98     
 BV BND1      x99     
 BV BND1      x100    
 BV BND1      x101    
 BV BND1      x102    
 BV BND1      x103    
 BV BND1      x104    
 BV BND1      x105    
 BV BND1      x106    
 BV BND1      x107    
 BV BND1      x108    
 BV BND1      x109    
 BV BND1      x110    
 BV BND1      x111    
 BV BND1      x112    
 BV BND1      x113    
 BV BND1      x114    
 BV BND1      x115    
 BV BND1      x116    
 BV BND1      x117    
 BV BND1      x118    
 BV BND1      x119    
 BV BND1      x120    
 BV BND1      x121    
 BV BND1      x122    
 BV BND1      x123    
 BV BND1      x124    
 BV BND1      x125    
 BV BND1      x126    
 BV BND1      x127    
 BV BND1      x128    
 BV BND1      x129    
 BV BND1      x130    
 BV BND1      x131    
 BV BND1      x132    
 BV BND1      x133    
 BV BND1      x134    
 BV BND1      x135    
 BV BND1      x136    
 BV BND1      x137    
 BV BND1      x138    
 BV BND1      x139    
 BV BND1      x140    
 BV BND1      x141    
 BV BND1      x142    
 BV BND1      x143    
 BV BND1      x144    
 BV BND1      x145    
 BV BND1      x146    
 BV BND1      x147    
 BV BND1      x148    
 BV BND1      x149    
 BV BND1      x150    
 BV BND1      x151    
 BV BND1      x152    
 BV BND1      x153    
 BV BND1      x154    
 BV BND1      x155    
 BV BND1      x156    
 BV BND1      x157    
 BV BND1      x158    
 BV BND1      x159    
 BV BND1      x160    
 BV BND1      x161    
 BV BND1      x162    
 BV BND1      x163    
 BV BND1      x164    
 BV BND1      x165    
 BV BND1      x166    
 BV BND1      x167    
 BV BND1      x168    
 BV BND1      x169    
 BV BND1      x170    
 BV BND1      x171    
 BV BND1      x172    
 BV BND1      x173    
 BV BND1      x174    
 BV BND1      x175    
 BV BND1      x176    
 BV BND1      x177    
 BV BND1      x178    
 BV BND1      x179    
 BV BND1      x180    
 BV BND1      x181    
 BV BND1      x182    
 BV BND1      x183    
 BV BND1      x184    
 BV BND1      x185    
 BV BND1      x186    
 BV BND1      x187    
 BV BND1      x188    
 BV BND1      x189    
 BV BND1      x190    
 BV BND1      x191    
 BV BND1      x192    
 BV BND1      x193    
 BV BND1      x194    
 BV BND1      x195    
 BV BND1      x196    
 BV BND1      x197    
 BV BND1      x198    
 BV BND1      x199    
 BV BND1      x200    
 BV BND1      x201    
 BV BND1      x202    
 BV BND1      x203    
 BV BND1      x204    
 BV BND1      x205    
 BV BND1      x206    
 BV BND1      x207    
 BV BND1      x208    
 BV BND1      x209    
 BV BND1      x210    
 BV BND1      x211    
 BV BND1      x212    
 BV BND1      x213    
 BV BND1      x214    
 BV BND1      x215    
 BV BND1      x216    
 BV BND1      x217    
 BV BND1      x218    
 BV BND1      x219    
 BV BND1      x220    
 BV BND1      x221    
 BV BND1      x222    
 BV BND1      x223    
 BV BND1      x224    
 BV BND1      x225    
 BV BND1      x226    
 BV BND1      x227    
 BV BND1      x228    
 BV BND1      x229    
 BV BND1      x230    
 BV BND1      x231    
 BV BND1      x232    
 BV BND1      x233    
 BV BND1      x234    
 BV BND1      x235    
 BV BND1      x236    
 BV BND1      x237    
 BV BND1      x238    
 BV BND1      x239    
 BV BND1      x240    
 BV BND1      x241    
 BV BND1      x242    
 BV BND1      x243    
 BV BND1      x244    
 BV BND1      x245    
 BV BND1      x246    
 BV BND1      x247    
 BV BND1      x248    
 BV BND1      x249    
 BV BND1      x250    
 BV BND1      x251    
 BV BND1      x252    
 BV BND1      x253    
 BV BND1      x254    
 BV BND1      x255    
 BV BND1      x256    
 BV BND1      x257    
 BV BND1      x258    
 BV BND1      x259    
 BV BND1      x260    
 BV BND1      x261    
 BV BND1      x262    
 BV BND1      x263    
 BV BND1      x264    
 BV BND1      x265    
 BV BND1      x266    
 BV BND1      x267    
 BV BND1      x268    
 BV BND1      x269    
 BV BND1      x270    
 BV BND1      x271    
 BV BND1      x272    
 BV BND1      x273    
 BV BND1      x274    
 BV BND1      x275    
 BV BND1      x276    
 BV BND1      x277    
 BV BND1      x278    
 BV BND1      x279    
 BV BND1      x280    
 BV BND1      x281    
 BV BND1      x282    
 BV BND1      x283    
 BV BND1      x284    
 BV BND1      x285    
 BV BND1      x286    
 BV BND1      x287    
 BV BND1      x288    
 BV BND1      x289    
 BV BND1      x290    
 BV BND1      x291    
 BV BND1      x292    
 BV BND1      x293    
 BV BND1      x294    
 BV BND1      x295    
 BV BND1      x296    
 BV BND1      x297    
 BV BND1      x298    
 BV BND1      x299    
 BV BND1      x300    
 BV BND1      x301    
 BV BND1      x302    
 BV BND1      x303    
 BV BND1      x304    
 BV BND1      x305    
 BV BND1      x306    
 BV BND1      x307    
 BV BND1      x308    
 BV BND1      x309    
 BV BND1      x310    
 BV BND1      x311    
 BV BND1      x312    
 BV BND1      x313    
 BV BND1      x314    
 BV BND1      x315    
 BV BND1      x316    
 BV BND1      x317    
 BV BND1      x318    
 BV BND1      x319    
 BV BND1      x320    
 BV BND1      x321    
 BV BND1      x322    
 BV BND1      x323    
 BV BND1      x324    
 BV BND1      x325    
 BV BND1      x326    
 BV BND1      x327    
 BV BND1      x328    
 BV BND1      x329    
 BV BND1      x330    
 BV BND1      x331    
 BV BND1      x332    
 BV BND1      x333    
 BV BND1      x334    
 BV BND1      x335    
 BV BND1      x336    
 BV BND1      x337    
 BV BND1      x338    
 BV BND1      x339    
 BV BND1      x340    
 BV BND1      x341    
 BV BND1      x342    
 BV BND1      x343    
 BV BND1      x344    
 BV BND1      x345    
 BV BND1      x346    
 BV BND1      x347    
 BV BND1      x348    
 BV BND1      x349    
 BV BND1      x350    
 BV BND1      x351    
 BV BND1      x352    
 BV BND1      x353    
 BV BND1      x354    
 BV BND1      x355    
 BV BND1      x356    
 BV BND1      x357    
 BV BND1      x358    
 BV BND1      x359    
 BV BND1      x360    
 BV BND1      x361    
 BV BND1      x362    
 BV BND1      x363    
 BV BND1      x364    
 BV BND1      x365    
 BV BND1      x366    
 BV BND1      x367    
 BV BND1      x368    
 BV BND1      x369    
 BV BND1      x370    
 BV BND1      x371    
 BV BND1      x372    
 BV BND1      x373    
 BV BND1      x374    
 BV BND1      x375    
 BV BND1      x376    
 BV BND1      x377    
 BV BND1      x378    
 BV BND1      x379    
 BV BND1      x380    
 BV BND1      x381    
 BV BND1      x382    
 BV BND1      x383    
 BV BND1      x384    
 BV BND1      x385    
 BV BND1      x386    
 BV BND1      x387    
 BV BND1      x388    
 BV BND1      x389    
 BV BND1      x390    
 BV BND1      x391    
 BV BND1      x392    
 BV BND1      x393    
 BV BND1      x394    
 BV BND1      x395    
 BV BND1      x396    
 BV BND1      x397    
 BV BND1      x398    
 BV BND1      x399    
 BV BND1      x400    
 BV BND1      x401    
 BV BND1      x402    
 BV BND1      x403    
 BV BND1      x404    
 BV BND1      x405    
 BV BND1      x406    
 BV BND1      x407    
 BV BND1      x408    
 BV BND1      x409    
 BV BND1      x410    
 BV BND1      x411    
 BV BND1      x412    
 BV BND1      x413    
 BV BND1      x414    
 BV BND1      x415    
 BV BND1      x416    
 BV BND1      x417    
 BV BND1      x418    
 BV BND1      x419    
 BV BND1      x420    
 BV BND1      x421    
 BV BND1      x422    
 BV BND1      x423    
 BV BND1      x424    
 BV BND1      x425    
 BV BND1      x426    
 BV BND1      x427    
 BV BND1      x428    
 BV BND1      x429    
 BV BND1      x430    
 BV BND1      x431    
 BV BND1      x432    
 BV BND1      x433    
 BV BND1      x434    
 BV BND1      x435    
 BV BND1      x436    
 BV BND1      x437    
 BV BND1      x438    
 BV BND1      x439    
 BV BND1      x440    
 BV BND1      x441    
 BV BND1      x442    
 BV BND1      x443    
 BV BND1      x444    
 BV BND1      x445    
 BV BND1      x446    
 BV BND1      x447    
 BV BND1      x448    
 BV BND1      x449    
 BV BND1      x450    
 BV BND1      x451    
 BV BND1      x452    
 BV BND1      x453    
 BV BND1      x454    
 BV BND1      x455    
 BV BND1      x456    
 BV BND1      x457    
 BV BND1      x458    
 BV BND1      x459    
 BV BND1      x460    
 BV BND1      x461    
 BV BND1      x462    
 BV BND1      x463    
 BV BND1      x464    
 BV BND1      x465    
 BV BND1      x466    
 BV BND1      x467    
 BV BND1      x468    
 BV BND1      x469    
 BV BND1      x470    
 BV BND1      x471    
 BV BND1      x472    
 BV BND1      x473    
 BV BND1      x474    
 BV BND1      x475    
 BV BND1      x476    
 BV BND1      x477    
 BV BND1      x478    
 BV BND1      x479    
 BV BND1      x480    
 BV BND1      x481    
 BV BND1      x482    
 BV BND1      x483    
 BV BND1      x484    
 BV BND1      x485    
 BV BND1      x486    
 BV BND1      x487    
 BV BND1      x488    
 BV BND1      x489    
 BV BND1      x490    
 BV BND1      x491    
 BV BND1      x492    
 BV BND1      x493    
 BV BND1      x494    
 BV BND1      x495    
 BV BND1      x496    
 BV BND1      x497    
 BV BND1      x498    
 BV BND1      x499    
 BV BND1      x500    
ENDATA
