NAME markshare1_pre
ROWS
 N  OBJ
 E  c1      
 E  c2      
 E  c3      
 E  c4      
 E  c5      
 E  c6      
COLUMNS
    MARKER    'MARKER'                 'INTORG'
    x1        OBJ       1
    x1        c1        1
    x3        OBJ       1
    x3        c2        1
    x5        OBJ       1
    x5        c3        1
    x7        OBJ       1
    x7        c4        1
    x9        OBJ       1
    x9        c5        1
    x11       OBJ       1
    x11       c6        1
    x13       c1        25
    x13       c2        97
    x13       c3        95
    x13       c4        1
    x13       c5        3
    x13       c6        69
    x14       c1        35
    x14       c2        64
    x14       c3        71
    x14       c4        27
    x14       c5        94
    x14       c6        72
    x15       c1        14
    x15       c2        24
    x15       c3        19
    x15       c4        46
    x15       c5        51
    x15       c6        94
    x16       c1        76
    x16       c2        63
    x16       c3        15
    x16       c4        48
    x16       c5        4
    x16       c6        56
    x17       c1        58
    x17       c2        58
    x17       c3        66
    x17       c4        66
    x17       c5        25
    x17       c6        90
    x18       c1        10
    x18       c2        45
    x18       c3        76
    x18       c4        58
    x18       c5        46
    x18       c6        20
    x19       c1        20
    x19       c2        20
    x19       c3        4
    x19       c4        52
    x19       c5        30
    x19       c6        56
    x20       c1        51
    x20       c2        71
    x20       c3        50
    x20       c4        6
    x20       c5        2
    x20       c6        50
    x21       c1        58
    x21       c2        32
    x21       c3        50
    x21       c4        14
    x21       c5        89
    x21       c6        79
    x22       c1        1
    x22       c2        7
    x22       c3        97
    x22       c4        26
    x22       c5        65
    x22       c6        59
    x23       c1        35
    x23       c2        28
    x23       c3        83
    x23       c4        55
    x23       c5        28
    x23       c6        36
    x24       c1        40
    x24       c2        77
    x24       c3        14
    x24       c4        61
    x24       c5        46
    x24       c6        24
    x25       c1        65
    x25       c2        95
    x25       c3        27
    x25       c4        60
    x25       c5        36
    x25       c6        42
    x26       c1        59
    x26       c2        96
    x26       c3        14
    x26       c4        3
    x26       c5        53
    x26       c6        9
    x27       c1        24
    x27       c2        70
    x27       c3        34
    x27       c4        33
    x27       c5        30
    x27       c6        29
    x28       c1        44
    x28       c2        22
    x28       c3        9
    x28       c4        99
    x28       c5        73
    x28       c6        68
    x29       c1        1
    x29       c2        93
    x29       c3        99
    x29       c4        36
    x29       c5        37
    x29       c6        10
    x30       c1        93
    x30       c2        32
    x30       c3        62
    x30       c4        55
    x30       c5        60
    x30       c6        1
    x31       c1        24
    x31       c2        17
    x31       c3        92
    x31       c4        70
    x31       c5        21
    x31       c6        44
    x32       c1        68
    x32       c2        56
    x32       c3        39
    x32       c4        73
    x32       c5        41
    x32       c6        74
    x33       c1        38
    x33       c2        74
    x33       c3        56
    x33       c4        70
    x33       c5        2
    x33       c6        61
    x34       c1        64
    x34       c2        62
    x34       c3        53
    x34       c4        38
    x34       c5        21
    x34       c6        37
    x35       c1        93
    x35       c2        94
    x35       c3        91
    x35       c4        66
    x35       c5        93
    x35       c6        71
    x36       c1        14
    x36       c2        9
    x36       c3        81
    x36       c4        39
    x36       c5        82
    x36       c6        63
    x37       c1        83
    x37       c2        92
    x37       c3        46
    x37       c4        43
    x37       c5        16
    x37       c6        44
    x38       c1        6
    x38       c2        90
    x38       c3        94
    x38       c4        63
    x38       c5        97
    x38       c6        77
    x39       c1        58
    x39       c2        40
    x39       c3        76
    x39       c4        88
    x39       c5        75
    x39       c6        57
    x40       c1        14
    x40       c2        45
    x40       c3        53
    x40       c4        47
    x40       c5        50
    x40       c6        46
    x41       c1        71
    x41       c2        84
    x41       c3        58
    x41       c4        18
    x41       c5        13
    x41       c6        51
    x42       c1        17
    x42       c2        62
    x42       c3        23
    x42       c4        73
    x42       c5        43
    x42       c6        43
    x43       c1        18
    x43       c2        62
    x43       c3        15
    x43       c4        40
    x43       c5        45
    x43       c6        4
    x44       c1        8
    x44       c2        34
    x44       c3        63
    x44       c4        91
    x44       c5        64
    x44       c6        85
    x45       c1        57
    x45       c2        21
    x45       c3        2
    x45       c4        96
    x45       c5        78
    x45       c6        59
    x46       c1        48
    x46       c2        2
    x46       c3        31
    x46       c4        49
    x46       c5        78
    x46       c6        7
    x47       c1        35
    x47       c2        75
    x47       c3        55
    x47       c4        13
    x47       c5        6
    x47       c6        25
    x48       c1        13
    x48       c2        42
    x48       c3        71
    x48       c4        27
    x48       c5        35
    x48       c6        46
    x49       c1        47
    x49       c2        75
    x49       c3        97
    x49       c4        22
    x49       c5        72
    x49       c6        25
    x50       c1        46
    x50       c2        29
    x50       c3        71
    x50       c4        71
    x50       c5        31
    x50       c6        70
    x51       c1        8
    x51       c2        4
    x51       c3        55
    x51       c4        99
    x51       c5        28
    x51       c6        78
    x52       c1        82
    x52       c2        64
    x52       c3        8
    x52       c4        66
    x52       c5        56
    x52       c6        88
    x53       c1        51
    x53       c2        80
    x53       c3        57
    x53       c4        57
    x53       c5        60
    x53       c6        20
    x54       c1        49
    x54       c2        17
    x54       c3        14
    x54       c4        1
    x54       c5        23
    x54       c6        40
    x55       c1        85
    x55       c2        55
    x55       c3        76
    x55       c4        54
    x55       c5        70
    x55       c6        40
    x56       c1        66
    x56       c2        73
    x56       c3        1
    x56       c4        35
    x56       c5        46
    x56       c6        16
    x57       c1        45
    x57       c2        23
    x57       c3        46
    x57       c4        52
    x57       c5        88
    x57       c6        3
    x58       c1        99
    x58       c2        13
    x58       c3        87
    x58       c4        66
    x58       c5        20
    x58       c6        3
    x59       c1        21
    x59       c2        91
    x59       c3        22
    x59       c4        26
    x59       c5        69
    x59       c6        5
    x60       c1        75
    x60       c2        70
    x60       c3        97
    x60       c4        1
    x60       c5        13
    x60       c6        77
    x61       c1        78
    x61       c2        73
    x61       c3        99
    x61       c4        26
    x61       c5        40
    x61       c6        88
    x62       c1        43
    x62       c2        28
    x62       c3        92
    x62       c4        12
    x62       c5        73
    x62       c6        16
    MARKER    'MARKER'                 'INTEND'
RHS
    RHS1      c1        1116
    RHS1      c2        1325
    RHS1      c3        1353
    RHS1      c4        1169
    RHS1      c5        1160
    RHS1      c6        1163
BOUNDS
 UP BND1      x1        1116
 UP BND1      x3        1325
 UP BND1      x5        1353
 UP BND1      x7        1169
 UP BND1      x9        1160
 UP BND1      x11       1163
 BV BND1      x13     
 BV BND1      x14     
 BV BND1      x15     
 BV BND1      x16     
 BV BND1      x17     
 BV BND1      x18     
 BV BND1      x19     
 BV BND1      x20     
 BV BND1      x21     
 BV BND1      x22     
 BV BND1      x23     
 BV BND1      x24     
 BV BND1      x25     
 BV BND1      x26     
 BV BND1      x27     
 BV BND1      x28     
 BV BND1      x29     
 BV BND1      x30     
 BV BND1      x31     
 BV BND1      x32     
 BV BND1      x33     
 BV BND1      x34     
 BV BND1      x35     
 BV BND1      x36     
 BV BND1      x37     
 BV BND1      x38     
 BV BND1      x39     
 BV BND1      x40     
 BV BND1      x41     
 BV BND1      x42     
 BV BND1      x43     
 BV BND1      x44     
 BV BND1      x45     
 BV BND1      x46     
 BV BND1      x47     
 BV BND1      x48     
 BV BND1      x49     
 BV BND1      x50     
 BV BND1      x51     
 BV BND1      x52     
 BV BND1      x53     
 BV BND1      x54     
 BV BND1      x55     
 BV BND1      x56     
 BV BND1      x57     
 BV BND1      x58     
 BV BND1      x59     
 BV BND1      x60     
 BV BND1      x61     
 BV BND1      x62     
ENDATA
