NAME markshare_5_0_pre
ROWS
 N  OBJ
 E  C1_     
 E  C2_     
 E  C3_     
 E  C4_     
 E  C5_     
COLUMNS
    MARKER    'MARKER'                 'INTORG'
    s1        OBJ       1
    s1        C1_       1
    s2        OBJ       1
    s2        C2_       1
    s3        OBJ       1
    s3        C3_       1
    s4        OBJ       1
    s4        C4_       1
    s5        OBJ       1
    s5        C5_       1
    x1        C5_       42
    x1        C4_       94
    x1        C3_       97
    x1        C2_       53
    x1        C1_       17
    x2        C5_       99
    x2        C4_       76
    x2        C3_       79
    x2        C2_       88
    x2        C1_       75
    x3        C5_       87
    x3        C4_       12
    x3        C3_       81
    x3        C2_       43
    x3        C1_       9
    x4        C5_       46
    x4        C4_       1
    x4        C3_       57
    x4        C2_       26
    x4        C1_       87
    x5        C5_       24
    x5        C4_       50
    x5        C3_       28
    x5        C2_       31
    x5        C1_       58
    x6        C5_       85
    x6        C4_       85
    x6        C3_       97
    x6        C2_       77
    x6        C1_       79
    x7        C5_       85
    x7        C4_       86
    x7        C3_       58
    x7        C2_       10
    x7        C1_       69
    x8        C5_       74
    x8        C4_       9
    x8        C3_       44
    x8        C2_       77
    x8        C1_       37
    x9        C5_       13
    x9        C4_       86
    x9        C3_       37
    x9        C2_       71
    x9        C1_       88
    x10       C5_       48
    x10       C4_       79
    x10       C3_       93
    x10       C2_       22
    x10       C1_       75
    x11       C5_       79
    x11       C4_       58
    x11       C3_       2
    x11       C2_       76
    x11       C1_       45
    x12       C5_       50
    x12       C4_       10
    x12       C3_       77
    x12       C2_       41
    x12       C1_       35
    x13       C5_       57
    x13       C4_       83
    x13       C3_       73
    x13       C2_       65
    x13       C1_       73
    x14       C5_       44
    x14       C4_       75
    x14       C3_       59
    x14       C2_       93
    x14       C1_       26
    x15       C5_       3
    x15       C4_       91
    x15       C3_       43
    x15       C2_       50
    x15       C1_       39
    x16       C5_       33
    x16       C4_       51
    x16       C3_       64
    x16       C2_       69
    x16       C1_       78
    x17       C5_       43
    x17       C4_       89
    x17       C3_       75
    x17       C2_       44
    x17       C1_       85
    x18       C5_       58
    x18       C4_       97
    x18       C3_       6
    x18       C2_       61
    x18       C1_       58
    x19       C5_       8
    x19       C4_       57
    x19       C3_       5
    x19       C2_       58
    x19       C1_       72
    x20       C5_       68
    x20       C4_       47
    x20       C3_       78
    x20       C2_       63
    x20       C1_       8
    x21       C5_       59
    x21       C4_       42
    x21       C3_       71
    x21       C2_       46
    x21       C1_       46
    x22       C5_       23
    x22       C4_       65
    x22       C3_       12
    x22       C2_       63
    x22       C1_       11
    x23       C5_       75
    x23       C4_       88
    x23       C3_       30
    x23       C2_       13
    x23       C1_       55
    x24       C5_       96
    x24       C4_       59
    x24       C3_       7
    x24       C2_       97
    x24       C1_       39
    x25       C5_       87
    x25       C4_       22
    x25       C3_       69
    x25       C2_       14
    x25       C1_       57
    x26       C5_       7
    x26       C4_       100
    x26       C3_       36
    x26       C2_       45
    x26       C1_       96
    x27       C5_       54
    x27       C4_       16
    x27       C3_       73
    x27       C2_       32
    x27       C1_       87
    x28       C5_       38
    x28       C4_       70
    x28       C3_       19
    x28       C2_       96
    x28       C1_       16
    x29       C4_       70
    x29       C3_       15
    x29       C2_       36
    x29       C1_       27
    x30       C5_       72
    x30       C4_       99
    x30       C3_       16
    x30       C2_       40
    x30       C1_       26
    x31       C5_       5
    x31       C4_       65
    x31       C3_       84
    x31       C2_       10
    x31       C1_       93
    x32       C5_       2
    x32       C4_       66
    x32       C3_       55
    x32       C2_       96
    x32       C1_       44
    x33       C5_       76
    x33       C4_       85
    x33       C3_       32
    x33       C2_       99
    x33       C1_       79
    x34       C5_       63
    x34       C4_       68
    x34       C3_       53
    x34       C2_       58
    x34       C1_       12
    x35       C5_       94
    x35       C4_       97
    x35       C3_       43
    x35       C2_       87
    x35       C1_       8
    x36       C5_       55
    x36       C4_       33
    x36       C3_       21
    x36       C2_       15
    x36       C1_       95
    x37       C5_       41
    x37       C4_       80
    x37       C3_       73
    x37       C2_       91
    x37       C1_       2
    x38       C5_       39
    x38       C4_       16
    x38       C2_       65
    x38       C1_       15
    x39       C5_       19
    x39       C4_       87
    x39       C3_       59
    x39       C2_       6
    x39       C1_       38
    x40       C5_       31
    x40       C4_       60
    x40       C3_       48
    x40       C2_       96
    x40       C1_       15
    MARKER    'MARKER'                 'INTEND'
RHS
    RHS1      C1_       987
    RHS1      C2_       1111
    RHS1      C3_       984
    RHS1      C4_       1262
    RHS1      C5_       991
BOUNDS
 UP BND1      s1        987
 UP BND1      s2        1111
 UP BND1      s3        984
 UP BND1      s4        1262
 UP BND1      s5        991
 BV BND1      x1      
 BV BND1      x2      
 BV BND1      x3      
 BV BND1      x4      
 BV BND1      x5      
 BV BND1      x6      
 BV BND1      x7      
 BV BND1      x8      
 BV BND1      x9      
 BV BND1      x10     
 BV BND1      x11     
 BV BND1      x12     
 BV BND1      x13     
 BV BND1      x14     
 BV BND1      x15     
 BV BND1      x16     
 BV BND1      x17     
 BV BND1      x18     
 BV BND1      x19     
 BV BND1      x20     
 BV BND1      x21     
 BV BND1      x22     
 BV BND1      x23     
 BV BND1      x24     
 BV BND1      x25     
 BV BND1      x26     
 BV BND1      x27     
 BV BND1      x28     
 BV BND1      x29     
 BV BND1      x30     
 BV BND1      x31     
 BV BND1      x32     
 BV BND1      x33     
 BV BND1      x34     
 BV BND1      x35     
 BV BND1      x36     
 BV BND1      x37     
 BV BND1      x38     
 BV BND1      x39     
 BV BND1      x40     
ENDATA
