NAME mine-90-10_pre
ROWS
 N  OBJ
 L  ORD_0_0 
 L  ORD_0_1 
 L  ORD_0_2 
 L  ORD_0_3 
 L  ORD_0_4 
 L  ORD_0_5 
 L  ORD_0_6 
 L  ORD_0_7 
 L  ORD_0_8 
 L  ORD_1_0 
 L  ORD_1_1 
 L  ORD_1_2 
 L  ORD_1_3 
 L  ORD_1_4 
 L  ORD_1_5 
 L  ORD_1_6 
 L  ORD_1_7 
 L  ORD_1_8 
 L  ORD_2_0 
 L  ORD_2_1 
 L  ORD_2_2 
 L  ORD_2_3 
 L  ORD_2_4 
 L  ORD_2_5 
 L  ORD_2_6 
 L  ORD_2_7 
 L  ORD_2_8 
 L  ORD_3_3 
 L  ORD_3_4 
 L  ORD_3_5 
 L  ORD_3_6 
 L  ORD_3_7 
 L  ORD_3_8 
 L  ORD_4_1 
 L  ORD_4_2 
 L  ORD_4_3 
 L  ORD_4_4 
 L  ORD_4_5 
 L  ORD_4_6 
 L  ORD_4_7 
 L  ORD_4_8 
 L  ORD_5_0 
 L  ORD_5_1 
 L  ORD_5_2 
 L  ORD_5_3 
 L  ORD_5_4 
 L  ORD_5_5 
 L  ORD_5_6 
 L  ORD_5_7 
 L  ORD_5_8 
 L  ORD_6_0 
 L  ORD_6_1 
 L  ORD_6_2 
 L  ORD_6_3 
 L  ORD_6_4 
 L  ORD_6_5 
 L  ORD_6_6 
 L  ORD_6_7 
 L  ORD_6_8 
 L  ORD_7_0 
 L  ORD_7_1 
 L  ORD_7_2 
 L  ORD_7_3 
 L  ORD_7_4 
 L  ORD_7_5 
 L  ORD_7_6 
 L  ORD_7_7 
 L  ORD_7_8 
 L  ORD_8_3 
 L  ORD_8_4 
 L  ORD_8_5 
 L  ORD_8_6 
 L  ORD_8_7 
 L  ORD_8_8 
 L  ORD_9_1 
 L  ORD_9_2 
 L  ORD_9_3 
 L  ORD_9_4 
 L  ORD_9_5 
 L  ORD_9_6 
 L  ORD_9_7 
 L  ORD_9_8 
 L  ORD_10_0
 L  ORD_10_1
 L  ORD_10_2
 L  ORD_10_3
 L  ORD_10_4
 L  ORD_10_5
 L  ORD_10_6
 L  ORD_10_7
 L  ORD_10_8
 L  ORD_11_0
 L  ORD_11_1
 L  ORD_11_2
 L  ORD_11_3
 L  ORD_11_4
 L  ORD_11_5
 L  ORD_11_6
 L  ORD_11_7
 L  ORD_11_8
 L  ORD_12_0
 L  ORD_12_1
 L  ORD_12_2
 L  ORD_12_3
 L  ORD_12_4
 L  ORD_12_5
 L  ORD_12_6
 L  ORD_12_7
 L  ORD_12_8
 L  ORD_13_1
 L  ORD_13_2
 L  ORD_13_3
 L  ORD_13_4
 L  ORD_13_5
 L  ORD_13_6
 L  ORD_13_7
 L  ORD_13_8
 L  ORD_14_0
 L  ORD_14_1
 L  ORD_14_2
 L  ORD_14_3
 L  ORD_14_4
 L  ORD_14_5
 L  ORD_14_6
 L  ORD_14_7
 L  ORD_14_8
 L  ORD_15_0
 L  ORD_15_1
 L  ORD_15_2
 L  ORD_15_3
 L  ORD_15_4
 L  ORD_15_5
 L  ORD_15_6
 L  ORD_15_7
 L  ORD_15_8
 L  ORD_16_0
 L  ORD_16_1
 L  ORD_16_2
 L  ORD_16_3
 L  ORD_16_4
 L  ORD_16_5
 L  ORD_16_6
 L  ORD_16_7
 L  ORD_16_8
 L  ORD_17_0
 L  ORD_17_1
 L  ORD_17_2
 L  ORD_17_3
 L  ORD_17_4
 L  ORD_17_5
 L  ORD_17_6
 L  ORD_17_7
 L  ORD_17_8
 L  ORD_18_3
 L  ORD_18_4
 L  ORD_18_5
 L  ORD_18_6
 L  ORD_18_7
 L  ORD_18_8
 L  ORD_19_1
 L  ORD_19_2
 L  ORD_19_3
 L  ORD_19_4
 L  ORD_19_5
 L  ORD_19_6
 L  ORD_19_7
 L  ORD_19_8
 L  ORD_20_0
 L  ORD_20_1
 L  ORD_20_2
 L  ORD_20_3
 L  ORD_20_4
 L  ORD_20_5
 L  ORD_20_6
 L  ORD_20_7
 L  ORD_20_8
 L  ORD_21_0
 L  ORD_21_1
 L  ORD_21_2
 L  ORD_21_3
 L  ORD_21_4
 L  ORD_21_5
 L  ORD_21_6
 L  ORD_21_7
 L  ORD_21_8
 L  ORD_22_0
 L  ORD_22_1
 L  ORD_22_2
 L  ORD_22_3
 L  ORD_22_4
 L  ORD_22_5
 L  ORD_22_6
 L  ORD_22_7
 L  ORD_22_8
 L  ORD_23_8
 L  ORD_24_7
 L  ORD_24_8
 L  ORD_25_5
 L  ORD_25_6
 L  ORD_25_7
 L  ORD_25_8
 L  ORD_26_2
 L  ORD_26_3
 L  ORD_26_4
 L  ORD_26_5
 L  ORD_26_6
 L  ORD_26_7
 L  ORD_26_8
 L  ORD_27_1
 L  ORD_27_2
 L  ORD_27_3
 L  ORD_27_4
 L  ORD_27_5
 L  ORD_27_6
 L  ORD_27_7
 L  ORD_27_8
 L  ORD_28_0
 L  ORD_28_1
 L  ORD_28_2
 L  ORD_28_3
 L  ORD_28_4
 L  ORD_28_5
 L  ORD_28_6
 L  ORD_28_7
 L  ORD_28_8
 L  ORD_29_0
 L  ORD_29_1
 L  ORD_29_2
 L  ORD_29_3
 L  ORD_29_4
 L  ORD_29_5
 L  ORD_29_6
 L  ORD_29_7
 L  ORD_29_8
 L  ORD_30_8
 L  ORD_31_7
 L  ORD_31_8
 L  ORD_32_5
 L  ORD_32_6
 L  ORD_32_7
 L  ORD_32_8
 L  ORD_33_3
 L  ORD_33_4
 L  ORD_33_5
 L  ORD_33_6
 L  ORD_33_7
 L  ORD_33_8
 L  ORD_34_1
 L  ORD_34_2
 L  ORD_34_3
 L  ORD_34_4
 L  ORD_34_5
 L  ORD_34_6
 L  ORD_34_7
 L  ORD_34_8
 L  ORD_35_0
 L  ORD_35_1
 L  ORD_35_2
 L  ORD_35_3
 L  ORD_35_4
 L  ORD_35_5
 L  ORD_35_6
 L  ORD_35_7
 L  ORD_35_8
 L  ORD_36_0
 L  ORD_36_1
 L  ORD_36_2
 L  ORD_36_3
 L  ORD_36_4
 L  ORD_36_5
 L  ORD_36_6
 L  ORD_36_7
 L  ORD_36_8
 L  ORD_37_5
 L  ORD_37_6
 L  ORD_37_7
 L  ORD_37_8
 L  ORD_38_3
 L  ORD_38_4
 L  ORD_38_5
 L  ORD_38_6
 L  ORD_38_7
 L  ORD_38_8
 L  ORD_39_2
 L  ORD_39_3
 L  ORD_39_4
 L  ORD_39_5
 L  ORD_39_6
 L  ORD_39_7
 L  ORD_39_8
 L  ORD_40_1
 L  ORD_40_2
 L  ORD_40_3
 L  ORD_40_4
 L  ORD_40_5
 L  ORD_40_6
 L  ORD_40_7
 L  ORD_40_8
 L  ORD_41_0
 L  ORD_41_1
 L  ORD_41_2
 L  ORD_41_3
 L  ORD_41_4
 L  ORD_41_5
 L  ORD_41_6
 L  ORD_41_7
 L  ORD_41_8
 L  ORD_42_0
 L  ORD_42_1
 L  ORD_42_2
 L  ORD_42_3
 L  ORD_42_4
 L  ORD_42_5
 L  ORD_42_6
 L  ORD_42_7
 L  ORD_42_8
 L  ORD_43_0
 L  ORD_43_1
 L  ORD_43_2
 L  ORD_43_3
 L  ORD_43_4
 L  ORD_43_5
 L  ORD_43_6
 L  ORD_43_7
 L  ORD_43_8
 L  ORD_44_0
 L  ORD_44_1
 L  ORD_44_2
 L  ORD_44_3
 L  ORD_44_4
 L  ORD_44_5
 L  ORD_44_6
 L  ORD_44_7
 L  ORD_44_8
 L  ORD_45_3
 L  ORD_45_4
 L  ORD_45_5
 L  ORD_45_6
 L  ORD_45_7
 L  ORD_45_8
 L  ORD_46_1
 L  ORD_46_2
 L  ORD_46_3
 L  ORD_46_4
 L  ORD_46_5
 L  ORD_46_6
 L  ORD_46_7
 L  ORD_46_8
 L  ORD_47_0
 L  ORD_47_1
 L  ORD_47_2
 L  ORD_47_3
 L  ORD_47_4
 L  ORD_47_5
 L  ORD_47_6
 L  ORD_47_7
 L  ORD_47_8
 L  ORD_48_0
 L  ORD_48_1
 L  ORD_48_2
 L  ORD_48_3
 L  ORD_48_4
 L  ORD_48_5
 L  ORD_48_6
 L  ORD_48_7
 L  ORD_48_8
 L  ORD_49_0
 L  ORD_49_1
 L  ORD_49_2
 L  ORD_49_3
 L  ORD_49_4
 L  ORD_49_5
 L  ORD_49_6
 L  ORD_49_7
 L  ORD_49_8
 L  ORD_50_8
 L  ORD_51_7
 L  ORD_51_8
 L  ORD_52_5
 L  ORD_52_6
 L  ORD_52_7
 L  ORD_52_8
 L  ORD_53_2
 L  ORD_53_3
 L  ORD_53_4
 L  ORD_53_5
 L  ORD_53_6
 L  ORD_53_7
 L  ORD_53_8
 L  ORD_54_1
 L  ORD_54_2
 L  ORD_54_3
 L  ORD_54_4
 L  ORD_54_5
 L  ORD_54_6
 L  ORD_54_7
 L  ORD_54_8
 L  ORD_55_0
 L  ORD_55_1
 L  ORD_55_2
 L  ORD_55_3
 L  ORD_55_4
 L  ORD_55_5
 L  ORD_55_6
 L  ORD_55_7
 L  ORD_55_8
 L  ORD_56_0
 L  ORD_56_1
 L  ORD_56_2
 L  ORD_56_3
 L  ORD_56_4
 L  ORD_56_5
 L  ORD_56_6
 L  ORD_56_7
 L  ORD_56_8
 L  ORD_57_8
 L  ORD_58_7
 L  ORD_58_8
 L  ORD_59_5
 L  ORD_59_6
 L  ORD_59_7
 L  ORD_59_8
 L  ORD_60_3
 L  ORD_60_4
 L  ORD_60_5
 L  ORD_60_6
 L  ORD_60_7
 L  ORD_60_8
 L  ORD_61_0
 L  ORD_61_1
 L  ORD_61_2
 L  ORD_61_3
 L  ORD_61_4
 L  ORD_61_5
 L  ORD_61_6
 L  ORD_61_7
 L  ORD_61_8
 L  ORD_62_0
 L  ORD_62_1
 L  ORD_62_2
 L  ORD_62_3
 L  ORD_62_4
 L  ORD_62_5
 L  ORD_62_6
 L  ORD_62_7
 L  ORD_62_8
 L  ORD_63_0
 L  ORD_63_1
 L  ORD_63_2
 L  ORD_63_3
 L  ORD_63_4
 L  ORD_63_5
 L  ORD_63_6
 L  ORD_63_7
 L  ORD_63_8
 L  ORD_64_5
 L  ORD_64_6
 L  ORD_64_7
 L  ORD_64_8
 L  ORD_65_3
 L  ORD_65_4
 L  ORD_65_5
 L  ORD_65_6
 L  ORD_65_7
 L  ORD_65_8
 L  ORD_66_2
 L  ORD_66_3
 L  ORD_66_4
 L  ORD_66_5
 L  ORD_66_6
 L  ORD_66_7
 L  ORD_66_8
 L  ORD_67_0
 L  ORD_67_1
 L  ORD_67_2
 L  ORD_67_3
 L  ORD_67_4
 L  ORD_67_5
 L  ORD_67_6
 L  ORD_67_7
 L  ORD_67_8
 L  ORD_68_0
 L  ORD_68_1
 L  ORD_68_2
 L  ORD_68_3
 L  ORD_68_4
 L  ORD_68_5
 L  ORD_68_6
 L  ORD_68_7
 L  ORD_68_8
 L  ORD_69_0
 L  ORD_69_1
 L  ORD_69_2
 L  ORD_69_3
 L  ORD_69_4
 L  ORD_69_5
 L  ORD_69_6
 L  ORD_69_7
 L  ORD_69_8
 L  ORD_70_0
 L  ORD_70_1
 L  ORD_70_2
 L  ORD_70_3
 L  ORD_70_4
 L  ORD_70_5
 L  ORD_70_6
 L  ORD_70_7
 L  ORD_70_8
 L  ORD_71_0
 L  ORD_71_1
 L  ORD_71_2
 L  ORD_71_3
 L  ORD_71_4
 L  ORD_71_5
 L  ORD_71_6
 L  ORD_71_7
 L  ORD_71_8
 L  ORD_72_0
 L  ORD_72_1
 L  ORD_72_2
 L  ORD_72_3
 L  ORD_72_4
 L  ORD_72_5
 L  ORD_72_6
 L  ORD_72_7
 L  ORD_72_8
 L  ORD_73_0
 L  ORD_73_1
 L  ORD_73_2
 L  ORD_73_3
 L  ORD_73_4
 L  ORD_73_5
 L  ORD_73_6
 L  ORD_73_7
 L  ORD_73_8
 L  ORD_74_0
 L  ORD_74_1
 L  ORD_74_2
 L  ORD_74_3
 L  ORD_74_4
 L  ORD_74_5
 L  ORD_74_6
 L  ORD_74_7
 L  ORD_74_8
 L  ORD_75_3
 L  ORD_75_4
 L  ORD_75_5
 L  ORD_75_6
 L  ORD_75_7
 L  ORD_75_8
 L  ORD_76_1
 L  ORD_76_2
 L  ORD_76_3
 L  ORD_76_4
 L  ORD_76_5
 L  ORD_76_6
 L  ORD_76_7
 L  ORD_76_8
 L  ORD_77_0
 L  ORD_77_1
 L  ORD_77_2
 L  ORD_77_3
 L  ORD_77_4
 L  ORD_77_5
 L  ORD_77_6
 L  ORD_77_7
 L  ORD_77_8
 L  ORD_78_0
 L  ORD_78_1
 L  ORD_78_2
 L  ORD_78_3
 L  ORD_78_4
 L  ORD_78_5
 L  ORD_78_6
 L  ORD_78_7
 L  ORD_78_8
 L  ORD_79_0
 L  ORD_79_1
 L  ORD_79_2
 L  ORD_79_3
 L  ORD_79_4
 L  ORD_79_5
 L  ORD_79_6
 L  ORD_79_7
 L  ORD_79_8
 L  ORD_80_3
 L  ORD_80_4
 L  ORD_80_5
 L  ORD_80_6
 L  ORD_80_7
 L  ORD_80_8
 L  ORD_81_1
 L  ORD_81_2
 L  ORD_81_3
 L  ORD_81_4
 L  ORD_81_5
 L  ORD_81_6
 L  ORD_81_7
 L  ORD_81_8
 L  ORD_82_0
 L  ORD_82_1
 L  ORD_82_2
 L  ORD_82_3
 L  ORD_82_4
 L  ORD_82_5
 L  ORD_82_6
 L  ORD_82_7
 L  ORD_82_8
 L  ORD_83_0
 L  ORD_83_1
 L  ORD_83_2
 L  ORD_83_3
 L  ORD_83_4
 L  ORD_83_5
 L  ORD_83_6
 L  ORD_83_7
 L  ORD_83_8
 L  ORD_84_0
 L  ORD_84_1
 L  ORD_84_2
 L  ORD_84_3
 L  ORD_84_4
 L  ORD_84_5
 L  ORD_84_6
 L  ORD_84_7
 L  ORD_84_8
 L  ORD_85_1
 L  ORD_85_2
 L  ORD_85_3
 L  ORD_85_4
 L  ORD_85_5
 L  ORD_85_6
 L  ORD_85_7
 L  ORD_85_8
 L  ORD_86_0
 L  ORD_86_1
 L  ORD_86_2
 L  ORD_86_3
 L  ORD_86_4
 L  ORD_86_5
 L  ORD_86_6
 L  ORD_86_7
 L  ORD_86_8
 L  ORD_87_0
 L  ORD_87_1
 L  ORD_87_2
 L  ORD_87_3
 L  ORD_87_4
 L  ORD_87_5
 L  ORD_87_6
 L  ORD_87_7
 L  ORD_87_8
 L  ORD_88_0
 L  ORD_88_1
 L  ORD_88_2
 L  ORD_88_3
 L  ORD_88_4
 L  ORD_88_5
 L  ORD_88_6
 L  ORD_88_7
 L  ORD_88_8
 L  ORD_89_0
 L  ORD_89_1
 L  ORD_89_2
 L  ORD_89_3
 L  ORD_89_4
 L  ORD_89_5
 L  ORD_89_6
 L  ORD_89_7
 L  ORD_89_8
 L  PREC_0_1_0
 L  PREC_0_1_1
 L  PREC_0_1_2
 L  PREC_0_1_3
 L  PREC_0_1_4
 L  PREC_0_1_5
 L  PREC_0_1_6
 L  PREC_0_1_7
 L  PREC_0_1_8
 L  PREC_0_1_9
 L  PREC_0_7_0
 L  PREC_0_7_1
 L  PREC_0_7_2
 L  PREC_0_7_3
 L  PREC_0_7_4
 L  PREC_0_7_5
 L  PREC_0_7_6
 L  PREC_0_7_7
 L  PREC_0_7_8
 L  PREC_0_7_9
 L  PREC_0_22_0
 L  PREC_0_22_1
 L  PREC_0_22_2
 L  PREC_0_22_3
 L  PREC_0_22_4
 L  PREC_0_22_5
 L  PREC_0_22_6
 L  PREC_0_22_7
 L  PREC_0_22_8
 L  PREC_0_22_9
 L  PREC_1_2_0
 L  PREC_1_2_1
 L  PREC_1_2_2
 L  PREC_1_2_3
 L  PREC_1_2_4
 L  PREC_1_2_5
 L  PREC_1_2_6
 L  PREC_1_2_7
 L  PREC_1_2_8
 L  PREC_1_2_9
 L  PREC_3_4_3
 L  PREC_3_4_4
 L  PREC_3_4_5
 L  PREC_3_4_6
 L  PREC_3_4_7
 L  PREC_3_4_8
 L  PREC_3_4_9
 L  PREC_3_0_3
 L  PREC_3_0_4
 L  PREC_3_0_5
 L  PREC_3_0_6
 L  PREC_3_0_7
 L  PREC_3_0_8
 L  PREC_3_0_9
 L  PREC_3_10_3
 L  PREC_3_10_4
 L  PREC_3_10_5
 L  PREC_3_10_6
 L  PREC_3_10_7
 L  PREC_3_10_8
 L  PREC_3_10_9
 L  PREC_3_27_3
 L  PREC_3_27_4
 L  PREC_3_27_5
 L  PREC_3_27_6
 L  PREC_3_27_7
 L  PREC_3_27_8
 L  PREC_3_27_9
 L  PREC_3_15_3
 L  PREC_3_15_4
 L  PREC_3_15_5
 L  PREC_3_15_6
 L  PREC_3_15_7
 L  PREC_3_15_8
 L  PREC_3_15_9
 L  PREC_3_21_3
 L  PREC_3_21_4
 L  PREC_3_21_5
 L  PREC_3_21_6
 L  PREC_3_21_7
 L  PREC_3_21_8
 L  PREC_3_21_9
 L  PREC_3_35_3
 L  PREC_3_35_4
 L  PREC_3_35_5
 L  PREC_3_35_6
 L  PREC_3_35_7
 L  PREC_3_35_8
 L  PREC_3_35_9
 L  PREC_3_55_3
 L  PREC_3_55_4
 L  PREC_3_55_5
 L  PREC_3_55_6
 L  PREC_3_55_7
 L  PREC_3_55_8
 L  PREC_3_55_9
 L  PREC_3_42_3
 L  PREC_3_42_4
 L  PREC_3_42_5
 L  PREC_3_42_6
 L  PREC_3_42_7
 L  PREC_3_42_8
 L  PREC_3_42_9
 L  PREC_3_49_3
 L  PREC_3_49_4
 L  PREC_3_49_5
 L  PREC_3_49_6
 L  PREC_3_49_7
 L  PREC_3_49_8
 L  PREC_3_49_9
 L  PREC_3_63_3
 L  PREC_3_63_4
 L  PREC_3_63_5
 L  PREC_3_63_6
 L  PREC_3_63_7
 L  PREC_3_63_8
 L  PREC_3_63_9
 L  PREC_4_5_1
 L  PREC_4_5_2
 L  PREC_4_5_3
 L  PREC_4_5_4
 L  PREC_4_5_5
 L  PREC_4_5_6
 L  PREC_4_5_7
 L  PREC_4_5_8
 L  PREC_4_5_9
 L  PREC_4_1_1
 L  PREC_4_1_2
 L  PREC_4_1_3
 L  PREC_4_1_4
 L  PREC_4_1_5
 L  PREC_4_1_6
 L  PREC_4_1_7
 L  PREC_4_1_8
 L  PREC_4_1_9
 L  PREC_4_11_1
 L  PREC_4_11_2
 L  PREC_4_11_3
 L  PREC_4_11_4
 L  PREC_4_11_5
 L  PREC_4_11_6
 L  PREC_4_11_7
 L  PREC_4_11_8
 L  PREC_4_11_9
 L  PREC_4_28_1
 L  PREC_4_28_2
 L  PREC_4_28_3
 L  PREC_4_28_4
 L  PREC_4_28_5
 L  PREC_4_28_6
 L  PREC_4_28_7
 L  PREC_4_28_8
 L  PREC_4_28_9
 L  PREC_4_16_1
 L  PREC_4_16_2
 L  PREC_4_16_3
 L  PREC_4_16_4
 L  PREC_4_16_5
 L  PREC_4_16_6
 L  PREC_4_16_7
 L  PREC_4_16_8
 L  PREC_4_16_9
 L  PREC_4_22_1
 L  PREC_4_22_2
 L  PREC_4_22_3
 L  PREC_4_22_4
 L  PREC_4_22_5
 L  PREC_4_22_6
 L  PREC_4_22_7
 L  PREC_4_22_8
 L  PREC_4_22_9
 L  PREC_4_36_1
 L  PREC_4_36_2
 L  PREC_4_36_3
 L  PREC_4_36_4
 L  PREC_4_36_5
 L  PREC_4_36_6
 L  PREC_4_36_7
 L  PREC_4_36_8
 L  PREC_4_36_9
 L  PREC_4_56_1
 L  PREC_4_56_2
 L  PREC_4_56_3
 L  PREC_4_56_4
 L  PREC_4_56_5
 L  PREC_4_56_6
 L  PREC_4_56_7
 L  PREC_4_56_8
 L  PREC_4_56_9
 L  PREC_5_6_0
 L  PREC_5_6_1
 L  PREC_5_6_2
 L  PREC_5_6_3
 L  PREC_5_6_4
 L  PREC_5_6_5
 L  PREC_5_6_6
 L  PREC_5_6_7
 L  PREC_5_6_8
 L  PREC_5_6_9
 L  PREC_5_2_0
 L  PREC_5_2_1
 L  PREC_5_2_2
 L  PREC_5_2_3
 L  PREC_5_2_4
 L  PREC_5_2_5
 L  PREC_5_2_6
 L  PREC_5_2_7
 L  PREC_5_2_8
 L  PREC_5_2_9
 L  PREC_5_12_0
 L  PREC_5_12_1
 L  PREC_5_12_2
 L  PREC_5_12_3
 L  PREC_5_12_4
 L  PREC_5_12_5
 L  PREC_5_12_6
 L  PREC_5_12_7
 L  PREC_5_12_8
 L  PREC_5_12_9
 L  PREC_5_29_0
 L  PREC_5_29_1
 L  PREC_5_29_2
 L  PREC_5_29_3
 L  PREC_5_29_4
 L  PREC_5_29_5
 L  PREC_5_29_6
 L  PREC_5_29_7
 L  PREC_5_29_8
 L  PREC_5_29_9
 L  PREC_6_7_0
 L  PREC_6_7_1
 L  PREC_6_7_2
 L  PREC_6_7_3
 L  PREC_6_7_4
 L  PREC_6_7_5
 L  PREC_6_7_6
 L  PREC_6_7_7
 L  PREC_6_7_8
 L  PREC_6_7_9
 L  PREC_8_9_3
 L  PREC_8_9_4
 L  PREC_8_9_5
 L  PREC_8_9_6
 L  PREC_8_9_7
 L  PREC_8_9_8
 L  PREC_8_9_9
 L  PREC_8_5_3
 L  PREC_8_5_4
 L  PREC_8_5_5
 L  PREC_8_5_6
 L  PREC_8_5_7
 L  PREC_8_5_8
 L  PREC_8_5_9
 L  PREC_8_14_3
 L  PREC_8_14_4
 L  PREC_8_14_5
 L  PREC_8_14_6
 L  PREC_8_14_7
 L  PREC_8_14_8
 L  PREC_8_14_9
 L  PREC_8_34_3
 L  PREC_8_34_4
 L  PREC_8_34_5
 L  PREC_8_34_6
 L  PREC_8_34_7
 L  PREC_8_34_8
 L  PREC_8_34_9
 L  PREC_8_1_3
 L  PREC_8_1_4
 L  PREC_8_1_5
 L  PREC_8_1_6
 L  PREC_8_1_7
 L  PREC_8_1_8
 L  PREC_8_1_9
 L  PREC_8_28_3
 L  PREC_8_28_4
 L  PREC_8_28_5
 L  PREC_8_28_6
 L  PREC_8_28_7
 L  PREC_8_28_8
 L  PREC_8_28_9
 L  PREC_8_41_3
 L  PREC_8_41_4
 L  PREC_8_41_5
 L  PREC_8_41_6
 L  PREC_8_41_7
 L  PREC_8_41_8
 L  PREC_8_41_9
 L  PREC_8_62_3
 L  PREC_8_62_4
 L  PREC_8_62_5
 L  PREC_8_62_6
 L  PREC_8_62_7
 L  PREC_8_62_8
 L  PREC_8_62_9
 L  PREC_8_22_3
 L  PREC_8_22_4
 L  PREC_8_22_5
 L  PREC_8_22_6
 L  PREC_8_22_7
 L  PREC_8_22_8
 L  PREC_8_22_9
 L  PREC_8_44_3
 L  PREC_8_44_4
 L  PREC_8_44_5
 L  PREC_8_44_6
 L  PREC_8_44_7
 L  PREC_8_44_8
 L  PREC_8_44_9
 L  PREC_8_56_3
 L  PREC_8_56_4
 L  PREC_8_56_5
 L  PREC_8_56_6
 L  PREC_8_56_7
 L  PREC_8_56_8
 L  PREC_8_56_9
 L  PREC_8_69_3
 L  PREC_8_69_4
 L  PREC_8_69_5
 L  PREC_8_69_6
 L  PREC_8_69_7
 L  PREC_8_69_8
 L  PREC_8_69_9
 L  PREC_9_10_1
 L  PREC_9_10_2
 L  PREC_9_10_3
 L  PREC_9_10_4
 L  PREC_9_10_5
 L  PREC_9_10_6
 L  PREC_9_10_7
 L  PREC_9_10_8
 L  PREC_9_10_9
 L  PREC_9_6_1
 L  PREC_9_6_2
 L  PREC_9_6_3
 L  PREC_9_6_4
 L  PREC_9_6_5
 L  PREC_9_6_6
 L  PREC_9_6_7
 L  PREC_9_6_8
 L  PREC_9_6_9
 L  PREC_9_15_1
 L  PREC_9_15_2
 L  PREC_9_15_3
 L  PREC_9_15_4
 L  PREC_9_15_5
 L  PREC_9_15_6
 L  PREC_9_15_7
 L  PREC_9_15_8
 L  PREC_9_15_9
 L  PREC_9_35_1
 L  PREC_9_35_2
 L  PREC_9_35_3
 L  PREC_9_35_4
 L  PREC_9_35_5
 L  PREC_9_35_6
 L  PREC_9_35_7
 L  PREC_9_35_8
 L  PREC_9_35_9
 L  PREC_9_2_1
 L  PREC_9_2_2
 L  PREC_9_2_3
 L  PREC_9_2_4
 L  PREC_9_2_5
 L  PREC_9_2_6
 L  PREC_9_2_7
 L  PREC_9_2_8
 L  PREC_9_2_9
 L  PREC_9_17_1
 L  PREC_9_17_2
 L  PREC_9_17_3
 L  PREC_9_17_4
 L  PREC_9_17_5
 L  PREC_9_17_6
 L  PREC_9_17_7
 L  PREC_9_17_8
 L  PREC_9_17_9
 L  PREC_9_29_1
 L  PREC_9_29_2
 L  PREC_9_29_3
 L  PREC_9_29_4
 L  PREC_9_29_5
 L  PREC_9_29_6
 L  PREC_9_29_7
 L  PREC_9_29_8
 L  PREC_9_29_9
 L  PREC_9_42_1
 L  PREC_9_42_2
 L  PREC_9_42_3
 L  PREC_9_42_4
 L  PREC_9_42_5
 L  PREC_9_42_6
 L  PREC_9_42_7
 L  PREC_9_42_8
 L  PREC_9_42_9
 L  PREC_9_63_1
 L  PREC_9_63_2
 L  PREC_9_63_3
 L  PREC_9_63_4
 L  PREC_9_63_5
 L  PREC_9_63_6
 L  PREC_9_63_7
 L  PREC_9_63_8
 L  PREC_9_63_9
 L  PREC_10_11_0
 L  PREC_10_11_1
 L  PREC_10_11_2
 L  PREC_10_11_3
 L  PREC_10_11_4
 L  PREC_10_11_5
 L  PREC_10_11_6
 L  PREC_10_11_7
 L  PREC_10_11_8
 L  PREC_10_11_9
 L  PREC_10_7_0
 L  PREC_10_7_1
 L  PREC_10_7_2
 L  PREC_10_7_3
 L  PREC_10_7_4
 L  PREC_10_7_5
 L  PREC_10_7_6
 L  PREC_10_7_7
 L  PREC_10_7_8
 L  PREC_10_7_9
 L  PREC_10_16_0
 L  PREC_10_16_1
 L  PREC_10_16_2
 L  PREC_10_16_3
 L  PREC_10_16_4
 L  PREC_10_16_5
 L  PREC_10_16_6
 L  PREC_10_16_7
 L  PREC_10_16_8
 L  PREC_10_16_9
 L  PREC_10_36_0
 L  PREC_10_36_1
 L  PREC_10_36_2
 L  PREC_10_36_3
 L  PREC_10_36_4
 L  PREC_10_36_5
 L  PREC_10_36_6
 L  PREC_10_36_7
 L  PREC_10_36_8
 L  PREC_10_36_9
 L  PREC_11_12_0
 L  PREC_11_12_1
 L  PREC_11_12_2
 L  PREC_11_12_3
 L  PREC_11_12_4
 L  PREC_11_12_5
 L  PREC_11_12_6
 L  PREC_11_12_7
 L  PREC_11_12_8
 L  PREC_11_12_9
 L  PREC_13_14_1
 L  PREC_13_14_2
 L  PREC_13_14_3
 L  PREC_13_14_4
 L  PREC_13_14_5
 L  PREC_13_14_6
 L  PREC_13_14_7
 L  PREC_13_14_8
 L  PREC_13_14_9
 L  PREC_13_11_1
 L  PREC_13_11_2
 L  PREC_13_11_3
 L  PREC_13_11_4
 L  PREC_13_11_5
 L  PREC_13_11_6
 L  PREC_13_11_7
 L  PREC_13_11_8
 L  PREC_13_11_9
 L  PREC_13_41_1
 L  PREC_13_41_2
 L  PREC_13_41_3
 L  PREC_13_41_4
 L  PREC_13_41_5
 L  PREC_13_41_6
 L  PREC_13_41_7
 L  PREC_13_41_8
 L  PREC_13_41_9
 L  PREC_13_7_1
 L  PREC_13_7_2
 L  PREC_13_7_3
 L  PREC_13_7_4
 L  PREC_13_7_5
 L  PREC_13_7_6
 L  PREC_13_7_7
 L  PREC_13_7_8
 L  PREC_13_7_9
 L  PREC_13_36_1
 L  PREC_13_36_2
 L  PREC_13_36_3
 L  PREC_13_36_4
 L  PREC_13_36_5
 L  PREC_13_36_6
 L  PREC_13_36_7
 L  PREC_13_36_8
 L  PREC_13_36_9
 L  PREC_13_44_1
 L  PREC_13_44_2
 L  PREC_13_44_3
 L  PREC_13_44_4
 L  PREC_13_44_5
 L  PREC_13_44_6
 L  PREC_13_44_7
 L  PREC_13_44_8
 L  PREC_13_44_9
 L  PREC_13_69_1
 L  PREC_13_69_2
 L  PREC_13_69_3
 L  PREC_13_69_4
 L  PREC_13_69_5
 L  PREC_13_69_6
 L  PREC_13_69_7
 L  PREC_13_69_8
 L  PREC_13_69_9
 L  PREC_14_15_0
 L  PREC_14_15_1
 L  PREC_14_15_2
 L  PREC_14_15_3
 L  PREC_14_15_4
 L  PREC_14_15_5
 L  PREC_14_15_6
 L  PREC_14_15_7
 L  PREC_14_15_8
 L  PREC_14_15_9
 L  PREC_14_12_0
 L  PREC_14_12_1
 L  PREC_14_12_2
 L  PREC_14_12_3
 L  PREC_14_12_4
 L  PREC_14_12_5
 L  PREC_14_12_6
 L  PREC_14_12_7
 L  PREC_14_12_8
 L  PREC_14_12_9
 L  PREC_14_17_0
 L  PREC_14_17_1
 L  PREC_14_17_2
 L  PREC_14_17_3
 L  PREC_14_17_4
 L  PREC_14_17_5
 L  PREC_14_17_6
 L  PREC_14_17_7
 L  PREC_14_17_8
 L  PREC_14_17_9
 L  PREC_14_42_0
 L  PREC_14_42_1
 L  PREC_14_42_2
 L  PREC_14_42_3
 L  PREC_14_42_4
 L  PREC_14_42_5
 L  PREC_14_42_6
 L  PREC_14_42_7
 L  PREC_14_42_8
 L  PREC_14_42_9
 L  PREC_15_16_0
 L  PREC_15_16_1
 L  PREC_15_16_2
 L  PREC_15_16_3
 L  PREC_15_16_4
 L  PREC_15_16_5
 L  PREC_15_16_6
 L  PREC_15_16_7
 L  PREC_15_16_8
 L  PREC_15_16_9
 L  PREC_18_19_3
 L  PREC_18_19_4
 L  PREC_18_19_5
 L  PREC_18_19_6
 L  PREC_18_19_7
 L  PREC_18_19_8
 L  PREC_18_19_9
 L  PREC_18_0_3
 L  PREC_18_0_4
 L  PREC_18_0_5
 L  PREC_18_0_6
 L  PREC_18_0_7
 L  PREC_18_0_8
 L  PREC_18_0_9
 L  PREC_18_27_3
 L  PREC_18_27_4
 L  PREC_18_27_5
 L  PREC_18_27_6
 L  PREC_18_27_7
 L  PREC_18_27_8
 L  PREC_18_27_9
 L  PREC_18_47_3
 L  PREC_18_47_4
 L  PREC_18_47_5
 L  PREC_18_47_6
 L  PREC_18_47_7
 L  PREC_18_47_8
 L  PREC_18_47_9
 L  PREC_18_6_3
 L  PREC_18_6_4
 L  PREC_18_6_5
 L  PREC_18_6_6
 L  PREC_18_6_7
 L  PREC_18_6_8
 L  PREC_18_6_9
 L  PREC_18_35_3
 L  PREC_18_35_4
 L  PREC_18_35_5
 L  PREC_18_35_6
 L  PREC_18_35_7
 L  PREC_18_35_8
 L  PREC_18_35_9
 L  PREC_18_55_3
 L  PREC_18_55_4
 L  PREC_18_55_5
 L  PREC_18_55_6
 L  PREC_18_55_7
 L  PREC_18_55_8
 L  PREC_18_55_9
 L  PREC_18_73_3
 L  PREC_18_73_4
 L  PREC_18_73_5
 L  PREC_18_73_6
 L  PREC_18_73_7
 L  PREC_18_73_8
 L  PREC_18_73_9
 L  PREC_18_12_3
 L  PREC_18_12_4
 L  PREC_18_12_5
 L  PREC_18_12_6
 L  PREC_18_12_7
 L  PREC_18_12_8
 L  PREC_18_12_9
 L  PREC_18_63_3
 L  PREC_18_63_4
 L  PREC_18_63_5
 L  PREC_18_63_6
 L  PREC_18_63_7
 L  PREC_18_63_8
 L  PREC_18_63_9
 L  PREC_18_79_3
 L  PREC_18_79_4
 L  PREC_18_79_5
 L  PREC_18_79_6
 L  PREC_18_79_7
 L  PREC_18_79_8
 L  PREC_18_79_9
 L  PREC_19_20_1
 L  PREC_19_20_2
 L  PREC_19_20_3
 L  PREC_19_20_4
 L  PREC_19_20_5
 L  PREC_19_20_6
 L  PREC_19_20_7
 L  PREC_19_20_8
 L  PREC_19_20_9
 L  PREC_19_1_1
 L  PREC_19_1_2
 L  PREC_19_1_3
 L  PREC_19_1_4
 L  PREC_19_1_5
 L  PREC_19_1_6
 L  PREC_19_1_7
 L  PREC_19_1_8
 L  PREC_19_1_9
 L  PREC_19_28_1
 L  PREC_19_28_2
 L  PREC_19_28_3
 L  PREC_19_28_4
 L  PREC_19_28_5
 L  PREC_19_28_6
 L  PREC_19_28_7
 L  PREC_19_28_8
 L  PREC_19_28_9
 L  PREC_19_48_1
 L  PREC_19_48_2
 L  PREC_19_48_3
 L  PREC_19_48_4
 L  PREC_19_48_5
 L  PREC_19_48_6
 L  PREC_19_48_7
 L  PREC_19_48_8
 L  PREC_19_48_9
 L  PREC_19_7_1
 L  PREC_19_7_2
 L  PREC_19_7_3
 L  PREC_19_7_4
 L  PREC_19_7_5
 L  PREC_19_7_6
 L  PREC_19_7_7
 L  PREC_19_7_8
 L  PREC_19_7_9
 L  PREC_19_36_1
 L  PREC_19_36_2
 L  PREC_19_36_3
 L  PREC_19_36_4
 L  PREC_19_36_5
 L  PREC_19_36_6
 L  PREC_19_36_7
 L  PREC_19_36_8
 L  PREC_19_36_9
 L  PREC_19_56_1
 L  PREC_19_56_2
 L  PREC_19_56_3
 L  PREC_19_56_4
 L  PREC_19_56_5
 L  PREC_19_56_6
 L  PREC_19_56_7
 L  PREC_19_56_8
 L  PREC_19_56_9
 L  PREC_19_74_1
 L  PREC_19_74_2
 L  PREC_19_74_3
 L  PREC_19_74_4
 L  PREC_19_74_5
 L  PREC_19_74_6
 L  PREC_19_74_7
 L  PREC_19_74_8
 L  PREC_19_74_9
 L  PREC_20_21_0
 L  PREC_20_21_1
 L  PREC_20_21_2
 L  PREC_20_21_3
 L  PREC_20_21_4
 L  PREC_20_21_5
 L  PREC_20_21_6
 L  PREC_20_21_7
 L  PREC_20_21_8
 L  PREC_20_21_9
 L  PREC_20_2_0
 L  PREC_20_2_1
 L  PREC_20_2_2
 L  PREC_20_2_3
 L  PREC_20_2_4
 L  PREC_20_2_5
 L  PREC_20_2_6
 L  PREC_20_2_7
 L  PREC_20_2_8
 L  PREC_20_2_9
 L  PREC_20_29_0
 L  PREC_20_29_1
 L  PREC_20_29_2
 L  PREC_20_29_3
 L  PREC_20_29_4
 L  PREC_20_29_5
 L  PREC_20_29_6
 L  PREC_20_29_7
 L  PREC_20_29_8
 L  PREC_20_29_9
 L  PREC_20_49_0
 L  PREC_20_49_1
 L  PREC_20_49_2
 L  PREC_20_49_3
 L  PREC_20_49_4
 L  PREC_20_49_5
 L  PREC_20_49_6
 L  PREC_20_49_7
 L  PREC_20_49_8
 L  PREC_20_49_9
 L  PREC_21_22_0
 L  PREC_21_22_1
 L  PREC_21_22_2
 L  PREC_21_22_3
 L  PREC_21_22_4
 L  PREC_21_22_5
 L  PREC_21_22_6
 L  PREC_21_22_7
 L  PREC_21_22_8
 L  PREC_21_22_9
 L  PREC_23_24_8
 L  PREC_23_24_9
 L  PREC_23_3_8
 L  PREC_23_3_9
 L  PREC_23_18_8
 L  PREC_23_18_9
 L  PREC_23_32_8
 L  PREC_23_32_9
 L  PREC_23_52_8
 L  PREC_23_52_9
 L  PREC_23_9_8
 L  PREC_23_9_9
 L  PREC_23_39_8
 L  PREC_23_39_9
 L  PREC_23_46_8
 L  PREC_23_46_9
 L  PREC_23_60_8
 L  PREC_23_60_9
 L  PREC_23_76_8
 L  PREC_23_76_9
 L  PREC_23_14_8
 L  PREC_23_14_9
 L  PREC_23_67_8
 L  PREC_23_67_9
 L  PREC_23_72_8
 L  PREC_23_72_9
 L  PREC_23_82_8
 L  PREC_23_82_9
 L  PREC_23_70_8
 L  PREC_23_70_9
 L  PREC_23_87_8
 L  PREC_23_87_9
 L  PREC_23_89_8
 L  PREC_23_89_9
 L  PREC_24_25_7
 L  PREC_24_25_8
 L  PREC_24_25_9
 L  PREC_24_4_7
 L  PREC_24_4_8
 L  PREC_24_4_9
 L  PREC_24_19_7
 L  PREC_24_19_8
 L  PREC_24_19_9
 L  PREC_24_33_7
 L  PREC_24_33_8
 L  PREC_24_33_9
 L  PREC_24_53_7
 L  PREC_24_53_8
 L  PREC_24_53_9
 L  PREC_24_0_7
 L  PREC_24_0_8
 L  PREC_24_0_9
 L  PREC_24_10_7
 L  PREC_24_10_8
 L  PREC_24_10_9
 L  PREC_24_40_7
 L  PREC_24_40_8
 L  PREC_24_40_9
 L  PREC_24_47_7
 L  PREC_24_47_8
 L  PREC_24_47_9
 L  PREC_24_61_7
 L  PREC_24_61_8
 L  PREC_24_61_9
 L  PREC_24_77_7
 L  PREC_24_77_8
 L  PREC_24_77_9
 L  PREC_24_15_7
 L  PREC_24_15_8
 L  PREC_24_15_9
 L  PREC_24_68_7
 L  PREC_24_68_8
 L  PREC_24_68_9
 L  PREC_24_73_7
 L  PREC_24_73_8
 L  PREC_24_73_9
 L  PREC_24_83_7
 L  PREC_24_83_8
 L  PREC_24_83_9
 L  PREC_24_17_7
 L  PREC_24_17_8
 L  PREC_24_17_9
 L  PREC_24_71_7
 L  PREC_24_71_8
 L  PREC_24_71_9
 L  PREC_24_88_7
 L  PREC_24_88_8
 L  PREC_24_88_9
 L  PREC_25_26_5
 L  PREC_25_26_6
 L  PREC_25_26_7
 L  PREC_25_26_8
 L  PREC_25_26_9
 L  PREC_25_5_5
 L  PREC_25_5_6
 L  PREC_25_5_7
 L  PREC_25_5_8
 L  PREC_25_5_9
 L  PREC_25_20_5
 L  PREC_25_20_6
 L  PREC_25_20_7
 L  PREC_25_20_8
 L  PREC_25_20_9
 L  PREC_25_34_5
 L  PREC_25_34_6
 L  PREC_25_34_7
 L  PREC_25_34_8
 L  PREC_25_34_9
 L  PREC_25_54_5
 L  PREC_25_54_6
 L  PREC_25_54_7
 L  PREC_25_54_8
 L  PREC_25_54_9
 L  PREC_25_1_5
 L  PREC_25_1_6
 L  PREC_25_1_7
 L  PREC_25_1_8
 L  PREC_25_1_9
 L  PREC_25_11_5
 L  PREC_25_11_6
 L  PREC_25_11_7
 L  PREC_25_11_8
 L  PREC_25_11_9
 L  PREC_25_41_5
 L  PREC_25_41_6
 L  PREC_25_41_7
 L  PREC_25_41_8
 L  PREC_25_41_9
 L  PREC_25_48_5
 L  PREC_25_48_6
 L  PREC_25_48_7
 L  PREC_25_48_8
 L  PREC_25_48_9
 L  PREC_25_62_5
 L  PREC_25_62_6
 L  PREC_25_62_7
 L  PREC_25_62_8
 L  PREC_25_62_9
 L  PREC_25_78_5
 L  PREC_25_78_6
 L  PREC_25_78_7
 L  PREC_25_78_8
 L  PREC_25_78_9
 L  PREC_25_16_5
 L  PREC_25_16_6
 L  PREC_25_16_7
 L  PREC_25_16_8
 L  PREC_25_16_9
 L  PREC_25_69_5
 L  PREC_25_69_6
 L  PREC_25_69_7
 L  PREC_25_69_8
 L  PREC_25_69_9
 L  PREC_25_74_5
 L  PREC_25_74_6
 L  PREC_25_74_7
 L  PREC_25_74_8
 L  PREC_25_74_9
 L  PREC_25_84_5
 L  PREC_25_84_6
 L  PREC_25_84_7
 L  PREC_25_84_8
 L  PREC_25_84_9
 L  PREC_26_27_2
 L  PREC_26_27_3
 L  PREC_26_27_4
 L  PREC_26_27_5
 L  PREC_26_27_6
 L  PREC_26_27_7
 L  PREC_26_27_8
 L  PREC_26_27_9
 L  PREC_26_6_2
 L  PREC_26_6_3
 L  PREC_26_6_4
 L  PREC_26_6_5
 L  PREC_26_6_6
 L  PREC_26_6_7
 L  PREC_26_6_8
 L  PREC_26_6_9
 L  PREC_26_21_2
 L  PREC_26_21_3
 L  PREC_26_21_4
 L  PREC_26_21_5
 L  PREC_26_21_6
 L  PREC_26_21_7
 L  PREC_26_21_8
 L  PREC_26_21_9
 L  PREC_26_35_2
 L  PREC_26_35_3
 L  PREC_26_35_4
 L  PREC_26_35_5
 L  PREC_26_35_6
 L  PREC_26_35_7
 L  PREC_26_35_8
 L  PREC_26_35_9
 L  PREC_26_55_2
 L  PREC_26_55_3
 L  PREC_26_55_4
 L  PREC_26_55_5
 L  PREC_26_55_6
 L  PREC_26_55_7
 L  PREC_26_55_8
 L  PREC_26_55_9
 L  PREC_26_2_2
 L  PREC_26_2_3
 L  PREC_26_2_4
 L  PREC_26_2_5
 L  PREC_26_2_6
 L  PREC_26_2_7
 L  PREC_26_2_8
 L  PREC_26_2_9
 L  PREC_26_12_2
 L  PREC_26_12_3
 L  PREC_26_12_4
 L  PREC_26_12_5
 L  PREC_26_12_6
 L  PREC_26_12_7
 L  PREC_26_12_8
 L  PREC_26_12_9
 L  PREC_26_42_2
 L  PREC_26_42_3
 L  PREC_26_42_4
 L  PREC_26_42_5
 L  PREC_26_42_6
 L  PREC_26_42_7
 L  PREC_26_42_8
 L  PREC_26_42_9
 L  PREC_26_49_2
 L  PREC_26_49_3
 L  PREC_26_49_4
 L  PREC_26_49_5
 L  PREC_26_49_6
 L  PREC_26_49_7
 L  PREC_26_49_8
 L  PREC_26_49_9
 L  PREC_26_63_2
 L  PREC_26_63_3
 L  PREC_26_63_4
 L  PREC_26_63_5
 L  PREC_26_63_6
 L  PREC_26_63_7
 L  PREC_26_63_8
 L  PREC_26_63_9
 L  PREC_26_79_2
 L  PREC_26_79_3
 L  PREC_26_79_4
 L  PREC_26_79_5
 L  PREC_26_79_6
 L  PREC_26_79_7
 L  PREC_26_79_8
 L  PREC_26_79_9
 L  PREC_27_28_1
 L  PREC_27_28_2
 L  PREC_27_28_3
 L  PREC_27_28_4
 L  PREC_27_28_5
 L  PREC_27_28_6
 L  PREC_27_28_7
 L  PREC_27_28_8
 L  PREC_27_28_9
 L  PREC_27_7_1
 L  PREC_27_7_2
 L  PREC_27_7_3
 L  PREC_27_7_4
 L  PREC_27_7_5
 L  PREC_27_7_6
 L  PREC_27_7_7
 L  PREC_27_7_8
 L  PREC_27_7_9
 L  PREC_27_22_1
 L  PREC_27_22_2
 L  PREC_27_22_3
 L  PREC_27_22_4
 L  PREC_27_22_5
 L  PREC_27_22_6
 L  PREC_27_22_7
 L  PREC_27_22_8
 L  PREC_27_22_9
 L  PREC_27_36_1
 L  PREC_27_36_2
 L  PREC_27_36_3
 L  PREC_27_36_4
 L  PREC_27_36_5
 L  PREC_27_36_6
 L  PREC_27_36_7
 L  PREC_27_36_8
 L  PREC_27_36_9
 L  PREC_27_56_1
 L  PREC_27_56_2
 L  PREC_27_56_3
 L  PREC_27_56_4
 L  PREC_27_56_5
 L  PREC_27_56_6
 L  PREC_27_56_7
 L  PREC_27_56_8
 L  PREC_27_56_9
 L  PREC_28_29_0
 L  PREC_28_29_1
 L  PREC_28_29_2
 L  PREC_28_29_3
 L  PREC_28_29_4
 L  PREC_28_29_5
 L  PREC_28_29_6
 L  PREC_28_29_7
 L  PREC_28_29_8
 L  PREC_28_29_9
 L  PREC_30_31_8
 L  PREC_30_31_9
 L  PREC_30_8_8
 L  PREC_30_8_9
 L  PREC_30_25_8
 L  PREC_30_25_9
 L  PREC_30_38_8
 L  PREC_30_38_9
 L  PREC_30_59_8
 L  PREC_30_59_9
 L  PREC_30_4_8
 L  PREC_30_4_9
 L  PREC_30_13_8
 L  PREC_30_13_9
 L  PREC_30_19_8
 L  PREC_30_19_9
 L  PREC_30_53_8
 L  PREC_30_53_9
 L  PREC_30_66_8
 L  PREC_30_66_9
 L  PREC_30_81_8
 L  PREC_30_81_9
 L  PREC_30_0_8
 L  PREC_30_0_9
 L  PREC_30_47_8
 L  PREC_30_47_9
 L  PREC_30_77_8
 L  PREC_30_77_9
 L  PREC_30_86_8
 L  PREC_30_86_9
 L  PREC_30_73_8
 L  PREC_30_73_9
 L  PREC_31_32_7
 L  PREC_31_32_8
 L  PREC_31_32_9
 L  PREC_31_9_7
 L  PREC_31_9_8
 L  PREC_31_9_9
 L  PREC_31_26_7
 L  PREC_31_26_8
 L  PREC_31_26_9
 L  PREC_31_39_7
 L  PREC_31_39_8
 L  PREC_31_39_9
 L  PREC_31_60_7
 L  PREC_31_60_8
 L  PREC_31_60_9
 L  PREC_31_5_7
 L  PREC_31_5_8
 L  PREC_31_5_9
 L  PREC_31_14_7
 L  PREC_31_14_8
 L  PREC_31_14_9
 L  PREC_31_20_7
 L  PREC_31_20_8
 L  PREC_31_20_9
 L  PREC_31_54_7
 L  PREC_31_54_8
 L  PREC_31_54_9
 L  PREC_31_67_7
 L  PREC_31_67_8
 L  PREC_31_67_9
 L  PREC_31_82_7
 L  PREC_31_82_8
 L  PREC_31_82_9
 L  PREC_31_1_7
 L  PREC_31_1_8
 L  PREC_31_1_9
 L  PREC_31_48_7
 L  PREC_31_48_8
 L  PREC_31_48_9
 L  PREC_31_70_7
 L  PREC_31_70_8
 L  PREC_31_70_9
 L  PREC_31_78_7
 L  PREC_31_78_8
 L  PREC_31_78_9
 L  PREC_31_87_7
 L  PREC_31_87_8
 L  PREC_31_87_9
 L  PREC_31_74_7
 L  PREC_31_74_8
 L  PREC_31_74_9
 L  PREC_31_89_7
 L  PREC_31_89_8
 L  PREC_31_89_9
 L  PREC_32_33_5
 L  PREC_32_33_6
 L  PREC_32_33_7
 L  PREC_32_33_8
 L  PREC_32_33_9
 L  PREC_32_10_5
 L  PREC_32_10_6
 L  PREC_32_10_7
 L  PREC_32_10_8
 L  PREC_32_10_9
 L  PREC_32_27_5
 L  PREC_32_27_6
 L  PREC_32_27_7
 L  PREC_32_27_8
 L  PREC_32_27_9
 L  PREC_32_40_5
 L  PREC_32_40_6
 L  PREC_32_40_7
 L  PREC_32_40_8
 L  PREC_32_40_9
 L  PREC_32_61_5
 L  PREC_32_61_6
 L  PREC_32_61_7
 L  PREC_32_61_8
 L  PREC_32_61_9
 L  PREC_32_6_5
 L  PREC_32_6_6
 L  PREC_32_6_7
 L  PREC_32_6_8
 L  PREC_32_6_9
 L  PREC_32_15_5
 L  PREC_32_15_6
 L  PREC_32_15_7
 L  PREC_32_15_8
 L  PREC_32_15_9
 L  PREC_32_21_5
 L  PREC_32_21_6
 L  PREC_32_21_7
 L  PREC_32_21_8
 L  PREC_32_21_9
 L  PREC_32_43_5
 L  PREC_32_43_6
 L  PREC_32_43_7
 L  PREC_32_43_8
 L  PREC_32_43_9
 L  PREC_32_55_5
 L  PREC_32_55_6
 L  PREC_32_55_7
 L  PREC_32_55_8
 L  PREC_32_55_9
 L  PREC_32_68_5
 L  PREC_32_68_6
 L  PREC_32_68_7
 L  PREC_32_68_8
 L  PREC_32_68_9
 L  PREC_32_83_5
 L  PREC_32_83_6
 L  PREC_32_83_7
 L  PREC_32_83_8
 L  PREC_32_83_9
 L  PREC_32_2_5
 L  PREC_32_2_6
 L  PREC_32_2_7
 L  PREC_32_2_8
 L  PREC_32_2_9
 L  PREC_32_17_5
 L  PREC_32_17_6
 L  PREC_32_17_7
 L  PREC_32_17_8
 L  PREC_32_17_9
 L  PREC_32_49_5
 L  PREC_32_49_6
 L  PREC_32_49_7
 L  PREC_32_49_8
 L  PREC_32_49_9
 L  PREC_32_71_5
 L  PREC_32_71_6
 L  PREC_32_71_7
 L  PREC_32_71_8
 L  PREC_32_71_9
 L  PREC_32_79_5
 L  PREC_32_79_6
 L  PREC_32_79_7
 L  PREC_32_79_8
 L  PREC_32_79_9
 L  PREC_32_88_5
 L  PREC_32_88_6
 L  PREC_32_88_7
 L  PREC_32_88_8
 L  PREC_32_88_9
 L  PREC_33_34_3
 L  PREC_33_34_4
 L  PREC_33_34_5
 L  PREC_33_34_6
 L  PREC_33_34_7
 L  PREC_33_34_8
 L  PREC_33_34_9
 L  PREC_33_11_3
 L  PREC_33_11_4
 L  PREC_33_11_5
 L  PREC_33_11_6
 L  PREC_33_11_7
 L  PREC_33_11_8
 L  PREC_33_11_9
 L  PREC_33_28_3
 L  PREC_33_28_4
 L  PREC_33_28_5
 L  PREC_33_28_6
 L  PREC_33_28_7
 L  PREC_33_28_8
 L  PREC_33_28_9
 L  PREC_33_41_3
 L  PREC_33_41_4
 L  PREC_33_41_5
 L  PREC_33_41_6
 L  PREC_33_41_7
 L  PREC_33_41_8
 L  PREC_33_41_9
 L  PREC_33_62_3
 L  PREC_33_62_4
 L  PREC_33_62_5
 L  PREC_33_62_6
 L  PREC_33_62_7
 L  PREC_33_62_8
 L  PREC_33_62_9
 L  PREC_33_7_3
 L  PREC_33_7_4
 L  PREC_33_7_5
 L  PREC_33_7_6
 L  PREC_33_7_7
 L  PREC_33_7_8
 L  PREC_33_7_9
 L  PREC_33_16_3
 L  PREC_33_16_4
 L  PREC_33_16_5
 L  PREC_33_16_6
 L  PREC_33_16_7
 L  PREC_33_16_8
 L  PREC_33_16_9
 L  PREC_33_22_3
 L  PREC_33_22_4
 L  PREC_33_22_5
 L  PREC_33_22_6
 L  PREC_33_22_7
 L  PREC_33_22_8
 L  PREC_33_22_9
 L  PREC_33_44_3
 L  PREC_33_44_4
 L  PREC_33_44_5
 L  PREC_33_44_6
 L  PREC_33_44_7
 L  PREC_33_44_8
 L  PREC_33_44_9
 L  PREC_33_56_3
 L  PREC_33_56_4
 L  PREC_33_56_5
 L  PREC_33_56_6
 L  PREC_33_56_7
 L  PREC_33_56_8
 L  PREC_33_56_9
 L  PREC_33_69_3
 L  PREC_33_69_4
 L  PREC_33_69_5
 L  PREC_33_69_6
 L  PREC_33_69_7
 L  PREC_33_69_8
 L  PREC_33_69_9
 L  PREC_33_84_3
 L  PREC_33_84_4
 L  PREC_33_84_5
 L  PREC_33_84_6
 L  PREC_33_84_7
 L  PREC_33_84_8
 L  PREC_33_84_9
 L  PREC_34_35_1
 L  PREC_34_35_2
 L  PREC_34_35_3
 L  PREC_34_35_4
 L  PREC_34_35_5
 L  PREC_34_35_6
 L  PREC_34_35_7
 L  PREC_34_35_8
 L  PREC_34_35_9
 L  PREC_34_12_1
 L  PREC_34_12_2
 L  PREC_34_12_3
 L  PREC_34_12_4
 L  PREC_34_12_5
 L  PREC_34_12_6
 L  PREC_34_12_7
 L  PREC_34_12_8
 L  PREC_34_12_9
 L  PREC_34_29_1
 L  PREC_34_29_2
 L  PREC_34_29_3
 L  PREC_34_29_4
 L  PREC_34_29_5
 L  PREC_34_29_6
 L  PREC_34_29_7
 L  PREC_34_29_8
 L  PREC_34_29_9
 L  PREC_34_42_1
 L  PREC_34_42_2
 L  PREC_34_42_3
 L  PREC_34_42_4
 L  PREC_34_42_5
 L  PREC_34_42_6
 L  PREC_34_42_7
 L  PREC_34_42_8
 L  PREC_34_42_9
 L  PREC_34_63_1
 L  PREC_34_63_2
 L  PREC_34_63_3
 L  PREC_34_63_4
 L  PREC_34_63_5
 L  PREC_34_63_6
 L  PREC_34_63_7
 L  PREC_34_63_8
 L  PREC_34_63_9
 L  PREC_35_36_0
 L  PREC_35_36_1
 L  PREC_35_36_2
 L  PREC_35_36_3
 L  PREC_35_36_4
 L  PREC_35_36_5
 L  PREC_35_36_6
 L  PREC_35_36_7
 L  PREC_35_36_8
 L  PREC_35_36_9
 L  PREC_37_38_5
 L  PREC_37_38_6
 L  PREC_37_38_7
 L  PREC_37_38_8
 L  PREC_37_38_9
 L  PREC_37_13_5
 L  PREC_37_13_6
 L  PREC_37_13_7
 L  PREC_37_13_8
 L  PREC_37_13_9
 L  PREC_37_33_5
 L  PREC_37_33_6
 L  PREC_37_33_7
 L  PREC_37_33_8
 L  PREC_37_33_9
 L  PREC_37_66_5
 L  PREC_37_66_6
 L  PREC_37_66_7
 L  PREC_37_66_8
 L  PREC_37_66_9
 L  PREC_37_10_5
 L  PREC_37_10_6
 L  PREC_37_10_7
 L  PREC_37_10_8
 L  PREC_37_10_9
 L  PREC_37_27_5
 L  PREC_37_27_6
 L  PREC_37_27_7
 L  PREC_37_27_8
 L  PREC_37_27_9
 L  PREC_37_61_5
 L  PREC_37_61_6
 L  PREC_37_61_7
 L  PREC_37_61_8
 L  PREC_37_61_9
 L  PREC_37_86_5
 L  PREC_37_86_6
 L  PREC_37_86_7
 L  PREC_37_86_8
 L  PREC_37_86_9
 L  PREC_37_6_5
 L  PREC_37_6_6
 L  PREC_37_6_7
 L  PREC_37_6_8
 L  PREC_37_6_9
 L  PREC_37_55_5
 L  PREC_37_55_6
 L  PREC_37_55_7
 L  PREC_37_55_8
 L  PREC_37_55_9
 L  PREC_37_83_5
 L  PREC_37_83_6
 L  PREC_37_83_7
 L  PREC_37_83_8
 L  PREC_37_83_9
 L  PREC_37_2_5
 L  PREC_37_2_6
 L  PREC_37_2_7
 L  PREC_37_2_8
 L  PREC_37_2_9
 L  PREC_37_49_5
 L  PREC_37_49_6
 L  PREC_37_49_7
 L  PREC_37_49_8
 L  PREC_37_49_9
 L  PREC_37_79_5
 L  PREC_37_79_6
 L  PREC_37_79_7
 L  PREC_37_79_8
 L  PREC_37_79_9
 L  PREC_38_39_3
 L  PREC_38_39_4
 L  PREC_38_39_5
 L  PREC_38_39_6
 L  PREC_38_39_7
 L  PREC_38_39_8
 L  PREC_38_39_9
 L  PREC_38_14_3
 L  PREC_38_14_4
 L  PREC_38_14_5
 L  PREC_38_14_6
 L  PREC_38_14_7
 L  PREC_38_14_8
 L  PREC_38_14_9
 L  PREC_38_34_3
 L  PREC_38_34_4
 L  PREC_38_34_5
 L  PREC_38_34_6
 L  PREC_38_34_7
 L  PREC_38_34_8
 L  PREC_38_34_9
 L  PREC_38_67_3
 L  PREC_38_67_4
 L  PREC_38_67_5
 L  PREC_38_67_6
 L  PREC_38_67_7
 L  PREC_38_67_8
 L  PREC_38_67_9
 L  PREC_38_11_3
 L  PREC_38_11_4
 L  PREC_38_11_5
 L  PREC_38_11_6
 L  PREC_38_11_7
 L  PREC_38_11_8
 L  PREC_38_11_9
 L  PREC_38_28_3
 L  PREC_38_28_4
 L  PREC_38_28_5
 L  PREC_38_28_6
 L  PREC_38_28_7
 L  PREC_38_28_8
 L  PREC_38_28_9
 L  PREC_38_62_3
 L  PREC_38_62_4
 L  PREC_38_62_5
 L  PREC_38_62_6
 L  PREC_38_62_7
 L  PREC_38_62_8
 L  PREC_38_62_9
 L  PREC_38_70_3
 L  PREC_38_70_4
 L  PREC_38_70_5
 L  PREC_38_70_6
 L  PREC_38_70_7
 L  PREC_38_70_8
 L  PREC_38_70_9
 L  PREC_38_87_3
 L  PREC_38_87_4
 L  PREC_38_87_5
 L  PREC_38_87_6
 L  PREC_38_87_7
 L  PREC_38_87_8
 L  PREC_38_87_9
 L  PREC_38_7_3
 L  PREC_38_7_4
 L  PREC_38_7_5
 L  PREC_38_7_6
 L  PREC_38_7_7
 L  PREC_38_7_8
 L  PREC_38_7_9
 L  PREC_38_56_3
 L  PREC_38_56_4
 L  PREC_38_56_5
 L  PREC_38_56_6
 L  PREC_38_56_7
 L  PREC_38_56_8
 L  PREC_38_56_9
 L  PREC_38_84_3
 L  PREC_38_84_4
 L  PREC_38_84_5
 L  PREC_38_84_6
 L  PREC_38_84_7
 L  PREC_38_84_8
 L  PREC_38_84_9
 L  PREC_38_89_3
 L  PREC_38_89_4
 L  PREC_38_89_5
 L  PREC_38_89_6
 L  PREC_38_89_7
 L  PREC_38_89_8
 L  PREC_38_89_9
 L  PREC_39_40_2
 L  PREC_39_40_3
 L  PREC_39_40_4
 L  PREC_39_40_5
 L  PREC_39_40_6
 L  PREC_39_40_7
 L  PREC_39_40_8
 L  PREC_39_40_9
 L  PREC_39_15_2
 L  PREC_39_15_3
 L  PREC_39_15_4
 L  PREC_39_15_5
 L  PREC_39_15_6
 L  PREC_39_15_7
 L  PREC_39_15_8
 L  PREC_39_15_9
 L  PREC_39_35_2
 L  PREC_39_35_3
 L  PREC_39_35_4
 L  PREC_39_35_5
 L  PREC_39_35_6
 L  PREC_39_35_7
 L  PREC_39_35_8
 L  PREC_39_35_9
 L  PREC_39_43_2
 L  PREC_39_43_3
 L  PREC_39_43_4
 L  PREC_39_43_5
 L  PREC_39_43_6
 L  PREC_39_43_7
 L  PREC_39_43_8
 L  PREC_39_43_9
 L  PREC_39_68_2
 L  PREC_39_68_3
 L  PREC_39_68_4
 L  PREC_39_68_5
 L  PREC_39_68_6
 L  PREC_39_68_7
 L  PREC_39_68_8
 L  PREC_39_68_9
 L  PREC_39_12_2
 L  PREC_39_12_3
 L  PREC_39_12_4
 L  PREC_39_12_5
 L  PREC_39_12_6
 L  PREC_39_12_7
 L  PREC_39_12_8
 L  PREC_39_12_9
 L  PREC_39_17_2
 L  PREC_39_17_3
 L  PREC_39_17_4
 L  PREC_39_17_5
 L  PREC_39_17_6
 L  PREC_39_17_7
 L  PREC_39_17_8
 L  PREC_39_17_9
 L  PREC_39_29_2
 L  PREC_39_29_3
 L  PREC_39_29_4
 L  PREC_39_29_5
 L  PREC_39_29_6
 L  PREC_39_29_7
 L  PREC_39_29_8
 L  PREC_39_29_9
 L  PREC_39_63_2
 L  PREC_39_63_3
 L  PREC_39_63_4
 L  PREC_39_63_5
 L  PREC_39_63_6
 L  PREC_39_63_7
 L  PREC_39_63_8
 L  PREC_39_63_9
 L  PREC_39_71_2
 L  PREC_39_71_3
 L  PREC_39_71_4
 L  PREC_39_71_5
 L  PREC_39_71_6
 L  PREC_39_71_7
 L  PREC_39_71_8
 L  PREC_39_71_9
 L  PREC_39_88_2
 L  PREC_39_88_3
 L  PREC_39_88_4
 L  PREC_39_88_5
 L  PREC_39_88_6
 L  PREC_39_88_7
 L  PREC_39_88_8
 L  PREC_39_88_9
 L  PREC_40_41_1
 L  PREC_40_41_2
 L  PREC_40_41_3
 L  PREC_40_41_4
 L  PREC_40_41_5
 L  PREC_40_41_6
 L  PREC_40_41_7
 L  PREC_40_41_8
 L  PREC_40_41_9
 L  PREC_40_16_1
 L  PREC_40_16_2
 L  PREC_40_16_3
 L  PREC_40_16_4
 L  PREC_40_16_5
 L  PREC_40_16_6
 L  PREC_40_16_7
 L  PREC_40_16_8
 L  PREC_40_16_9
 L  PREC_40_36_1
 L  PREC_40_36_2
 L  PREC_40_36_3
 L  PREC_40_36_4
 L  PREC_40_36_5
 L  PREC_40_36_6
 L  PREC_40_36_7
 L  PREC_40_36_8
 L  PREC_40_36_9
 L  PREC_40_44_1
 L  PREC_40_44_2
 L  PREC_40_44_3
 L  PREC_40_44_4
 L  PREC_40_44_5
 L  PREC_40_44_6
 L  PREC_40_44_7
 L  PREC_40_44_8
 L  PREC_40_44_9
 L  PREC_40_69_1
 L  PREC_40_69_2
 L  PREC_40_69_3
 L  PREC_40_69_4
 L  PREC_40_69_5
 L  PREC_40_69_6
 L  PREC_40_69_7
 L  PREC_40_69_8
 L  PREC_40_69_9
 L  PREC_41_42_0
 L  PREC_41_42_1
 L  PREC_41_42_2
 L  PREC_41_42_3
 L  PREC_41_42_4
 L  PREC_41_42_5
 L  PREC_41_42_6
 L  PREC_41_42_7
 L  PREC_41_42_8
 L  PREC_41_42_9
 L  PREC_43_44_0
 L  PREC_43_44_1
 L  PREC_43_44_2
 L  PREC_43_44_3
 L  PREC_43_44_4
 L  PREC_43_44_5
 L  PREC_43_44_6
 L  PREC_43_44_7
 L  PREC_43_44_8
 L  PREC_43_44_9
 L  PREC_45_46_3
 L  PREC_45_46_4
 L  PREC_45_46_5
 L  PREC_45_46_6
 L  PREC_45_46_7
 L  PREC_45_46_8
 L  PREC_45_46_9
 L  PREC_45_20_3
 L  PREC_45_20_4
 L  PREC_45_20_5
 L  PREC_45_20_6
 L  PREC_45_20_7
 L  PREC_45_20_8
 L  PREC_45_20_9
 L  PREC_45_54_3
 L  PREC_45_54_4
 L  PREC_45_54_5
 L  PREC_45_54_6
 L  PREC_45_54_7
 L  PREC_45_54_8
 L  PREC_45_54_9
 L  PREC_45_72_3
 L  PREC_45_72_4
 L  PREC_45_72_5
 L  PREC_45_72_6
 L  PREC_45_72_7
 L  PREC_45_72_8
 L  PREC_45_72_9
 L  PREC_45_1_3
 L  PREC_45_1_4
 L  PREC_45_1_5
 L  PREC_45_1_6
 L  PREC_45_1_7
 L  PREC_45_1_8
 L  PREC_45_1_9
 L  PREC_45_28_3
 L  PREC_45_28_4
 L  PREC_45_28_5
 L  PREC_45_28_6
 L  PREC_45_28_7
 L  PREC_45_28_8
 L  PREC_45_28_9
 L  PREC_45_62_3
 L  PREC_45_62_4
 L  PREC_45_62_5
 L  PREC_45_62_6
 L  PREC_45_62_7
 L  PREC_45_62_8
 L  PREC_45_62_9
 L  PREC_45_78_3
 L  PREC_45_78_4
 L  PREC_45_78_5
 L  PREC_45_78_6
 L  PREC_45_78_7
 L  PREC_45_78_8
 L  PREC_45_78_9
 L  PREC_45_7_3
 L  PREC_45_7_4
 L  PREC_45_7_5
 L  PREC_45_7_6
 L  PREC_45_7_7
 L  PREC_45_7_8
 L  PREC_45_7_9
 L  PREC_45_36_3
 L  PREC_45_36_4
 L  PREC_45_36_5
 L  PREC_45_36_6
 L  PREC_45_36_7
 L  PREC_45_36_8
 L  PREC_45_36_9
 L  PREC_45_84_3
 L  PREC_45_84_4
 L  PREC_45_84_5
 L  PREC_45_84_6
 L  PREC_45_84_7
 L  PREC_45_84_8
 L  PREC_45_84_9
 L  PREC_46_47_1
 L  PREC_46_47_2
 L  PREC_46_47_3
 L  PREC_46_47_4
 L  PREC_46_47_5
 L  PREC_46_47_6
 L  PREC_46_47_7
 L  PREC_46_47_8
 L  PREC_46_47_9
 L  PREC_46_21_1
 L  PREC_46_21_2
 L  PREC_46_21_3
 L  PREC_46_21_4
 L  PREC_46_21_5
 L  PREC_46_21_6
 L  PREC_46_21_7
 L  PREC_46_21_8
 L  PREC_46_21_9
 L  PREC_46_55_1
 L  PREC_46_55_2
 L  PREC_46_55_3
 L  PREC_46_55_4
 L  PREC_46_55_5
 L  PREC_46_55_6
 L  PREC_46_55_7
 L  PREC_46_55_8
 L  PREC_46_55_9
 L  PREC_46_73_1
 L  PREC_46_73_2
 L  PREC_46_73_3
 L  PREC_46_73_4
 L  PREC_46_73_5
 L  PREC_46_73_6
 L  PREC_46_73_7
 L  PREC_46_73_8
 L  PREC_46_73_9
 L  PREC_46_2_1
 L  PREC_46_2_2
 L  PREC_46_2_3
 L  PREC_46_2_4
 L  PREC_46_2_5
 L  PREC_46_2_6
 L  PREC_46_2_7
 L  PREC_46_2_8
 L  PREC_46_2_9
 L  PREC_46_29_1
 L  PREC_46_29_2
 L  PREC_46_29_3
 L  PREC_46_29_4
 L  PREC_46_29_5
 L  PREC_46_29_6
 L  PREC_46_29_7
 L  PREC_46_29_8
 L  PREC_46_29_9
 L  PREC_46_63_1
 L  PREC_46_63_2
 L  PREC_46_63_3
 L  PREC_46_63_4
 L  PREC_46_63_5
 L  PREC_46_63_6
 L  PREC_46_63_7
 L  PREC_46_63_8
 L  PREC_46_63_9
 L  PREC_46_79_1
 L  PREC_46_79_2
 L  PREC_46_79_3
 L  PREC_46_79_4
 L  PREC_46_79_5
 L  PREC_46_79_6
 L  PREC_46_79_7
 L  PREC_46_79_8
 L  PREC_46_79_9
 L  PREC_47_48_0
 L  PREC_47_48_1
 L  PREC_47_48_2
 L  PREC_47_48_3
 L  PREC_47_48_4
 L  PREC_47_48_5
 L  PREC_47_48_6
 L  PREC_47_48_7
 L  PREC_47_48_8
 L  PREC_47_48_9
 L  PREC_47_22_0
 L  PREC_47_22_1
 L  PREC_47_22_2
 L  PREC_47_22_3
 L  PREC_47_22_4
 L  PREC_47_22_5
 L  PREC_47_22_6
 L  PREC_47_22_7
 L  PREC_47_22_8
 L  PREC_47_22_9
 L  PREC_47_56_0
 L  PREC_47_56_1
 L  PREC_47_56_2
 L  PREC_47_56_3
 L  PREC_47_56_4
 L  PREC_47_56_5
 L  PREC_47_56_6
 L  PREC_47_56_7
 L  PREC_47_56_8
 L  PREC_47_56_9
 L  PREC_47_74_0
 L  PREC_47_74_1
 L  PREC_47_74_2
 L  PREC_47_74_3
 L  PREC_47_74_4
 L  PREC_47_74_5
 L  PREC_47_74_6
 L  PREC_47_74_7
 L  PREC_47_74_8
 L  PREC_47_74_9
 L  PREC_48_49_0
 L  PREC_48_49_1
 L  PREC_48_49_2
 L  PREC_48_49_3
 L  PREC_48_49_4
 L  PREC_48_49_5
 L  PREC_48_49_6
 L  PREC_48_49_7
 L  PREC_48_49_8
 L  PREC_48_49_9
 L  PREC_50_51_8
 L  PREC_50_51_9
 L  PREC_50_25_8
 L  PREC_50_25_9
 L  PREC_50_45_8
 L  PREC_50_45_9
 L  PREC_50_59_8
 L  PREC_50_59_9
 L  PREC_50_75_8
 L  PREC_50_75_9
 L  PREC_50_4_8
 L  PREC_50_4_9
 L  PREC_50_19_8
 L  PREC_50_19_9
 L  PREC_50_33_8
 L  PREC_50_33_9
 L  PREC_50_66_8
 L  PREC_50_66_9
 L  PREC_50_81_8
 L  PREC_50_81_9
 L  PREC_50_0_8
 L  PREC_50_0_9
 L  PREC_50_10_8
 L  PREC_50_10_9
 L  PREC_50_40_8
 L  PREC_50_40_9
 L  PREC_50_86_8
 L  PREC_50_86_9
 L  PREC_50_15_8
 L  PREC_50_15_9
 L  PREC_50_43_8
 L  PREC_50_43_9
 L  PREC_50_17_8
 L  PREC_50_17_9
 L  PREC_51_52_7
 L  PREC_51_52_8
 L  PREC_51_52_9
 L  PREC_51_26_7
 L  PREC_51_26_8
 L  PREC_51_26_9
 L  PREC_51_46_7
 L  PREC_51_46_8
 L  PREC_51_46_9
 L  PREC_51_60_7
 L  PREC_51_60_8
 L  PREC_51_60_9
 L  PREC_51_76_7
 L  PREC_51_76_8
 L  PREC_51_76_9
 L  PREC_51_5_7
 L  PREC_51_5_8
 L  PREC_51_5_9
 L  PREC_51_20_7
 L  PREC_51_20_8
 L  PREC_51_20_9
 L  PREC_51_34_7
 L  PREC_51_34_8
 L  PREC_51_34_9
 L  PREC_51_67_7
 L  PREC_51_67_8
 L  PREC_51_67_9
 L  PREC_51_72_7
 L  PREC_51_72_8
 L  PREC_51_72_9
 L  PREC_51_82_7
 L  PREC_51_82_8
 L  PREC_51_82_9
 L  PREC_51_1_7
 L  PREC_51_1_8
 L  PREC_51_1_9
 L  PREC_51_11_7
 L  PREC_51_11_8
 L  PREC_51_11_9
 L  PREC_51_41_7
 L  PREC_51_41_8
 L  PREC_51_41_9
 L  PREC_51_87_7
 L  PREC_51_87_8
 L  PREC_51_87_9
 L  PREC_51_16_7
 L  PREC_51_16_8
 L  PREC_51_16_9
 L  PREC_51_44_7
 L  PREC_51_44_8
 L  PREC_51_44_9
 L  PREC_51_89_7
 L  PREC_51_89_8
 L  PREC_51_89_9
 L  PREC_52_53_5
 L  PREC_52_53_6
 L  PREC_52_53_7
 L  PREC_52_53_8
 L  PREC_52_53_9
 L  PREC_52_27_5
 L  PREC_52_27_6
 L  PREC_52_27_7
 L  PREC_52_27_8
 L  PREC_52_27_9
 L  PREC_52_47_5
 L  PREC_52_47_6
 L  PREC_52_47_7
 L  PREC_52_47_8
 L  PREC_52_47_9
 L  PREC_52_61_5
 L  PREC_52_61_6
 L  PREC_52_61_7
 L  PREC_52_61_8
 L  PREC_52_61_9
 L  PREC_52_77_5
 L  PREC_52_77_6
 L  PREC_52_77_7
 L  PREC_52_77_8
 L  PREC_52_77_9
 L  PREC_52_6_5
 L  PREC_52_6_6
 L  PREC_52_6_7
 L  PREC_52_6_8
 L  PREC_52_6_9
 L  PREC_52_21_5
 L  PREC_52_21_6
 L  PREC_52_21_7
 L  PREC_52_21_8
 L  PREC_52_21_9
 L  PREC_52_35_5
 L  PREC_52_35_6
 L  PREC_52_35_7
 L  PREC_52_35_8
 L  PREC_52_35_9
 L  PREC_52_68_5
 L  PREC_52_68_6
 L  PREC_52_68_7
 L  PREC_52_68_8
 L  PREC_52_68_9
 L  PREC_52_73_5
 L  PREC_52_73_6
 L  PREC_52_73_7
 L  PREC_52_73_8
 L  PREC_52_73_9
 L  PREC_52_83_5
 L  PREC_52_83_6
 L  PREC_52_83_7
 L  PREC_52_83_8
 L  PREC_52_83_9
 L  PREC_52_2_5
 L  PREC_52_2_6
 L  PREC_52_2_7
 L  PREC_52_2_8
 L  PREC_52_2_9
 L  PREC_52_12_5
 L  PREC_52_12_6
 L  PREC_52_12_7
 L  PREC_52_12_8
 L  PREC_52_12_9
 L  PREC_52_42_5
 L  PREC_52_42_6
 L  PREC_52_42_7
 L  PREC_52_42_8
 L  PREC_52_42_9
 L  PREC_52_88_5
 L  PREC_52_88_6
 L  PREC_52_88_7
 L  PREC_52_88_8
 L  PREC_52_88_9
 L  PREC_53_54_2
 L  PREC_53_54_3
 L  PREC_53_54_4
 L  PREC_53_54_5
 L  PREC_53_54_6
 L  PREC_53_54_7
 L  PREC_53_54_8
 L  PREC_53_54_9
 L  PREC_53_28_2
 L  PREC_53_28_3
 L  PREC_53_28_4
 L  PREC_53_28_5
 L  PREC_53_28_6
 L  PREC_53_28_7
 L  PREC_53_28_8
 L  PREC_53_28_9
 L  PREC_53_48_2
 L  PREC_53_48_3
 L  PREC_53_48_4
 L  PREC_53_48_5
 L  PREC_53_48_6
 L  PREC_53_48_7
 L  PREC_53_48_8
 L  PREC_53_48_9
 L  PREC_53_62_2
 L  PREC_53_62_3
 L  PREC_53_62_4
 L  PREC_53_62_5
 L  PREC_53_62_6
 L  PREC_53_62_7
 L  PREC_53_62_8
 L  PREC_53_62_9
 L  PREC_53_78_2
 L  PREC_53_78_3
 L  PREC_53_78_4
 L  PREC_53_78_5
 L  PREC_53_78_6
 L  PREC_53_78_7
 L  PREC_53_78_8
 L  PREC_53_78_9
 L  PREC_53_7_2
 L  PREC_53_7_3
 L  PREC_53_7_4
 L  PREC_53_7_5
 L  PREC_53_7_6
 L  PREC_53_7_7
 L  PREC_53_7_8
 L  PREC_53_7_9
 L  PREC_53_22_2
 L  PREC_53_22_3
 L  PREC_53_22_4
 L  PREC_53_22_5
 L  PREC_53_22_6
 L  PREC_53_22_7
 L  PREC_53_22_8
 L  PREC_53_22_9
 L  PREC_53_36_2
 L  PREC_53_36_3
 L  PREC_53_36_4
 L  PREC_53_36_5
 L  PREC_53_36_6
 L  PREC_53_36_7
 L  PREC_53_36_8
 L  PREC_53_36_9
 L  PREC_53_69_2
 L  PREC_53_69_3
 L  PREC_53_69_4
 L  PREC_53_69_5
 L  PREC_53_69_6
 L  PREC_53_69_7
 L  PREC_53_69_8
 L  PREC_53_69_9
 L  PREC_53_74_2
 L  PREC_53_74_3
 L  PREC_53_74_4
 L  PREC_53_74_5
 L  PREC_53_74_6
 L  PREC_53_74_7
 L  PREC_53_74_8
 L  PREC_53_74_9
 L  PREC_53_84_2
 L  PREC_53_84_3
 L  PREC_53_84_4
 L  PREC_53_84_5
 L  PREC_53_84_6
 L  PREC_53_84_7
 L  PREC_53_84_8
 L  PREC_53_84_9
 L  PREC_54_55_1
 L  PREC_54_55_2
 L  PREC_54_55_3
 L  PREC_54_55_4
 L  PREC_54_55_5
 L  PREC_54_55_6
 L  PREC_54_55_7
 L  PREC_54_55_8
 L  PREC_54_55_9
 L  PREC_54_29_1
 L  PREC_54_29_2
 L  PREC_54_29_3
 L  PREC_54_29_4
 L  PREC_54_29_5
 L  PREC_54_29_6
 L  PREC_54_29_7
 L  PREC_54_29_8
 L  PREC_54_29_9
 L  PREC_54_49_1
 L  PREC_54_49_2
 L  PREC_54_49_3
 L  PREC_54_49_4
 L  PREC_54_49_5
 L  PREC_54_49_6
 L  PREC_54_49_7
 L  PREC_54_49_8
 L  PREC_54_49_9
 L  PREC_54_63_1
 L  PREC_54_63_2
 L  PREC_54_63_3
 L  PREC_54_63_4
 L  PREC_54_63_5
 L  PREC_54_63_6
 L  PREC_54_63_7
 L  PREC_54_63_8
 L  PREC_54_63_9
 L  PREC_54_79_1
 L  PREC_54_79_2
 L  PREC_54_79_3
 L  PREC_54_79_4
 L  PREC_54_79_5
 L  PREC_54_79_6
 L  PREC_54_79_7
 L  PREC_54_79_8
 L  PREC_54_79_9
 L  PREC_55_56_0
 L  PREC_55_56_1
 L  PREC_55_56_2
 L  PREC_55_56_3
 L  PREC_55_56_4
 L  PREC_55_56_5
 L  PREC_55_56_6
 L  PREC_55_56_7
 L  PREC_55_56_8
 L  PREC_55_56_9
 L  PREC_57_58_8
 L  PREC_57_58_9
 L  PREC_57_32_8
 L  PREC_57_32_9
 L  PREC_57_52_8
 L  PREC_57_52_9
 L  PREC_57_65_8
 L  PREC_57_65_9
 L  PREC_57_80_8
 L  PREC_57_80_9
 L  PREC_57_9_8
 L  PREC_57_9_9
 L  PREC_57_26_8
 L  PREC_57_26_9
 L  PREC_57_39_8
 L  PREC_57_39_9
 L  PREC_57_46_8
 L  PREC_57_46_9
 L  PREC_57_76_8
 L  PREC_57_76_9
 L  PREC_57_85_8
 L  PREC_57_85_9
 L  PREC_57_5_8
 L  PREC_57_5_9
 L  PREC_57_14_8
 L  PREC_57_14_9
 L  PREC_57_20_8
 L  PREC_57_20_9
 L  PREC_57_72_8
 L  PREC_57_72_9
 L  PREC_57_1_8
 L  PREC_57_1_9
 L  PREC_58_59_7
 L  PREC_58_59_8
 L  PREC_58_59_9
 L  PREC_58_33_7
 L  PREC_58_33_8
 L  PREC_58_33_9
 L  PREC_58_53_7
 L  PREC_58_53_8
 L  PREC_58_53_9
 L  PREC_58_66_7
 L  PREC_58_66_8
 L  PREC_58_66_9
 L  PREC_58_81_7
 L  PREC_58_81_8
 L  PREC_58_81_9
 L  PREC_58_10_7
 L  PREC_58_10_8
 L  PREC_58_10_9
 L  PREC_58_27_7
 L  PREC_58_27_8
 L  PREC_58_27_9
 L  PREC_58_40_7
 L  PREC_58_40_8
 L  PREC_58_40_9
 L  PREC_58_47_7
 L  PREC_58_47_8
 L  PREC_58_47_9
 L  PREC_58_77_7
 L  PREC_58_77_8
 L  PREC_58_77_9
 L  PREC_58_86_7
 L  PREC_58_86_8
 L  PREC_58_86_9
 L  PREC_58_6_7
 L  PREC_58_6_8
 L  PREC_58_6_9
 L  PREC_58_15_7
 L  PREC_58_15_8
 L  PREC_58_15_9
 L  PREC_58_21_7
 L  PREC_58_21_8
 L  PREC_58_21_9
 L  PREC_58_43_7
 L  PREC_58_43_8
 L  PREC_58_43_9
 L  PREC_58_73_7
 L  PREC_58_73_8
 L  PREC_58_73_9
 L  PREC_58_2_7
 L  PREC_58_2_8
 L  PREC_58_2_9
 L  PREC_58_17_7
 L  PREC_58_17_8
 L  PREC_58_17_9
 L  PREC_59_60_5
 L  PREC_59_60_6
 L  PREC_59_60_7
 L  PREC_59_60_8
 L  PREC_59_60_9
 L  PREC_59_34_5
 L  PREC_59_34_6
 L  PREC_59_34_7
 L  PREC_59_34_8
 L  PREC_59_34_9
 L  PREC_59_54_5
 L  PREC_59_54_6
 L  PREC_59_54_7
 L  PREC_59_54_8
 L  PREC_59_54_9
 L  PREC_59_67_5
 L  PREC_59_67_6
 L  PREC_59_67_7
 L  PREC_59_67_8
 L  PREC_59_67_9
 L  PREC_59_82_5
 L  PREC_59_82_6
 L  PREC_59_82_7
 L  PREC_59_82_8
 L  PREC_59_82_9
 L  PREC_59_11_5
 L  PREC_59_11_6
 L  PREC_59_11_7
 L  PREC_59_11_8
 L  PREC_59_11_9
 L  PREC_59_28_5
 L  PREC_59_28_6
 L  PREC_59_28_7
 L  PREC_59_28_8
 L  PREC_59_28_9
 L  PREC_59_41_5
 L  PREC_59_41_6
 L  PREC_59_41_7
 L  PREC_59_41_8
 L  PREC_59_41_9
 L  PREC_59_48_5
 L  PREC_59_48_6
 L  PREC_59_48_7
 L  PREC_59_48_8
 L  PREC_59_48_9
 L  PREC_59_70_5
 L  PREC_59_70_6
 L  PREC_59_70_7
 L  PREC_59_70_8
 L  PREC_59_70_9
 L  PREC_59_78_5
 L  PREC_59_78_6
 L  PREC_59_78_7
 L  PREC_59_78_8
 L  PREC_59_78_9
 L  PREC_59_87_5
 L  PREC_59_87_6
 L  PREC_59_87_7
 L  PREC_59_87_8
 L  PREC_59_87_9
 L  PREC_59_7_5
 L  PREC_59_7_6
 L  PREC_59_7_7
 L  PREC_59_7_8
 L  PREC_59_7_9
 L  PREC_59_16_5
 L  PREC_59_16_6
 L  PREC_59_16_7
 L  PREC_59_16_8
 L  PREC_59_16_9
 L  PREC_59_22_5
 L  PREC_59_22_6
 L  PREC_59_22_7
 L  PREC_59_22_8
 L  PREC_59_22_9
 L  PREC_59_44_5
 L  PREC_59_44_6
 L  PREC_59_44_7
 L  PREC_59_44_8
 L  PREC_59_44_9
 L  PREC_59_74_5
 L  PREC_59_74_6
 L  PREC_59_74_7
 L  PREC_59_74_8
 L  PREC_59_74_9
 L  PREC_59_89_5
 L  PREC_59_89_6
 L  PREC_59_89_7
 L  PREC_59_89_8
 L  PREC_59_89_9
 L  PREC_60_61_3
 L  PREC_60_61_4
 L  PREC_60_61_5
 L  PREC_60_61_6
 L  PREC_60_61_7
 L  PREC_60_61_8
 L  PREC_60_61_9
 L  PREC_60_35_3
 L  PREC_60_35_4
 L  PREC_60_35_5
 L  PREC_60_35_6
 L  PREC_60_35_7
 L  PREC_60_35_8
 L  PREC_60_35_9
 L  PREC_60_55_3
 L  PREC_60_55_4
 L  PREC_60_55_5
 L  PREC_60_55_6
 L  PREC_60_55_7
 L  PREC_60_55_8
 L  PREC_60_55_9
 L  PREC_60_68_3
 L  PREC_60_68_4
 L  PREC_60_68_5
 L  PREC_60_68_6
 L  PREC_60_68_7
 L  PREC_60_68_8
 L  PREC_60_68_9
 L  PREC_60_83_3
 L  PREC_60_83_4
 L  PREC_60_83_5
 L  PREC_60_83_6
 L  PREC_60_83_7
 L  PREC_60_83_8
 L  PREC_60_83_9
 L  PREC_60_12_3
 L  PREC_60_12_4
 L  PREC_60_12_5
 L  PREC_60_12_6
 L  PREC_60_12_7
 L  PREC_60_12_8
 L  PREC_60_12_9
 L  PREC_60_29_3
 L  PREC_60_29_4
 L  PREC_60_29_5
 L  PREC_60_29_6
 L  PREC_60_29_7
 L  PREC_60_29_8
 L  PREC_60_29_9
 L  PREC_60_42_3
 L  PREC_60_42_4
 L  PREC_60_42_5
 L  PREC_60_42_6
 L  PREC_60_42_7
 L  PREC_60_42_8
 L  PREC_60_42_9
 L  PREC_60_49_3
 L  PREC_60_49_4
 L  PREC_60_49_5
 L  PREC_60_49_6
 L  PREC_60_49_7
 L  PREC_60_49_8
 L  PREC_60_49_9
 L  PREC_60_71_3
 L  PREC_60_71_4
 L  PREC_60_71_5
 L  PREC_60_71_6
 L  PREC_60_71_7
 L  PREC_60_71_8
 L  PREC_60_71_9
 L  PREC_60_79_3
 L  PREC_60_79_4
 L  PREC_60_79_5
 L  PREC_60_79_6
 L  PREC_60_79_7
 L  PREC_60_79_8
 L  PREC_60_79_9
 L  PREC_60_88_3
 L  PREC_60_88_4
 L  PREC_60_88_5
 L  PREC_60_88_6
 L  PREC_60_88_7
 L  PREC_60_88_8
 L  PREC_60_88_9
 L  PREC_61_62_0
 L  PREC_61_62_1
 L  PREC_61_62_2
 L  PREC_61_62_3
 L  PREC_61_62_4
 L  PREC_61_62_5
 L  PREC_61_62_6
 L  PREC_61_62_7
 L  PREC_61_62_8
 L  PREC_61_62_9
 L  PREC_61_36_0
 L  PREC_61_36_1
 L  PREC_61_36_2
 L  PREC_61_36_3
 L  PREC_61_36_4
 L  PREC_61_36_5
 L  PREC_61_36_6
 L  PREC_61_36_7
 L  PREC_61_36_8
 L  PREC_61_36_9
 L  PREC_61_56_0
 L  PREC_61_56_1
 L  PREC_61_56_2
 L  PREC_61_56_3
 L  PREC_61_56_4
 L  PREC_61_56_5
 L  PREC_61_56_6
 L  PREC_61_56_7
 L  PREC_61_56_8
 L  PREC_61_56_9
 L  PREC_61_69_0
 L  PREC_61_69_1
 L  PREC_61_69_2
 L  PREC_61_69_3
 L  PREC_61_69_4
 L  PREC_61_69_5
 L  PREC_61_69_6
 L  PREC_61_69_7
 L  PREC_61_69_8
 L  PREC_61_69_9
 L  PREC_61_84_0
 L  PREC_61_84_1
 L  PREC_61_84_2
 L  PREC_61_84_3
 L  PREC_61_84_4
 L  PREC_61_84_5
 L  PREC_61_84_6
 L  PREC_61_84_7
 L  PREC_61_84_8
 L  PREC_61_84_9
 L  PREC_62_63_0
 L  PREC_62_63_1
 L  PREC_62_63_2
 L  PREC_62_63_3
 L  PREC_62_63_4
 L  PREC_62_63_5
 L  PREC_62_63_6
 L  PREC_62_63_7
 L  PREC_62_63_8
 L  PREC_62_63_9
 L  PREC_64_65_5
 L  PREC_64_65_6
 L  PREC_64_65_7
 L  PREC_64_65_8
 L  PREC_64_65_9
 L  PREC_64_39_5
 L  PREC_64_39_6
 L  PREC_64_39_7
 L  PREC_64_39_8
 L  PREC_64_39_9
 L  PREC_64_60_5
 L  PREC_64_60_6
 L  PREC_64_60_7
 L  PREC_64_60_8
 L  PREC_64_60_9
 L  PREC_64_85_5
 L  PREC_64_85_6
 L  PREC_64_85_7
 L  PREC_64_85_8
 L  PREC_64_85_9
 L  PREC_64_14_5
 L  PREC_64_14_6
 L  PREC_64_14_7
 L  PREC_64_14_8
 L  PREC_64_14_9
 L  PREC_64_34_5
 L  PREC_64_34_6
 L  PREC_64_34_7
 L  PREC_64_34_8
 L  PREC_64_34_9
 L  PREC_64_54_5
 L  PREC_64_54_6
 L  PREC_64_54_7
 L  PREC_64_54_8
 L  PREC_64_54_9
 L  PREC_64_82_5
 L  PREC_64_82_6
 L  PREC_64_82_7
 L  PREC_64_82_8
 L  PREC_64_82_9
 L  PREC_64_11_5
 L  PREC_64_11_6
 L  PREC_64_11_7
 L  PREC_64_11_8
 L  PREC_64_11_9
 L  PREC_64_28_5
 L  PREC_64_28_6
 L  PREC_64_28_7
 L  PREC_64_28_8
 L  PREC_64_28_9
 L  PREC_64_78_5
 L  PREC_64_78_6
 L  PREC_64_78_7
 L  PREC_64_78_8
 L  PREC_64_78_9
 L  PREC_64_7_5
 L  PREC_64_7_6
 L  PREC_64_7_7
 L  PREC_64_7_8
 L  PREC_64_7_9
 L  PREC_64_22_5
 L  PREC_64_22_6
 L  PREC_64_22_7
 L  PREC_64_22_8
 L  PREC_64_22_9
 L  PREC_64_74_5
 L  PREC_64_74_6
 L  PREC_64_74_7
 L  PREC_64_74_8
 L  PREC_64_74_9
 L  PREC_65_66_3
 L  PREC_65_66_4
 L  PREC_65_66_5
 L  PREC_65_66_6
 L  PREC_65_66_7
 L  PREC_65_66_8
 L  PREC_65_66_9
 L  PREC_65_40_3
 L  PREC_65_40_4
 L  PREC_65_40_5
 L  PREC_65_40_6
 L  PREC_65_40_7
 L  PREC_65_40_8
 L  PREC_65_40_9
 L  PREC_65_61_3
 L  PREC_65_61_4
 L  PREC_65_61_5
 L  PREC_65_61_6
 L  PREC_65_61_7
 L  PREC_65_61_8
 L  PREC_65_61_9
 L  PREC_65_86_3
 L  PREC_65_86_4
 L  PREC_65_86_5
 L  PREC_65_86_6
 L  PREC_65_86_7
 L  PREC_65_86_8
 L  PREC_65_86_9
 L  PREC_65_15_3
 L  PREC_65_15_4
 L  PREC_65_15_5
 L  PREC_65_15_6
 L  PREC_65_15_7
 L  PREC_65_15_8
 L  PREC_65_15_9
 L  PREC_65_35_3
 L  PREC_65_35_4
 L  PREC_65_35_5
 L  PREC_65_35_6
 L  PREC_65_35_7
 L  PREC_65_35_8
 L  PREC_65_35_9
 L  PREC_65_43_3
 L  PREC_65_43_4
 L  PREC_65_43_5
 L  PREC_65_43_6
 L  PREC_65_43_7
 L  PREC_65_43_8
 L  PREC_65_43_9
 L  PREC_65_55_3
 L  PREC_65_55_4
 L  PREC_65_55_5
 L  PREC_65_55_6
 L  PREC_65_55_7
 L  PREC_65_55_8
 L  PREC_65_55_9
 L  PREC_65_83_3
 L  PREC_65_83_4
 L  PREC_65_83_5
 L  PREC_65_83_6
 L  PREC_65_83_7
 L  PREC_65_83_8
 L  PREC_65_83_9
 L  PREC_65_12_3
 L  PREC_65_12_4
 L  PREC_65_12_5
 L  PREC_65_12_6
 L  PREC_65_12_7
 L  PREC_65_12_8
 L  PREC_65_12_9
 L  PREC_65_17_3
 L  PREC_65_17_4
 L  PREC_65_17_5
 L  PREC_65_17_6
 L  PREC_65_17_7
 L  PREC_65_17_8
 L  PREC_65_17_9
 L  PREC_65_29_3
 L  PREC_65_29_4
 L  PREC_65_29_5
 L  PREC_65_29_6
 L  PREC_65_29_7
 L  PREC_65_29_8
 L  PREC_65_29_9
 L  PREC_65_79_3
 L  PREC_65_79_4
 L  PREC_65_79_5
 L  PREC_65_79_6
 L  PREC_65_79_7
 L  PREC_65_79_8
 L  PREC_65_79_9
 L  PREC_66_67_2
 L  PREC_66_67_3
 L  PREC_66_67_4
 L  PREC_66_67_5
 L  PREC_66_67_6
 L  PREC_66_67_7
 L  PREC_66_67_8
 L  PREC_66_67_9
 L  PREC_66_41_2
 L  PREC_66_41_3
 L  PREC_66_41_4
 L  PREC_66_41_5
 L  PREC_66_41_6
 L  PREC_66_41_7
 L  PREC_66_41_8
 L  PREC_66_41_9
 L  PREC_66_62_2
 L  PREC_66_62_3
 L  PREC_66_62_4
 L  PREC_66_62_5
 L  PREC_66_62_6
 L  PREC_66_62_7
 L  PREC_66_62_8
 L  PREC_66_62_9
 L  PREC_66_70_2
 L  PREC_66_70_3
 L  PREC_66_70_4
 L  PREC_66_70_5
 L  PREC_66_70_6
 L  PREC_66_70_7
 L  PREC_66_70_8
 L  PREC_66_70_9
 L  PREC_66_87_2
 L  PREC_66_87_3
 L  PREC_66_87_4
 L  PREC_66_87_5
 L  PREC_66_87_6
 L  PREC_66_87_7
 L  PREC_66_87_8
 L  PREC_66_87_9
 L  PREC_66_16_2
 L  PREC_66_16_3
 L  PREC_66_16_4
 L  PREC_66_16_5
 L  PREC_66_16_6
 L  PREC_66_16_7
 L  PREC_66_16_8
 L  PREC_66_16_9
 L  PREC_66_36_2
 L  PREC_66_36_3
 L  PREC_66_36_4
 L  PREC_66_36_5
 L  PREC_66_36_6
 L  PREC_66_36_7
 L  PREC_66_36_8
 L  PREC_66_36_9
 L  PREC_66_44_2
 L  PREC_66_44_3
 L  PREC_66_44_4
 L  PREC_66_44_5
 L  PREC_66_44_6
 L  PREC_66_44_7
 L  PREC_66_44_8
 L  PREC_66_44_9
 L  PREC_66_56_2
 L  PREC_66_56_3
 L  PREC_66_56_4
 L  PREC_66_56_5
 L  PREC_66_56_6
 L  PREC_66_56_7
 L  PREC_66_56_8
 L  PREC_66_56_9
 L  PREC_66_84_2
 L  PREC_66_84_3
 L  PREC_66_84_4
 L  PREC_66_84_5
 L  PREC_66_84_6
 L  PREC_66_84_7
 L  PREC_66_84_8
 L  PREC_66_84_9
 L  PREC_66_89_2
 L  PREC_66_89_3
 L  PREC_66_89_4
 L  PREC_66_89_5
 L  PREC_66_89_6
 L  PREC_66_89_7
 L  PREC_66_89_8
 L  PREC_66_89_9
 L  PREC_67_68_0
 L  PREC_67_68_1
 L  PREC_67_68_2
 L  PREC_67_68_3
 L  PREC_67_68_4
 L  PREC_67_68_5
 L  PREC_67_68_6
 L  PREC_67_68_7
 L  PREC_67_68_8
 L  PREC_67_68_9
 L  PREC_67_42_0
 L  PREC_67_42_1
 L  PREC_67_42_2
 L  PREC_67_42_3
 L  PREC_67_42_4
 L  PREC_67_42_5
 L  PREC_67_42_6
 L  PREC_67_42_7
 L  PREC_67_42_8
 L  PREC_67_42_9
 L  PREC_67_63_0
 L  PREC_67_63_1
 L  PREC_67_63_2
 L  PREC_67_63_3
 L  PREC_67_63_4
 L  PREC_67_63_5
 L  PREC_67_63_6
 L  PREC_67_63_7
 L  PREC_67_63_8
 L  PREC_67_63_9
 L  PREC_67_71_0
 L  PREC_67_71_1
 L  PREC_67_71_2
 L  PREC_67_71_3
 L  PREC_67_71_4
 L  PREC_67_71_5
 L  PREC_67_71_6
 L  PREC_67_71_7
 L  PREC_67_71_8
 L  PREC_67_71_9
 L  PREC_67_88_0
 L  PREC_67_88_1
 L  PREC_67_88_2
 L  PREC_67_88_3
 L  PREC_67_88_4
 L  PREC_67_88_5
 L  PREC_67_88_6
 L  PREC_67_88_7
 L  PREC_67_88_8
 L  PREC_67_88_9
 L  PREC_68_69_0
 L  PREC_68_69_1
 L  PREC_68_69_2
 L  PREC_68_69_3
 L  PREC_68_69_4
 L  PREC_68_69_5
 L  PREC_68_69_6
 L  PREC_68_69_7
 L  PREC_68_69_8
 L  PREC_68_69_9
 L  PREC_70_71_0
 L  PREC_70_71_1
 L  PREC_70_71_2
 L  PREC_70_71_3
 L  PREC_70_71_4
 L  PREC_70_71_5
 L  PREC_70_71_6
 L  PREC_70_71_7
 L  PREC_70_71_8
 L  PREC_70_71_9
 L  PREC_72_73_0
 L  PREC_72_73_1
 L  PREC_72_73_2
 L  PREC_72_73_3
 L  PREC_72_73_4
 L  PREC_72_73_5
 L  PREC_72_73_6
 L  PREC_72_73_7
 L  PREC_72_73_8
 L  PREC_72_73_9
 L  PREC_72_49_0
 L  PREC_72_49_1
 L  PREC_72_49_2
 L  PREC_72_49_3
 L  PREC_72_49_4
 L  PREC_72_49_5
 L  PREC_72_49_6
 L  PREC_72_49_7
 L  PREC_72_49_8
 L  PREC_72_49_9
 L  PREC_72_79_0
 L  PREC_72_79_1
 L  PREC_72_79_2
 L  PREC_72_79_3
 L  PREC_72_79_4
 L  PREC_72_79_5
 L  PREC_72_79_6
 L  PREC_72_79_7
 L  PREC_72_79_8
 L  PREC_72_79_9
 L  PREC_73_74_0
 L  PREC_73_74_1
 L  PREC_73_74_2
 L  PREC_73_74_3
 L  PREC_73_74_4
 L  PREC_73_74_5
 L  PREC_73_74_6
 L  PREC_73_74_7
 L  PREC_73_74_8
 L  PREC_73_74_9
 L  PREC_75_76_3
 L  PREC_75_76_4
 L  PREC_75_76_5
 L  PREC_75_76_6
 L  PREC_75_76_7
 L  PREC_75_76_8
 L  PREC_75_76_9
 L  PREC_75_54_3
 L  PREC_75_54_4
 L  PREC_75_54_5
 L  PREC_75_54_6
 L  PREC_75_54_7
 L  PREC_75_54_8
 L  PREC_75_54_9
 L  PREC_75_72_3
 L  PREC_75_72_4
 L  PREC_75_72_5
 L  PREC_75_72_6
 L  PREC_75_72_7
 L  PREC_75_72_8
 L  PREC_75_72_9
 L  PREC_75_82_3
 L  PREC_75_82_4
 L  PREC_75_82_5
 L  PREC_75_82_6
 L  PREC_75_82_7
 L  PREC_75_82_8
 L  PREC_75_82_9
 L  PREC_75_28_3
 L  PREC_75_28_4
 L  PREC_75_28_5
 L  PREC_75_28_6
 L  PREC_75_28_7
 L  PREC_75_28_8
 L  PREC_75_28_9
 L  PREC_75_48_3
 L  PREC_75_48_4
 L  PREC_75_48_5
 L  PREC_75_48_6
 L  PREC_75_48_7
 L  PREC_75_48_8
 L  PREC_75_48_9
 L  PREC_75_62_3
 L  PREC_75_62_4
 L  PREC_75_62_5
 L  PREC_75_62_6
 L  PREC_75_62_7
 L  PREC_75_62_8
 L  PREC_75_62_9
 L  PREC_75_87_3
 L  PREC_75_87_4
 L  PREC_75_87_5
 L  PREC_75_87_6
 L  PREC_75_87_7
 L  PREC_75_87_8
 L  PREC_75_87_9
 L  PREC_75_22_3
 L  PREC_75_22_4
 L  PREC_75_22_5
 L  PREC_75_22_6
 L  PREC_75_22_7
 L  PREC_75_22_8
 L  PREC_75_22_9
 L  PREC_75_36_3
 L  PREC_75_36_4
 L  PREC_75_36_5
 L  PREC_75_36_6
 L  PREC_75_36_7
 L  PREC_75_36_8
 L  PREC_75_36_9
 L  PREC_75_69_3
 L  PREC_75_69_4
 L  PREC_75_69_5
 L  PREC_75_69_6
 L  PREC_75_69_7
 L  PREC_75_69_8
 L  PREC_75_69_9
 L  PREC_76_77_1
 L  PREC_76_77_2
 L  PREC_76_77_3
 L  PREC_76_77_4
 L  PREC_76_77_5
 L  PREC_76_77_6
 L  PREC_76_77_7
 L  PREC_76_77_8
 L  PREC_76_77_9
 L  PREC_76_55_1
 L  PREC_76_55_2
 L  PREC_76_55_3
 L  PREC_76_55_4
 L  PREC_76_55_5
 L  PREC_76_55_6
 L  PREC_76_55_7
 L  PREC_76_55_8
 L  PREC_76_55_9
 L  PREC_76_73_1
 L  PREC_76_73_2
 L  PREC_76_73_3
 L  PREC_76_73_4
 L  PREC_76_73_5
 L  PREC_76_73_6
 L  PREC_76_73_7
 L  PREC_76_73_8
 L  PREC_76_73_9
 L  PREC_76_83_1
 L  PREC_76_83_2
 L  PREC_76_83_3
 L  PREC_76_83_4
 L  PREC_76_83_5
 L  PREC_76_83_6
 L  PREC_76_83_7
 L  PREC_76_83_8
 L  PREC_76_83_9
 L  PREC_76_29_1
 L  PREC_76_29_2
 L  PREC_76_29_3
 L  PREC_76_29_4
 L  PREC_76_29_5
 L  PREC_76_29_6
 L  PREC_76_29_7
 L  PREC_76_29_8
 L  PREC_76_29_9
 L  PREC_76_49_1
 L  PREC_76_49_2
 L  PREC_76_49_3
 L  PREC_76_49_4
 L  PREC_76_49_5
 L  PREC_76_49_6
 L  PREC_76_49_7
 L  PREC_76_49_8
 L  PREC_76_49_9
 L  PREC_76_63_1
 L  PREC_76_63_2
 L  PREC_76_63_3
 L  PREC_76_63_4
 L  PREC_76_63_5
 L  PREC_76_63_6
 L  PREC_76_63_7
 L  PREC_76_63_8
 L  PREC_76_63_9
 L  PREC_76_88_1
 L  PREC_76_88_2
 L  PREC_76_88_3
 L  PREC_76_88_4
 L  PREC_76_88_5
 L  PREC_76_88_6
 L  PREC_76_88_7
 L  PREC_76_88_8
 L  PREC_76_88_9
 L  PREC_77_78_0
 L  PREC_77_78_1
 L  PREC_77_78_2
 L  PREC_77_78_3
 L  PREC_77_78_4
 L  PREC_77_78_5
 L  PREC_77_78_6
 L  PREC_77_78_7
 L  PREC_77_78_8
 L  PREC_77_78_9
 L  PREC_77_56_0
 L  PREC_77_56_1
 L  PREC_77_56_2
 L  PREC_77_56_3
 L  PREC_77_56_4
 L  PREC_77_56_5
 L  PREC_77_56_6
 L  PREC_77_56_7
 L  PREC_77_56_8
 L  PREC_77_56_9
 L  PREC_77_74_0
 L  PREC_77_74_1
 L  PREC_77_74_2
 L  PREC_77_74_3
 L  PREC_77_74_4
 L  PREC_77_74_5
 L  PREC_77_74_6
 L  PREC_77_74_7
 L  PREC_77_74_8
 L  PREC_77_74_9
 L  PREC_77_84_0
 L  PREC_77_84_1
 L  PREC_77_84_2
 L  PREC_77_84_3
 L  PREC_77_84_4
 L  PREC_77_84_5
 L  PREC_77_84_6
 L  PREC_77_84_7
 L  PREC_77_84_8
 L  PREC_77_84_9
 L  PREC_78_79_0
 L  PREC_78_79_1
 L  PREC_78_79_2
 L  PREC_78_79_3
 L  PREC_78_79_4
 L  PREC_78_79_5
 L  PREC_78_79_6
 L  PREC_78_79_7
 L  PREC_78_79_8
 L  PREC_78_79_9
 L  PREC_80_81_3
 L  PREC_80_81_4
 L  PREC_80_81_5
 L  PREC_80_81_6
 L  PREC_80_81_7
 L  PREC_80_81_8
 L  PREC_80_81_9
 L  PREC_80_61_3
 L  PREC_80_61_4
 L  PREC_80_61_5
 L  PREC_80_61_6
 L  PREC_80_61_7
 L  PREC_80_61_8
 L  PREC_80_61_9
 L  PREC_80_77_3
 L  PREC_80_77_4
 L  PREC_80_77_5
 L  PREC_80_77_6
 L  PREC_80_77_7
 L  PREC_80_77_8
 L  PREC_80_77_9
 L  PREC_80_86_3
 L  PREC_80_86_4
 L  PREC_80_86_5
 L  PREC_80_86_6
 L  PREC_80_86_7
 L  PREC_80_86_8
 L  PREC_80_86_9
 L  PREC_80_35_3
 L  PREC_80_35_4
 L  PREC_80_35_5
 L  PREC_80_35_6
 L  PREC_80_35_7
 L  PREC_80_35_8
 L  PREC_80_35_9
 L  PREC_80_55_3
 L  PREC_80_55_4
 L  PREC_80_55_5
 L  PREC_80_55_6
 L  PREC_80_55_7
 L  PREC_80_55_8
 L  PREC_80_55_9
 L  PREC_80_68_3
 L  PREC_80_68_4
 L  PREC_80_68_5
 L  PREC_80_68_6
 L  PREC_80_68_7
 L  PREC_80_68_8
 L  PREC_80_68_9
 L  PREC_80_73_3
 L  PREC_80_73_4
 L  PREC_80_73_5
 L  PREC_80_73_6
 L  PREC_80_73_7
 L  PREC_80_73_8
 L  PREC_80_73_9
 L  PREC_80_29_3
 L  PREC_80_29_4
 L  PREC_80_29_5
 L  PREC_80_29_6
 L  PREC_80_29_7
 L  PREC_80_29_8
 L  PREC_80_29_9
 L  PREC_80_42_3
 L  PREC_80_42_4
 L  PREC_80_42_5
 L  PREC_80_42_6
 L  PREC_80_42_7
 L  PREC_80_42_8
 L  PREC_80_42_9
 L  PREC_80_49_3
 L  PREC_80_49_4
 L  PREC_80_49_5
 L  PREC_80_49_6
 L  PREC_80_49_7
 L  PREC_80_49_8
 L  PREC_80_49_9
 L  PREC_80_71_3
 L  PREC_80_71_4
 L  PREC_80_71_5
 L  PREC_80_71_6
 L  PREC_80_71_7
 L  PREC_80_71_8
 L  PREC_80_71_9
 L  PREC_81_82_1
 L  PREC_81_82_2
 L  PREC_81_82_3
 L  PREC_81_82_4
 L  PREC_81_82_5
 L  PREC_81_82_6
 L  PREC_81_82_7
 L  PREC_81_82_8
 L  PREC_81_82_9
 L  PREC_81_62_1
 L  PREC_81_62_2
 L  PREC_81_62_3
 L  PREC_81_62_4
 L  PREC_81_62_5
 L  PREC_81_62_6
 L  PREC_81_62_7
 L  PREC_81_62_8
 L  PREC_81_62_9
 L  PREC_81_78_1
 L  PREC_81_78_2
 L  PREC_81_78_3
 L  PREC_81_78_4
 L  PREC_81_78_5
 L  PREC_81_78_6
 L  PREC_81_78_7
 L  PREC_81_78_8
 L  PREC_81_78_9
 L  PREC_81_87_1
 L  PREC_81_87_2
 L  PREC_81_87_3
 L  PREC_81_87_4
 L  PREC_81_87_5
 L  PREC_81_87_6
 L  PREC_81_87_7
 L  PREC_81_87_8
 L  PREC_81_87_9
 L  PREC_81_36_1
 L  PREC_81_36_2
 L  PREC_81_36_3
 L  PREC_81_36_4
 L  PREC_81_36_5
 L  PREC_81_36_6
 L  PREC_81_36_7
 L  PREC_81_36_8
 L  PREC_81_36_9
 L  PREC_81_56_1
 L  PREC_81_56_2
 L  PREC_81_56_3
 L  PREC_81_56_4
 L  PREC_81_56_5
 L  PREC_81_56_6
 L  PREC_81_56_7
 L  PREC_81_56_8
 L  PREC_81_56_9
 L  PREC_81_69_1
 L  PREC_81_69_2
 L  PREC_81_69_3
 L  PREC_81_69_4
 L  PREC_81_69_5
 L  PREC_81_69_6
 L  PREC_81_69_7
 L  PREC_81_69_8
 L  PREC_81_69_9
 L  PREC_81_74_1
 L  PREC_81_74_2
 L  PREC_81_74_3
 L  PREC_81_74_4
 L  PREC_81_74_5
 L  PREC_81_74_6
 L  PREC_81_74_7
 L  PREC_81_74_8
 L  PREC_81_74_9
 L  PREC_81_89_1
 L  PREC_81_89_2
 L  PREC_81_89_3
 L  PREC_81_89_4
 L  PREC_81_89_5
 L  PREC_81_89_6
 L  PREC_81_89_7
 L  PREC_81_89_8
 L  PREC_81_89_9
 L  PREC_82_83_0
 L  PREC_82_83_1
 L  PREC_82_83_2
 L  PREC_82_83_3
 L  PREC_82_83_4
 L  PREC_82_83_5
 L  PREC_82_83_6
 L  PREC_82_83_7
 L  PREC_82_83_8
 L  PREC_82_83_9
 L  PREC_82_63_0
 L  PREC_82_63_1
 L  PREC_82_63_2
 L  PREC_82_63_3
 L  PREC_82_63_4
 L  PREC_82_63_5
 L  PREC_82_63_6
 L  PREC_82_63_7
 L  PREC_82_63_8
 L  PREC_82_63_9
 L  PREC_82_79_0
 L  PREC_82_79_1
 L  PREC_82_79_2
 L  PREC_82_79_3
 L  PREC_82_79_4
 L  PREC_82_79_5
 L  PREC_82_79_6
 L  PREC_82_79_7
 L  PREC_82_79_8
 L  PREC_82_79_9
 L  PREC_82_88_0
 L  PREC_82_88_1
 L  PREC_82_88_2
 L  PREC_82_88_3
 L  PREC_82_88_4
 L  PREC_82_88_5
 L  PREC_82_88_6
 L  PREC_82_88_7
 L  PREC_82_88_8
 L  PREC_82_88_9
 L  PREC_83_84_0
 L  PREC_83_84_1
 L  PREC_83_84_2
 L  PREC_83_84_3
 L  PREC_83_84_4
 L  PREC_83_84_5
 L  PREC_83_84_6
 L  PREC_83_84_7
 L  PREC_83_84_8
 L  PREC_83_84_9
 L  PREC_85_86_1
 L  PREC_85_86_2
 L  PREC_85_86_3
 L  PREC_85_86_4
 L  PREC_85_86_5
 L  PREC_85_86_6
 L  PREC_85_86_7
 L  PREC_85_86_8
 L  PREC_85_86_9
 L  PREC_85_68_1
 L  PREC_85_68_2
 L  PREC_85_68_3
 L  PREC_85_68_4
 L  PREC_85_68_5
 L  PREC_85_68_6
 L  PREC_85_68_7
 L  PREC_85_68_8
 L  PREC_85_68_9
 L  PREC_85_83_1
 L  PREC_85_83_2
 L  PREC_85_83_3
 L  PREC_85_83_4
 L  PREC_85_83_5
 L  PREC_85_83_6
 L  PREC_85_83_7
 L  PREC_85_83_8
 L  PREC_85_83_9
 L  PREC_85_42_1
 L  PREC_85_42_2
 L  PREC_85_42_3
 L  PREC_85_42_4
 L  PREC_85_42_5
 L  PREC_85_42_6
 L  PREC_85_42_7
 L  PREC_85_42_8
 L  PREC_85_42_9
 L  PREC_85_63_1
 L  PREC_85_63_2
 L  PREC_85_63_3
 L  PREC_85_63_4
 L  PREC_85_63_5
 L  PREC_85_63_6
 L  PREC_85_63_7
 L  PREC_85_63_8
 L  PREC_85_63_9
 L  PREC_85_71_1
 L  PREC_85_71_2
 L  PREC_85_71_3
 L  PREC_85_71_4
 L  PREC_85_71_5
 L  PREC_85_71_6
 L  PREC_85_71_7
 L  PREC_85_71_8
 L  PREC_85_71_9
 L  PREC_85_79_1
 L  PREC_85_79_2
 L  PREC_85_79_3
 L  PREC_85_79_4
 L  PREC_85_79_5
 L  PREC_85_79_6
 L  PREC_85_79_7
 L  PREC_85_79_8
 L  PREC_85_79_9
 L  PREC_86_87_0
 L  PREC_86_87_1
 L  PREC_86_87_2
 L  PREC_86_87_3
 L  PREC_86_87_4
 L  PREC_86_87_5
 L  PREC_86_87_6
 L  PREC_86_87_7
 L  PREC_86_87_8
 L  PREC_86_87_9
 L  PREC_86_69_0
 L  PREC_86_69_1
 L  PREC_86_69_2
 L  PREC_86_69_3
 L  PREC_86_69_4
 L  PREC_86_69_5
 L  PREC_86_69_6
 L  PREC_86_69_7
 L  PREC_86_69_8
 L  PREC_86_69_9
 L  PREC_86_84_0
 L  PREC_86_84_1
 L  PREC_86_84_2
 L  PREC_86_84_3
 L  PREC_86_84_4
 L  PREC_86_84_5
 L  PREC_86_84_6
 L  PREC_86_84_7
 L  PREC_86_84_8
 L  PREC_86_84_9
 L  PREC_86_89_0
 L  PREC_86_89_1
 L  PREC_86_89_2
 L  PREC_86_89_3
 L  PREC_86_89_4
 L  PREC_86_89_5
 L  PREC_86_89_6
 L  PREC_86_89_7
 L  PREC_86_89_8
 L  PREC_86_89_9
 L  PREC_87_88_0
 L  PREC_87_88_1
 L  PREC_87_88_2
 L  PREC_87_88_3
 L  PREC_87_88_4
 L  PREC_87_88_5
 L  PREC_87_88_6
 L  PREC_87_88_7
 L  PREC_87_88_8
 L  PREC_87_88_9
 L  CAP_0_1 
 L  CAP_0_2 
 L  CAP_0_3 
 L  CAP_0_4 
 L  CAP_0_5 
 L  CAP_0_6 
 L  CAP_0_7 
 L  CAP_0_8 
 L  CAP_0_9 
 L  CAP_1_1 
 L  CAP_1_2 
 L  CAP_1_3 
 L  CAP_1_4 
 L  CAP_1_5 
 L  CAP_1_6 
 L  CAP_1_7 
 L  CAP_1_8 
 L  CAP_1_9 
 E  R4100   
 E  R4101   
 E  R4102   
 E  R4103   
 E  R4104   
 E  R4105   
 E  R4106   
 E  R4107   
 E  R4108   
 E  R4109   
 E  R4110   
 E  R4111   
 E  R4112   
 E  R4113   
 E  R4114   
 E  R4115   
 E  R4116   
 E  R4117   
COLUMNS
    MARKER    'MARKER'                 'INTORG'
    X_0_0     OBJ       3149.1956632589
    X_0_0     R4100     93
    X_0_0     ORD_0_0   1
    X_0_0     PREC_0_1_0  1
    X_0_0     PREC_0_7_0  1
    X_0_0     PREC_0_22_0  1
    X_1_0     OBJ       104837.281346864
    X_1_0     R4100     3133
    X_1_0     ORD_1_0   1
    X_1_0     PREC_0_1_0  -1
    X_1_0     PREC_1_2_0  1
    X_2_0     OBJ       390559.844430231
    X_2_0     R4100     1.1977999999999998e+04
    X_2_0     ORD_2_0   1
    X_2_0     PREC_1_2_0  -1
    X_2_0     PREC_5_2_0  -1
    X_2_0     PREC_20_2_0  -1
    X_5_0     OBJ       587616.493579331
    X_5_0     R4100     17046
    X_5_0     ORD_5_0   1
    X_5_0     PREC_5_6_0  1
    X_5_0     PREC_5_2_0  1
    X_5_0     PREC_5_12_0  1
    X_5_0     PREC_5_29_0  1
    X_6_0     OBJ       1002363.93431265
    X_6_0     R4109     277
    X_6_0     R4100     30590
    X_6_0     ORD_6_0   1
    X_6_0     PREC_5_6_0  -1
    X_6_0     PREC_6_7_0  1
    X_7_0     OBJ       1157684.18583461
    X_7_0     R4109     2823
    X_7_0     R4100     43176
    X_7_0     ORD_7_0   1
    X_7_0     PREC_0_7_0  -1
    X_7_0     PREC_6_7_0  -1
    X_7_0     PREC_10_7_0  -1
    X_10_0    OBJ       832548.814913709
    X_10_0    R4100     24141
    X_10_0    ORD_10_0  1
    X_10_0    PREC_10_11_0  1
    X_10_0    PREC_10_7_0  1
    X_10_0    PREC_10_16_0  1
    X_10_0    PREC_10_36_0  1
    X_11_0    OBJ       1205302.47683214
    X_11_0    R4109     369
    X_11_0    R4100     36463
    X_11_0    ORD_11_0  1
    X_11_0    PREC_10_11_0  -1
    X_11_0    PREC_11_12_0  1
    X_12_0    OBJ       1265928.9677873
    X_12_0    R4109     4191
    X_12_0    R4100     47497
    X_12_0    ORD_12_0  1
    X_12_0    PREC_5_12_0  -1
    X_12_0    PREC_11_12_0  -1
    X_12_0    PREC_14_12_0  -1
    X_14_0    OBJ       126945.274603156
    X_14_0    R4100     3686
    X_14_0    ORD_14_0  1
    X_14_0    PREC_14_15_0  1
    X_14_0    PREC_14_12_0  1
    X_14_0    PREC_14_17_0  1
    X_14_0    PREC_14_42_0  1
    X_15_0    OBJ       401624.464238849
    X_15_0    R4100     1.1977999999999998e+04
    X_15_0    ORD_15_0  1
    X_15_0    PREC_14_15_0  -1
    X_15_0    PREC_15_16_0  1
    X_16_0    OBJ       795618.251756736
    X_16_0    R4109     607
    X_16_0    R4100     25760
    X_16_0    ORD_16_0  1
    X_16_0    PREC_10_16_0  -1
    X_16_0    PREC_15_16_0  -1
    X_17_0    OBJ       2978.99383699689
    X_17_0    R4100     93
    X_17_0    ORD_17_0  1
    X_17_0    PREC_14_17_0  -1
    X_20_0    OBJ       581189.931271027
    X_20_0    R4109     553
    X_20_0    R4100     18152
    X_20_0    ORD_20_0  1
    X_20_0    PREC_20_21_0  1
    X_20_0    PREC_20_2_0  1
    X_20_0    PREC_20_29_0  1
    X_20_0    PREC_20_49_0  1
    X_21_0    OBJ       873290.444065101
    X_21_0    R4109     2380
    X_21_0    R4100     30813
    X_21_0    ORD_21_0  1
    X_21_0    PREC_20_21_0  -1
    X_21_0    PREC_21_22_0  1
    X_22_0    OBJ       940467.280474938
    X_22_0    R4109     5698
    X_22_0    R4100     41723
    X_22_0    ORD_22_0  1
    X_22_0    PREC_0_22_0  -1
    X_22_0    PREC_21_22_0  -1
    X_22_0    PREC_47_22_0  -1
    X_28_0    OBJ       -3680376.39511002
    X_28_0    R4109     30935
    X_28_0    R4100     36014
    X_28_0    ORD_28_0  1
    X_28_0    PREC_28_29_0  1
    X_29_0    OBJ       -2362078.84261379
    X_29_0    R4109     19875
    X_29_0    R4100     21258
    X_29_0    ORD_29_0  1
    X_29_0    PREC_5_29_0  -1
    X_29_0    PREC_20_29_0  -1
    X_29_0    PREC_28_29_0  -1
    X_35_0    OBJ       155731.206949144
    X_35_0    R4109     11088
    X_35_0    R4100     33782
    X_35_0    ORD_35_0  1
    X_35_0    PREC_35_36_0  1
    X_36_0    OBJ       119770.355418325
    X_36_0    R4109     5880
    X_36_0    R4100     18164
    X_36_0    ORD_36_0  1
    X_36_0    PREC_10_36_0  -1
    X_36_0    PREC_35_36_0  -1
    X_36_0    PREC_61_36_0  -1
    X_41_0    OBJ       715994.2809753
    X_41_0    R4109     7125
    X_41_0    R4100     42369
    X_41_0    ORD_41_0  1
    X_41_0    PREC_41_42_0  1
    X_42_0    OBJ       583064.576216322
    X_42_0    R4109     10976
    X_42_0    R4100     41057
    X_42_0    ORD_42_0  1
    X_42_0    PREC_14_42_0  -1
    X_42_0    PREC_41_42_0  -1
    X_42_0    PREC_67_42_0  -1
    X_43_0    OBJ       46045.9448182847
    X_43_0    R4100     1383
    X_43_0    ORD_43_0  1
    X_43_0    PREC_43_44_0  1
    X_44_0    OBJ       324342.327404781
    X_44_0    R4100     9951
    X_44_0    ORD_44_0  1
    X_44_0    PREC_43_44_0  -1
    X_47_0    OBJ       666149.509914007
    X_47_0    R4109     553
    X_47_0    R4100     20455
    X_47_0    ORD_47_0  1
    X_47_0    PREC_47_48_0  1
    X_47_0    PREC_47_22_0  1
    X_47_0    PREC_47_56_0  1
    X_47_0    PREC_47_74_0  1
    X_48_0    OBJ       873186.637116792
    X_48_0    R4109     3266
    X_48_0    R4100     3.2284999999999996e+04
    X_48_0    ORD_48_0  1
    X_48_0    PREC_47_48_0  -1
    X_48_0    PREC_48_49_0  1
    X_49_0    OBJ       728560.348780448
    X_49_0    R4109     8207
    X_49_0    R4100     43721
    X_49_0    ORD_49_0  1
    X_49_0    PREC_20_49_0  -1
    X_49_0    PREC_48_49_0  -1
    X_49_0    PREC_72_49_0  -1
    X_55_0    OBJ       -2126357.39609562
    X_55_0    R4109     31303
    X_55_0    R4100     34218
    X_55_0    ORD_55_0  1
    X_55_0    PREC_55_56_0  1
    X_56_0    OBJ       -967157.790472773
    X_56_0    R4109     18643
    X_56_0    R4100     22893
    X_56_0    ORD_56_0  1
    X_56_0    PREC_47_56_0  -1
    X_56_0    PREC_55_56_0  -1
    X_56_0    PREC_61_56_0  -1
    X_56_0    PREC_77_56_0  -1
    X_61_0    OBJ       -2014239.31016726
    X_61_0    R4109     31179
    X_61_0    R4100     36027
    X_61_0    ORD_61_0  1
    X_61_0    PREC_61_62_0  1
    X_61_0    PREC_61_36_0  1
    X_61_0    PREC_61_56_0  1
    X_61_0    PREC_61_69_0  1
    X_61_0    PREC_61_84_0  1
    X_62_0    OBJ       -223361.83791611
    X_62_0    R4109     16429
    X_62_0    R4100     33437
    X_62_0    ORD_62_0  1
    X_62_0    PREC_61_62_0  -1
    X_62_0    PREC_62_63_0  1
    X_63_0    OBJ       139886.155928011
    X_63_0    R4109     5519
    X_63_0    R4100     15934
    X_63_0    ORD_63_0  1
    X_63_0    PREC_62_63_0  -1
    X_63_0    PREC_67_63_0  -1
    X_63_0    PREC_82_63_0  -1
    X_67_0    OBJ       -1344507.24810834
    X_67_0    R4109     18823
    X_67_0    R4100     27348
    X_67_0    ORD_67_0  1
    X_67_0    PREC_67_68_0  1
    X_67_0    PREC_67_42_0  1
    X_67_0    PREC_67_63_0  1
    X_67_0    PREC_67_71_0  1
    X_67_0    PREC_67_88_0  1
    X_68_0    OBJ       -734426.422849487
    X_68_0    R4109     19673
    X_68_0    R4100     37161
    X_68_0    ORD_68_0  1
    X_68_0    PREC_67_68_0  -1
    X_68_0    PREC_68_69_0  1
    X_69_0    OBJ       316375.288458648
    X_69_0    R4109     12135
    X_69_0    R4100     34991
    X_69_0    ORD_69_0  1
    X_69_0    PREC_61_69_0  -1
    X_69_0    PREC_68_69_0  -1
    X_69_0    PREC_86_69_0  -1
    X_70_0    OBJ       30683.0938151091
    X_70_0    R4100     922
    X_70_0    ORD_70_0  1
    X_70_0    PREC_70_71_0  1
    X_71_0    OBJ       309192.401888462
    X_71_0    R4100     9491
    X_71_0    ORD_71_0  1
    X_71_0    PREC_67_71_0  -1
    X_71_0    PREC_70_71_0  -1
    X_72_0    OBJ       12618.0290139801
    X_72_0    R4100     369
    X_72_0    ORD_72_0  1
    X_72_0    PREC_72_73_0  1
    X_72_0    PREC_72_49_0  1
    X_72_0    PREC_72_79_0  1
    X_73_0    OBJ       160458.291320592
    X_73_0    R4100     4792
    X_73_0    ORD_73_0  1
    X_73_0    PREC_72_73_0  -1
    X_73_0    PREC_73_74_0  1
    X_74_0    OBJ       486864.63340952
    X_74_0    R4100     14927
    X_74_0    ORD_74_0  1
    X_74_0    PREC_47_74_0  -1
    X_74_0    PREC_73_74_0  -1
    X_74_0    PREC_77_74_0  -1
    X_77_0    OBJ       405139.697750989
    X_77_0    R4109     1467
    X_77_0    R4100     19341
    X_77_0    ORD_77_0  1
    X_77_0    PREC_77_78_0  1
    X_77_0    PREC_77_56_0  1
    X_77_0    PREC_77_74_0  1
    X_77_0    PREC_77_84_0  1
    X_78_0    OBJ       664371.974694552
    X_78_0    R4109     4301
    X_78_0    R4100     3.1058999999999996e+04
    X_78_0    ORD_78_0  1
    X_78_0    PREC_77_78_0  -1
    X_78_0    PREC_78_79_0  1
    X_79_0    OBJ       1138220.67169979
    X_79_0    R4109     2568
    X_79_0    R4100     41061
    X_79_0    ORD_79_0  1
    X_79_0    PREC_72_79_0  -1
    X_79_0    PREC_78_79_0  -1
    X_79_0    PREC_82_79_0  -1
    X_82_0    OBJ       31663.7750297924
    X_82_0    R4109     5738
    X_82_0    R4100     19228
    X_82_0    ORD_82_0  1
    X_82_0    PREC_82_83_0  1
    X_82_0    PREC_82_63_0  1
    X_82_0    PREC_82_79_0  1
    X_82_0    PREC_82_88_0  1
    X_83_0    OBJ       310810.704870186
    X_83_0    R4109     8309
    X_83_0    R4100     29026
    X_83_0    ORD_83_0  1
    X_83_0    PREC_82_83_0  -1
    X_83_0    PREC_83_84_0  1
    X_84_0    OBJ       320796.725452812
    X_84_0    R4109     9257
    X_84_0    R4100     36137
    X_84_0    ORD_84_0  1
    X_84_0    PREC_61_84_0  -1
    X_84_0    PREC_77_84_0  -1
    X_84_0    PREC_83_84_0  -1
    X_84_0    PREC_86_84_0  -1
    X_86_0    OBJ       50455.6039384473
    X_86_0    R4109     2419
    X_86_0    R4100     6507
    X_86_0    ORD_86_0  1
    X_86_0    PREC_86_87_0  1
    X_86_0    PREC_86_69_0  1
    X_86_0    PREC_86_84_0  1
    X_86_0    PREC_86_89_0  1
    X_87_0    OBJ       395220.533923727
    X_87_0    R4109     3.0490000000000005e+03
    X_87_0    R4100     17312
    X_87_0    ORD_87_0  1
    X_87_0    PREC_86_87_0  -1
    X_87_0    PREC_87_88_0  1
    X_88_0    OBJ       852990.008060033
    X_88_0    R4109     2188
    X_88_0    R4100     30320
    X_88_0    ORD_88_0  1
    X_88_0    PREC_67_88_0  -1
    X_88_0    PREC_82_88_0  -1
    X_88_0    PREC_87_88_0  -1
    X_89_0    OBJ       23895.3433707498
    X_89_0    R4100     738
    X_89_0    ORD_89_0  1
    X_89_0    PREC_86_89_0  -1
    X_0_1     OBJ       2729.67303362325
    X_0_1     R4101     93
    X_0_1     ORD_0_0   -1
    X_0_1     ORD_0_1   1
    X_0_1     PREC_0_1_1  1
    X_0_1     PREC_0_7_1  1
    X_0_1     PREC_0_22_1  1
    X_1_1     OBJ       90871.2987095781
    X_1_1     R4101     3133
    X_1_1     ORD_1_0   -1
    X_1_1     ORD_1_1   1
    X_1_1     PREC_0_1_1  -1
    X_1_1     PREC_1_2_1  1
    X_1_1     PREC_4_1_1  -1
    X_1_1     PREC_19_1_1  -1
    X_2_1     OBJ       338531.10106663
    X_2_1     R4101     1.1977999999999998e+04
    X_2_1     ORD_2_0   -1
    X_2_1     ORD_2_1   1
    X_2_1     PREC_1_2_1  -1
    X_2_1     PREC_5_2_1  -1
    X_2_1     PREC_9_2_1  -1
    X_2_1     PREC_20_2_1  -1
    X_2_1     PREC_46_2_1  -1
    X_4_1     OBJ       177685.07001905
    X_4_1     R4101     5805
    X_4_1     ORD_4_1   1
    X_4_1     PREC_4_5_1  1
    X_4_1     PREC_4_1_1  1
    X_4_1     PREC_4_11_1  1
    X_4_1     PREC_4_28_1  1
    X_4_1     PREC_4_16_1  1
    X_4_1     PREC_4_22_1  1
    X_4_1     PREC_4_36_1  1
    X_4_1     PREC_4_56_1  1
    X_5_1     OBJ       509336.690428397
    X_5_1     R4101     17046
    X_5_1     ORD_5_0   -1
    X_5_1     ORD_5_1   1
    X_5_1     PREC_4_5_1  -1
    X_5_1     PREC_5_6_1  1
    X_5_1     PREC_5_2_1  1
    X_5_1     PREC_5_12_1  1
    X_5_1     PREC_5_29_1  1
    X_6_1     OBJ       868833.217729733
    X_6_1     R4110     277
    X_6_1     R4101     30590
    X_6_1     ORD_6_0   -1
    X_6_1     ORD_6_1   1
    X_6_1     PREC_5_6_1  -1
    X_6_1     PREC_6_7_1  1
    X_6_1     PREC_9_6_1  -1
    X_7_1     OBJ       1003462.35719588
    X_7_1     R4110     2823
    X_7_1     R4101     43176
    X_7_1     ORD_7_0   -1
    X_7_1     ORD_7_1   1
    X_7_1     PREC_0_7_1  -1
    X_7_1     PREC_6_7_1  -1
    X_7_1     PREC_10_7_1  -1
    X_7_1     PREC_13_7_1  -1
    X_7_1     PREC_19_7_1  -1
    X_7_1     PREC_27_7_1  -1
    X_9_1     OBJ       347365.58129733
    X_9_1     R4101     11333
    X_9_1     ORD_9_1   1
    X_9_1     PREC_9_10_1  1
    X_9_1     PREC_9_6_1  1
    X_9_1     PREC_9_15_1  1
    X_9_1     PREC_9_35_1  1
    X_9_1     PREC_9_2_1  1
    X_9_1     PREC_9_17_1  1
    X_9_1     PREC_9_29_1  1
    X_9_1     PREC_9_42_1  1
    X_9_1     PREC_9_63_1  1
    X_10_1    OBJ       721640.155852745
    X_10_1    R4101     24141
    X_10_1    ORD_10_0  -1
    X_10_1    ORD_10_1  1
    X_10_1    PREC_9_10_1  -1
    X_10_1    PREC_10_11_1  1
    X_10_1    PREC_10_7_1  1
    X_10_1    PREC_10_16_1  1
    X_10_1    PREC_10_36_1  1
    X_11_1    OBJ       1044737.13931237
    X_11_1    R4110     369
    X_11_1    R4101     36463
    X_11_1    ORD_11_0  -1
    X_11_1    ORD_11_1  1
    X_11_1    PREC_4_11_1  -1
    X_11_1    PREC_10_11_1  -1
    X_11_1    PREC_11_12_1  1
    X_11_1    PREC_13_11_1  -1
    X_12_1    OBJ       1097287.22358127
    X_12_1    R4110     4191
    X_12_1    R4101     47497
    X_12_1    ORD_12_0  -1
    X_12_1    ORD_12_1  1
    X_12_1    PREC_5_12_1  -1
    X_12_1    PREC_11_12_1  -1
    X_12_1    PREC_14_12_1  -1
    X_12_1    PREC_34_12_1  -1
    X_13_1    OBJ       11232.1646509491
    X_13_1    R4101     369
    X_13_1    ORD_13_1  1
    X_13_1    PREC_13_14_1  1
    X_13_1    PREC_13_11_1  1
    X_13_1    PREC_13_41_1  1
    X_13_1    PREC_13_7_1  1
    X_13_1    PREC_13_36_1  1
    X_13_1    PREC_13_44_1  1
    X_13_1    PREC_13_69_1  1
    X_14_1    OBJ       110034.157887651
    X_14_1    R4101     3686
    X_14_1    ORD_14_0  -1
    X_14_1    ORD_14_1  1
    X_14_1    PREC_13_14_1  -1
    X_14_1    PREC_14_15_1  1
    X_14_1    PREC_14_12_1  1
    X_14_1    PREC_14_17_1  1
    X_14_1    PREC_14_42_1  1
    X_15_1    OBJ       348121.73866062
    X_15_1    R4101     1.1977999999999998e+04
    X_15_1    ORD_15_0  -1
    X_15_1    ORD_15_1  1
    X_15_1    PREC_9_15_1  -1
    X_15_1    PREC_14_15_1  -1
    X_15_1    PREC_15_16_1  1
    X_16_1    OBJ       689629.327328429
    X_16_1    R4110     607
    X_16_1    R4101     25760
    X_16_1    ORD_16_0  -1
    X_16_1    ORD_16_1  1
    X_16_1    PREC_4_16_1  -1
    X_16_1    PREC_10_16_1  -1
    X_16_1    PREC_15_16_1  -1
    X_16_1    PREC_40_16_1  -1
    X_17_1    OBJ       2582.14478034856
    X_17_1    R4101     93
    X_17_1    ORD_17_0  -1
    X_17_1    ORD_17_1  1
    X_17_1    PREC_9_17_1  -1
    X_17_1    PREC_14_17_1  -1
    X_19_1    OBJ       211676.520391437
    X_19_1    R4101     6911
    X_19_1    ORD_19_1  1
    X_19_1    PREC_19_20_1  1
    X_19_1    PREC_19_1_1  1
    X_19_1    PREC_19_28_1  1
    X_19_1    PREC_19_48_1  1
    X_19_1    PREC_19_7_1  1
    X_19_1    PREC_19_36_1  1
    X_19_1    PREC_19_56_1  1
    X_19_1    PREC_19_74_1  1
    X_20_1    OBJ       503766.247779648
    X_20_1    R4110     553
    X_20_1    R4101     18152
    X_20_1    ORD_20_0  -1
    X_20_1    ORD_20_1  1
    X_20_1    PREC_19_20_1  -1
    X_20_1    PREC_20_21_1  1
    X_20_1    PREC_20_2_1  1
    X_20_1    PREC_20_29_1  1
    X_20_1    PREC_20_49_1  1
    X_21_1    OBJ       756954.356154086
    X_21_1    R4110     2380
    X_21_1    R4101     30813
    X_21_1    ORD_21_0  -1
    X_21_1    ORD_21_1  1
    X_21_1    PREC_20_21_1  -1
    X_21_1    PREC_21_22_1  1
    X_21_1    PREC_46_21_1  -1
    X_22_1    OBJ       815182.176346844
    X_22_1    R4110     5698
    X_22_1    R4101     41723
    X_22_1    ORD_22_0  -1
    X_22_1    ORD_22_1  1
    X_22_1    PREC_0_22_1  -1
    X_22_1    PREC_4_22_1  -1
    X_22_1    PREC_21_22_1  -1
    X_22_1    PREC_27_22_1  -1
    X_22_1    PREC_47_22_1  -1
    X_27_1    OBJ       -5747993.60217432
    X_27_1    R4110     23762
    X_27_1    R4101     42198
    X_27_1    ORD_27_1  1
    X_27_1    PREC_27_28_1  1
    X_27_1    PREC_27_7_1  1
    X_27_1    PREC_27_22_1  1
    X_27_1    PREC_27_36_1  1
    X_27_1    PREC_27_56_1  1
    X_28_1    OBJ       -3190092.09764985
    X_28_1    R4110     30935
    X_28_1    R4101     36014
    X_28_1    ORD_28_0  -1
    X_28_1    ORD_28_1  1
    X_28_1    PREC_4_28_1  -1
    X_28_1    PREC_19_28_1  -1
    X_28_1    PREC_27_28_1  -1
    X_28_1    PREC_28_29_1  1
    X_29_1    OBJ       -2047412.61243278
    X_29_1    R4110     19875
    X_29_1    R4101     21258
    X_29_1    ORD_29_0  -1
    X_29_1    ORD_29_1  1
    X_29_1    PREC_5_29_1  -1
    X_29_1    PREC_9_29_1  -1
    X_29_1    PREC_20_29_1  -1
    X_29_1    PREC_28_29_1  -1
    X_29_1    PREC_34_29_1  -1
    X_29_1    PREC_46_29_1  -1
    X_29_1    PREC_54_29_1  -1
    X_29_1    PREC_76_29_1  -1
    X_34_1    OBJ       -2104348.30932176
    X_34_1    R4110     15678
    X_34_1    R4101     38248
    X_34_1    ORD_34_1  1
    X_34_1    PREC_34_35_1  1
    X_34_1    PREC_34_12_1  1
    X_34_1    PREC_34_29_1  1
    X_34_1    PREC_34_42_1  1
    X_34_1    PREC_34_63_1  1
    X_35_1    OBJ       134985.349136032
    X_35_1    R4110     11088
    X_35_1    R4101     33782
    X_35_1    ORD_35_0  -1
    X_35_1    ORD_35_1  1
    X_35_1    PREC_9_35_1  -1
    X_35_1    PREC_34_35_1  -1
    X_35_1    PREC_35_36_1  1
    X_36_1    OBJ       103815.051324741
    X_36_1    R4110     5880
    X_36_1    R4101     18164
    X_36_1    ORD_36_0  -1
    X_36_1    ORD_36_1  1
    X_36_1    PREC_4_36_1  -1
    X_36_1    PREC_10_36_1  -1
    X_36_1    PREC_13_36_1  -1
    X_36_1    PREC_19_36_1  -1
    X_36_1    PREC_27_36_1  -1
    X_36_1    PREC_35_36_1  -1
    X_36_1    PREC_40_36_1  -1
    X_36_1    PREC_61_36_1  -1
    X_36_1    PREC_81_36_1  -1
    X_40_1    OBJ       714638.56904282
    X_40_1    R4110     3.1210000000000005e+03
    X_40_1    R4101     33093
    X_40_1    ORD_40_1  1
    X_40_1    PREC_40_41_1  1
    X_40_1    PREC_40_16_1  1
    X_40_1    PREC_40_36_1  1
    X_40_1    PREC_40_44_1  1
    X_40_1    PREC_40_69_1  1
    X_41_1    OBJ       620612.527766609
    X_41_1    R4110     7125
    X_41_1    R4101     42369
    X_41_1    ORD_41_0  -1
    X_41_1    ORD_41_1  1
    X_41_1    PREC_13_41_1  -1
    X_41_1    PREC_40_41_1  -1
    X_41_1    PREC_41_42_1  1
    X_42_1    OBJ       505391.160392887
    X_42_1    R4110     10976
    X_42_1    R4101     41057
    X_42_1    ORD_42_0  -1
    X_42_1    ORD_42_1  1
    X_42_1    PREC_9_42_1  -1
    X_42_1    PREC_14_42_1  -1
    X_42_1    PREC_34_42_1  -1
    X_42_1    PREC_41_42_1  -1
    X_42_1    PREC_67_42_1  -1
    X_42_1    PREC_85_42_1  -1
    X_43_1    OBJ       39911.8972963741
    X_43_1    R4101     1383
    X_43_1    ORD_43_0  -1
    X_43_1    ORD_43_1  1
    X_43_1    PREC_43_44_1  1
    X_44_1    OBJ       281134.803755967
    X_44_1    R4101     9951
    X_44_1    ORD_44_0  -1
    X_44_1    ORD_44_1  1
    X_44_1    PREC_13_44_1  -1
    X_44_1    PREC_40_44_1  -1
    X_44_1    PREC_43_44_1  -1
    X_46_1    OBJ       248471.307837073
    X_46_1    R4101     8.1089999999999991e+03
    X_46_1    ORD_46_1  1
    X_46_1    PREC_46_47_1  1
    X_46_1    PREC_46_21_1  1
    X_46_1    PREC_46_55_1  1
    X_46_1    PREC_46_73_1  1
    X_46_1    PREC_46_2_1  1
    X_46_1    PREC_46_29_1  1
    X_46_1    PREC_46_63_1  1
    X_46_1    PREC_46_79_1  1
    X_47_1    OBJ       577407.86791631
    X_47_1    R4110     553
    X_47_1    R4101     20455
    X_47_1    ORD_47_0  -1
    X_47_1    ORD_47_1  1
    X_47_1    PREC_46_47_1  -1
    X_47_1    PREC_47_48_1  1
    X_47_1    PREC_47_22_1  1
    X_47_1    PREC_47_56_1  1
    X_47_1    PREC_47_74_1  1
    X_48_1    OBJ       756864.37793177
    X_48_1    R4110     3266
    X_48_1    R4101     3.2284999999999996e+04
    X_48_1    ORD_48_0  -1
    X_48_1    ORD_48_1  1
    X_48_1    PREC_19_48_1  -1
    X_48_1    PREC_47_48_1  -1
    X_48_1    PREC_48_49_1  1
    X_49_1    OBJ       631504.596756345
    X_49_1    R4110     8207
    X_49_1    R4101     43721
    X_49_1    ORD_49_0  -1
    X_49_1    ORD_49_1  1
    X_49_1    PREC_20_49_1  -1
    X_49_1    PREC_48_49_1  -1
    X_49_1    PREC_54_49_1  -1
    X_49_1    PREC_72_49_1  -1
    X_49_1    PREC_76_49_1  -1
    X_54_1    OBJ       -13569395.716244
    X_54_1    R4110     38023
    X_54_1    R4101     41064
    X_54_1    ORD_54_1  1
    X_54_1    PREC_54_55_1  1
    X_54_1    PREC_54_29_1  1
    X_54_1    PREC_54_49_1  1
    X_54_1    PREC_54_63_1  1
    X_54_1    PREC_54_79_1  1
    X_55_1    OBJ       -1843092.98773806
    X_55_1    R4110     31303
    X_55_1    R4101     34218
    X_55_1    ORD_55_0  -1
    X_55_1    ORD_55_1  1
    X_55_1    PREC_46_55_1  -1
    X_55_1    PREC_54_55_1  -1
    X_55_1    PREC_55_56_1  1
    X_55_1    PREC_76_55_1  -1
    X_56_1    OBJ       -838317.088618172
    X_56_1    R4110     18643
    X_56_1    R4101     22893
    X_56_1    ORD_56_0  -1
    X_56_1    ORD_56_1  1
    X_56_1    PREC_4_56_1  -1
    X_56_1    PREC_19_56_1  -1
    X_56_1    PREC_27_56_1  -1
    X_56_1    PREC_47_56_1  -1
    X_56_1    PREC_55_56_1  -1
    X_56_1    PREC_61_56_1  -1
    X_56_1    PREC_77_56_1  -1
    X_56_1    PREC_81_56_1  -1
    X_61_1    OBJ       -1745910.80267707
    X_61_1    R4110     31179
    X_61_1    R4101     36027
    X_61_1    ORD_61_0  -1
    X_61_1    ORD_61_1  1
    X_61_1    PREC_61_62_1  1
    X_61_1    PREC_61_36_1  1
    X_61_1    PREC_61_56_1  1
    X_61_1    PREC_61_69_1  1
    X_61_1    PREC_61_84_1  1
    X_62_1    OBJ       -193606.511279515
    X_62_1    R4110     16429
    X_62_1    R4101     33437
    X_62_1    ORD_62_0  -1
    X_62_1    ORD_62_1  1
    X_62_1    PREC_61_62_1  -1
    X_62_1    PREC_62_63_1  1
    X_62_1    PREC_81_62_1  -1
    X_63_1    OBJ       121251.109313025
    X_63_1    R4110     5519
    X_63_1    R4101     15934
    X_63_1    ORD_63_0  -1
    X_63_1    ORD_63_1  1
    X_63_1    PREC_9_63_1  -1
    X_63_1    PREC_34_63_1  -1
    X_63_1    PREC_46_63_1  -1
    X_63_1    PREC_54_63_1  -1
    X_63_1    PREC_62_63_1  -1
    X_63_1    PREC_67_63_1  -1
    X_63_1    PREC_76_63_1  -1
    X_63_1    PREC_82_63_1  -1
    X_63_1    PREC_85_63_1  -1
    X_67_1    OBJ       -1165397.63517724
    X_67_1    R4110     18823
    X_67_1    R4101     27348
    X_67_1    ORD_67_0  -1
    X_67_1    ORD_67_1  1
    X_67_1    PREC_67_68_1  1
    X_67_1    PREC_67_42_1  1
    X_67_1    PREC_67_63_1  1
    X_67_1    PREC_67_71_1  1
    X_67_1    PREC_67_88_1  1
    X_68_1    OBJ       -636589.217056793
    X_68_1    R4110     19673
    X_68_1    R4101     37161
    X_68_1    ORD_68_0  -1
    X_68_1    ORD_68_1  1
    X_68_1    PREC_67_68_1  -1
    X_68_1    PREC_68_69_1  1
    X_68_1    PREC_85_68_1  -1
    X_69_1    OBJ       274229.100301968
    X_69_1    R4110     12135
    X_69_1    R4101     34991
    X_69_1    ORD_69_0  -1
    X_69_1    ORD_69_1  1
    X_69_1    PREC_13_69_1  -1
    X_69_1    PREC_40_69_1  -1
    X_69_1    PREC_61_69_1  -1
    X_69_1    PREC_68_69_1  -1
    X_69_1    PREC_81_69_1  -1
    X_69_1    PREC_86_69_1  -1
    X_70_1    OBJ       26595.6208286415
    X_70_1    R4101     922
    X_70_1    ORD_70_0  -1
    X_70_1    ORD_70_1  1
    X_70_1    PREC_70_71_1  1
    X_71_1    OBJ       268003.087735343
    X_71_1    R4101     9491
    X_71_1    ORD_71_0  -1
    X_71_1    ORD_71_1  1
    X_71_1    PREC_67_71_1  -1
    X_71_1    PREC_70_71_1  -1
    X_71_1    PREC_85_71_1  -1
    X_72_1    OBJ       10937.1081443998
    X_72_1    R4101     369
    X_72_1    ORD_72_0  -1
    X_72_1    ORD_72_1  1
    X_72_1    PREC_72_73_1  1
    X_72_1    PREC_72_49_1  1
    X_72_1    PREC_72_79_1  1
    X_73_1    OBJ       139082.711166262
    X_73_1    R4101     4792
    X_73_1    ORD_73_0  -1
    X_73_1    ORD_73_1  1
    X_73_1    PREC_46_73_1  -1
    X_73_1    PREC_72_73_1  -1
    X_73_1    PREC_73_74_1  1
    X_73_1    PREC_76_73_1  -1
    X_74_1    OBJ       422006.570232463
    X_74_1    R4101     14927
    X_74_1    ORD_74_0  -1
    X_74_1    ORD_74_1  1
    X_74_1    PREC_19_74_1  -1
    X_74_1    PREC_47_74_1  -1
    X_74_1    PREC_73_74_1  -1
    X_74_1    PREC_77_74_1  -1
    X_74_1    PREC_81_74_1  -1
    X_76_1    OBJ       122004.664414046
    X_76_1    R4110     185
    X_76_1    R4101     7.4640000000000009e+03
    X_76_1    ORD_76_1  1
    X_76_1    PREC_76_77_1  1
    X_76_1    PREC_76_55_1  1
    X_76_1    PREC_76_73_1  1
    X_76_1    PREC_76_83_1  1
    X_76_1    PREC_76_29_1  1
    X_76_1    PREC_76_49_1  1
    X_76_1    PREC_76_63_1  1
    X_76_1    PREC_76_88_1  1
    X_77_1    OBJ       351168.687517093
    X_77_1    R4110     1467
    X_77_1    R4101     19341
    X_77_1    ORD_77_0  -1
    X_77_1    ORD_77_1  1
    X_77_1    PREC_76_77_1  -1
    X_77_1    PREC_77_78_1  1
    X_77_1    PREC_77_56_1  1
    X_77_1    PREC_77_74_1  1
    X_77_1    PREC_77_84_1  1
    X_78_1    OBJ       575867.128478786
    X_78_1    R4110     4301
    X_78_1    R4101     3.1058999999999996e+04
    X_78_1    ORD_78_0  -1
    X_78_1    ORD_78_1  1
    X_78_1    PREC_77_78_1  -1
    X_78_1    PREC_78_79_1  1
    X_78_1    PREC_81_78_1  -1
    X_79_1    OBJ       986591.690729139
    X_79_1    R4110     2568
    X_79_1    R4101     41061
    X_79_1    ORD_79_0  -1
    X_79_1    ORD_79_1  1
    X_79_1    PREC_46_79_1  -1
    X_79_1    PREC_54_79_1  -1
    X_79_1    PREC_72_79_1  -1
    X_79_1    PREC_78_79_1  -1
    X_79_1    PREC_82_79_1  -1
    X_79_1    PREC_85_79_1  -1
    X_81_1    OBJ       -1574534.71735623
    X_81_1    R4110     4008
    X_81_1    R4101     8246
    X_81_1    ORD_81_1  1
    X_81_1    PREC_81_82_1  1
    X_81_1    PREC_81_62_1  1
    X_81_1    PREC_81_78_1  1
    X_81_1    PREC_81_87_1  1
    X_81_1    PREC_81_36_1  1
    X_81_1    PREC_81_56_1  1
    X_81_1    PREC_81_69_1  1
    X_81_1    PREC_81_74_1  1
    X_81_1    PREC_81_89_1  1
    X_82_1    OBJ       27445.6598076523
    X_82_1    R4110     5738
    X_82_1    R4101     19228
    X_82_1    ORD_82_0  -1
    X_82_1    ORD_82_1  1
    X_82_1    PREC_81_82_1  -1
    X_82_1    PREC_82_83_1  1
    X_82_1    PREC_82_63_1  1
    X_82_1    PREC_82_79_1  1
    X_82_1    PREC_82_88_1  1
    X_83_1    OBJ       269405.807185577
    X_83_1    R4110     8309
    X_83_1    R4101     29026
    X_83_1    ORD_83_0  -1
    X_83_1    ORD_83_1  1
    X_83_1    PREC_76_83_1  -1
    X_83_1    PREC_82_83_1  -1
    X_83_1    PREC_83_84_1  1
    X_83_1    PREC_85_83_1  -1
    X_84_1    OBJ       278061.532015768
    X_84_1    R4110     9257
    X_84_1    R4101     36137
    X_84_1    ORD_84_0  -1
    X_84_1    ORD_84_1  1
    X_84_1    PREC_61_84_1  -1
    X_84_1    PREC_77_84_1  -1
    X_84_1    PREC_83_84_1  -1
    X_84_1    PREC_86_84_1  -1
    X_85_1    OBJ       -221581.331110955
    X_85_1    R4110     1068
    X_85_1    R4101     1437
    X_85_1    ORD_85_1  1
    X_85_1    PREC_85_86_1  1
    X_85_1    PREC_85_68_1  1
    X_85_1    PREC_85_83_1  1
    X_85_1    PREC_85_42_1  1
    X_85_1    PREC_85_63_1  1
    X_85_1    PREC_85_71_1  1
    X_85_1    PREC_85_79_1  1
    X_86_1    OBJ       43734.1201351171
    X_86_1    R4110     2419
    X_86_1    R4101     6507
    X_86_1    ORD_86_0  -1
    X_86_1    ORD_86_1  1
    X_86_1    PREC_85_86_1  -1
    X_86_1    PREC_86_87_1  1
    X_86_1    PREC_86_69_1  1
    X_86_1    PREC_86_84_1  1
    X_86_1    PREC_86_89_1  1
    X_87_1    OBJ       342570.913065902
    X_87_1    R4110     3.0490000000000005e+03
    X_87_1    R4101     17312
    X_87_1    ORD_87_0  -1
    X_87_1    ORD_87_1  1
    X_87_1    PREC_81_87_1  -1
    X_87_1    PREC_86_87_1  -1
    X_87_1    PREC_87_88_1  1
    X_88_1    OBJ       739358.259036233
    X_88_1    R4110     2188
    X_88_1    R4101     30320
    X_88_1    ORD_88_0  -1
    X_88_1    ORD_88_1  1
    X_88_1    PREC_67_88_1  -1
    X_88_1    PREC_76_88_1  -1
    X_88_1    PREC_82_88_1  -1
    X_88_1    PREC_87_88_1  -1
    X_89_1    OBJ       20712.1060114776
    X_89_1    R4101     738
    X_89_1    ORD_89_0  -1
    X_89_1    ORD_89_1  1
    X_89_1    PREC_81_89_1  -1
    X_89_1    PREC_86_89_1  -1
    X_0_2     OBJ       2366.03744804452
    X_0_2     R4102     93
    X_0_2     ORD_0_1   -1
    X_0_2     ORD_0_2   1
    X_0_2     PREC_0_1_2  1
    X_0_2     PREC_0_7_2  1
    X_0_2     PREC_0_22_2  1
    X_1_2     OBJ       78765.805666444
    X_1_2     R4102     3133
    X_1_2     ORD_1_1   -1
    X_1_2     ORD_1_2   1
    X_1_2     PREC_0_1_2  -1
    X_1_2     PREC_1_2_2  1
    X_1_2     PREC_4_1_2  -1
    X_1_2     PREC_19_1_2  -1
    X_2_2     OBJ       293433.408538388
    X_2_2     R4102     1.1977999999999998e+04
    X_2_2     ORD_2_1   -1
    X_2_2     ORD_2_2   1
    X_2_2     PREC_1_2_2  -1
    X_2_2     PREC_5_2_2  -1
    X_2_2     PREC_9_2_2  -1
    X_2_2     PREC_20_2_2  -1
    X_2_2     PREC_26_2_2  -1
    X_2_2     PREC_46_2_2  -1
    X_4_2     OBJ       154014.610704291
    X_4_2     R4102     5805
    X_4_2     ORD_4_1   -1
    X_4_2     ORD_4_2   1
    X_4_2     PREC_4_5_2  1
    X_4_2     PREC_4_1_2  1
    X_4_2     PREC_4_11_2  1
    X_4_2     PREC_4_28_2  1
    X_4_2     PREC_4_16_2  1
    X_4_2     PREC_4_22_2  1
    X_4_2     PREC_4_36_2  1
    X_4_2     PREC_4_56_2  1
    X_5_2     OBJ       441484.994126581
    X_5_2     R4102     17046
    X_5_2     ORD_5_1   -1
    X_5_2     ORD_5_2   1
    X_5_2     PREC_4_5_2  -1
    X_5_2     PREC_5_6_2  1
    X_5_2     PREC_5_2_2  1
    X_5_2     PREC_5_12_2  1
    X_5_2     PREC_5_29_2  1
    X_6_2     OBJ       753090.902804916
    X_6_2     R4111     277
    X_6_2     R4102     30590
    X_6_2     ORD_6_1   -1
    X_6_2     ORD_6_2   1
    X_6_2     PREC_5_6_2  -1
    X_6_2     PREC_6_7_2  1
    X_6_2     PREC_9_6_2  -1
    X_6_2     PREC_26_6_2  -1
    X_7_2     OBJ       869785.313326351
    X_7_2     R4111     2823
    X_7_2     R4102     43176
    X_7_2     ORD_7_1   -1
    X_7_2     ORD_7_2   1
    X_7_2     PREC_0_7_2  -1
    X_7_2     PREC_6_7_2  -1
    X_7_2     PREC_10_7_2  -1
    X_7_2     PREC_13_7_2  -1
    X_7_2     PREC_19_7_2  -1
    X_7_2     PREC_27_7_2  -1
    X_7_2     PREC_53_7_2  -1
    X_9_2     OBJ       301090.996389523
    X_9_2     R4102     11333
    X_9_2     ORD_9_1   -1
    X_9_2     ORD_9_2   1
    X_9_2     PREC_9_10_2  1
    X_9_2     PREC_9_6_2  1
    X_9_2     PREC_9_15_2  1
    X_9_2     PREC_9_35_2  1
    X_9_2     PREC_9_2_2  1
    X_9_2     PREC_9_17_2  1
    X_9_2     PREC_9_29_2  1
    X_9_2     PREC_9_42_2  1
    X_9_2     PREC_9_63_2  1
    X_10_2    OBJ       625506.282887632
    X_10_2    R4102     24141
    X_10_2    ORD_10_1  -1
    X_10_2    ORD_10_2  1
    X_10_2    PREC_9_10_2  -1
    X_10_2    PREC_10_11_2  1
    X_10_2    PREC_10_7_2  1
    X_10_2    PREC_10_16_2  1
    X_10_2    PREC_10_36_2  1
    X_11_2    OBJ       905561.642192323
    X_11_2    R4111     369
    X_11_2    R4102     36463
    X_11_2    ORD_11_1  -1
    X_11_2    ORD_11_2  1
    X_11_2    PREC_4_11_2  -1
    X_11_2    PREC_10_11_2  -1
    X_11_2    PREC_11_12_2  1
    X_11_2    PREC_13_11_2  -1
    X_12_2    OBJ       951111.224778437
    X_12_2    R4111     4191
    X_12_2    R4102     47497
    X_12_2    ORD_12_1  -1
    X_12_2    ORD_12_2  1
    X_12_2    PREC_5_12_2  -1
    X_12_2    PREC_11_12_2  -1
    X_12_2    PREC_14_12_2  -1
    X_12_2    PREC_26_12_2  -1
    X_12_2    PREC_34_12_2  -1
    X_12_2    PREC_39_12_2  -1
    X_13_2    OBJ       9735.86281558129
    X_13_2    R4102     369
    X_13_2    ORD_13_1  -1
    X_13_2    ORD_13_2  1
    X_13_2    PREC_13_14_2  1
    X_13_2    PREC_13_11_2  1
    X_13_2    PREC_13_41_2  1
    X_13_2    PREC_13_7_2  1
    X_13_2    PREC_13_36_2  1
    X_13_2    PREC_13_44_2  1
    X_13_2    PREC_13_69_2  1
    X_14_2    OBJ       95375.869167984
    X_14_2    R4102     3686
    X_14_2    ORD_14_1  -1
    X_14_2    ORD_14_2  1
    X_14_2    PREC_13_14_2  -1
    X_14_2    PREC_14_15_2  1
    X_14_2    PREC_14_12_2  1
    X_14_2    PREC_14_17_2  1
    X_14_2    PREC_14_42_2  1
    X_15_2    OBJ       301746.421642336
    X_15_2    R4102     1.1977999999999998e+04
    X_15_2    ORD_15_1  -1
    X_15_2    ORD_15_2  1
    X_15_2    PREC_9_15_2  -1
    X_15_2    PREC_14_15_2  -1
    X_15_2    PREC_15_16_2  1
    X_15_2    PREC_39_15_2  -1
    X_16_2    OBJ       597759.802595471
    X_16_2    R4111     607
    X_16_2    R4102     25760
    X_16_2    ORD_16_1  -1
    X_16_2    ORD_16_2  1
    X_16_2    PREC_4_16_2  -1
    X_16_2    PREC_10_16_2  -1
    X_16_2    PREC_15_16_2  -1
    X_16_2    PREC_40_16_2  -1
    X_16_2    PREC_66_16_2  -1
    X_17_2    OBJ       2238.1622895208
    X_17_2    R4102     93
    X_17_2    ORD_17_1  -1
    X_17_2    ORD_17_2  1
    X_17_2    PREC_9_17_2  -1
    X_17_2    PREC_14_17_2  -1
    X_17_2    PREC_39_17_2  -1
    X_19_2    OBJ       183477.862714243
    X_19_2    R4102     6911
    X_19_2    ORD_19_1  -1
    X_19_2    ORD_19_2  1
    X_19_2    PREC_19_20_2  1
    X_19_2    PREC_19_1_2  1
    X_19_2    PREC_19_28_2  1
    X_19_2    PREC_19_48_2  1
    X_19_2    PREC_19_7_2  1
    X_19_2    PREC_19_36_2  1
    X_19_2    PREC_19_56_2  1
    X_19_2    PREC_19_74_2  1
    X_20_2    OBJ       436656.622469324
    X_20_2    R4111     553
    X_20_2    R4102     18152
    X_20_2    ORD_20_1  -1
    X_20_2    ORD_20_2  1
    X_20_2    PREC_19_20_2  -1
    X_20_2    PREC_20_21_2  1
    X_20_2    PREC_20_2_2  1
    X_20_2    PREC_20_29_2  1
    X_20_2    PREC_20_49_2  1
    X_21_2    OBJ       656116.073632353
    X_21_2    R4111     2380
    X_21_2    R4102     30813
    X_21_2    ORD_21_1  -1
    X_21_2    ORD_21_2  1
    X_21_2    PREC_20_21_2  -1
    X_21_2    PREC_21_22_2  1
    X_21_2    PREC_26_21_2  -1
    X_21_2    PREC_46_21_2  -1
    X_22_2    OBJ       706587.027991014
    X_22_2    R4111     5698
    X_22_2    R4102     41723
    X_22_2    ORD_22_1  -1
    X_22_2    ORD_22_2  1
    X_22_2    PREC_0_22_2  -1
    X_22_2    PREC_4_22_2  -1
    X_22_2    PREC_21_22_2  -1
    X_22_2    PREC_27_22_2  -1
    X_22_2    PREC_47_22_2  -1
    X_22_2    PREC_53_22_2  -1
    X_26_2    OBJ       -14508634.805032
    X_26_2    R4111     32478
    X_26_2    R4102     43534
    X_26_2    ORD_26_2  1
    X_26_2    PREC_26_27_2  1
    X_26_2    PREC_26_6_2  1
    X_26_2    PREC_26_21_2  1
    X_26_2    PREC_26_35_2  1
    X_26_2    PREC_26_55_2  1
    X_26_2    PREC_26_2_2  1
    X_26_2    PREC_26_12_2  1
    X_26_2    PREC_26_42_2  1
    X_26_2    PREC_26_49_2  1
    X_26_2    PREC_26_63_2  1
    X_26_2    PREC_26_79_2  1
    X_27_2    OBJ       -4982270.01781703
    X_27_2    R4111     23762
    X_27_2    R4102     42198
    X_27_2    ORD_27_1  -1
    X_27_2    ORD_27_2  1
    X_27_2    PREC_26_27_2  -1
    X_27_2    PREC_27_28_2  1
    X_27_2    PREC_27_7_2  1
    X_27_2    PREC_27_22_2  1
    X_27_2    PREC_27_36_2  1
    X_27_2    PREC_27_56_2  1
    X_28_2    OBJ       -2765121.41665982
    X_28_2    R4111     30935
    X_28_2    R4102     36014
    X_28_2    ORD_28_1  -1
    X_28_2    ORD_28_2  1
    X_28_2    PREC_4_28_2  -1
    X_28_2    PREC_19_28_2  -1
    X_28_2    PREC_27_28_2  -1
    X_28_2    PREC_28_29_2  1
    X_28_2    PREC_53_28_2  -1
    X_29_2    OBJ       -1774664.89683732
    X_29_2    R4111     19875
    X_29_2    R4102     21258
    X_29_2    ORD_29_1  -1
    X_29_2    ORD_29_2  1
    X_29_2    PREC_5_29_2  -1
    X_29_2    PREC_9_29_2  -1
    X_29_2    PREC_20_29_2  -1
    X_29_2    PREC_28_29_2  -1
    X_29_2    PREC_34_29_2  -1
    X_29_2    PREC_39_29_2  -1
    X_29_2    PREC_46_29_2  -1
    X_29_2    PREC_54_29_2  -1
    X_29_2    PREC_76_29_2  -1
    X_34_2    OBJ       -1824015.85913591
    X_34_2    R4111     15678
    X_34_2    R4102     38248
    X_34_2    ORD_34_1  -1
    X_34_2    ORD_34_2  1
    X_34_2    PREC_34_35_2  1
    X_34_2    PREC_34_12_2  1
    X_34_2    PREC_34_29_2  1
    X_34_2    PREC_34_42_2  1
    X_34_2    PREC_34_63_2  1
    X_35_2    OBJ       117003.167434044
    X_35_2    R4111     11088
    X_35_2    R4102     33782
    X_35_2    ORD_35_1  -1
    X_35_2    ORD_35_2  1
    X_35_2    PREC_9_35_2  -1
    X_35_2    PREC_26_35_2  -1
    X_35_2    PREC_34_35_2  -1
    X_35_2    PREC_35_36_2  1
    X_35_2    PREC_39_35_2  -1
    X_36_2    OBJ       89985.2458808816
    X_36_2    R4111     5880
    X_36_2    R4102     18164
    X_36_2    ORD_36_1  -1
    X_36_2    ORD_36_2  1
    X_36_2    PREC_4_36_2  -1
    X_36_2    PREC_10_36_2  -1
    X_36_2    PREC_13_36_2  -1
    X_36_2    PREC_19_36_2  -1
    X_36_2    PREC_27_36_2  -1
    X_36_2    PREC_35_36_2  -1
    X_36_2    PREC_40_36_2  -1
    X_36_2    PREC_53_36_2  -1
    X_36_2    PREC_61_36_2  -1
    X_36_2    PREC_66_36_2  -1
    X_36_2    PREC_81_36_2  -1
    X_39_2    OBJ       -844596.162696988
    X_39_2    R4111     5244
    X_39_2    R4102     22279
    X_39_2    ORD_39_2  1
    X_39_2    PREC_39_40_2  1
    X_39_2    PREC_39_15_2  1
    X_39_2    PREC_39_35_2  1
    X_39_2    PREC_39_43_2  1
    X_39_2    PREC_39_68_2  1
    X_39_2    PREC_39_12_2  1
    X_39_2    PREC_39_17_2  1
    X_39_2    PREC_39_29_2  1
    X_39_2    PREC_39_63_2  1
    X_39_2    PREC_39_71_2  1
    X_39_2    PREC_39_88_2  1
    X_40_2    OBJ       619437.418088087
    X_40_2    R4111     3.1210000000000005e+03
    X_40_2    R4102     33093
    X_40_2    ORD_40_1  -1
    X_40_2    ORD_40_2  1
    X_40_2    PREC_39_40_2  -1
    X_40_2    PREC_40_41_2  1
    X_40_2    PREC_40_16_2  1
    X_40_2    PREC_40_36_2  1
    X_40_2    PREC_40_44_2  1
    X_40_2    PREC_40_69_2  1
    X_41_2    OBJ       537937.131419833
    X_41_2    R4111     7125
    X_41_2    R4102     42369
    X_41_2    ORD_41_1  -1
    X_41_2    ORD_41_2  1
    X_41_2    PREC_13_41_2  -1
    X_41_2    PREC_40_41_2  -1
    X_41_2    PREC_41_42_2  1
    X_41_2    PREC_66_41_2  -1
    X_42_2    OBJ       438065.071043702
    X_42_2    R4111     10976
    X_42_2    R4102     41057
    X_42_2    ORD_42_1  -1
    X_42_2    ORD_42_2  1
    X_42_2    PREC_9_42_2  -1
    X_42_2    PREC_14_42_2  -1
    X_42_2    PREC_26_42_2  -1
    X_42_2    PREC_34_42_2  -1
    X_42_2    PREC_41_42_2  -1
    X_42_2    PREC_67_42_2  -1
    X_42_2    PREC_85_42_2  -1
    X_43_2    OBJ       34595.0018418073
    X_43_2    R4102     1383
    X_43_2    ORD_43_1  -1
    X_43_2    ORD_43_2  1
    X_43_2    PREC_39_43_2  -1
    X_43_2    PREC_43_44_2  1
    X_44_2    OBJ       243683.205073225
    X_44_2    R4102     9951
    X_44_2    ORD_44_1  -1
    X_44_2    ORD_44_2  1
    X_44_2    PREC_13_44_2  -1
    X_44_2    PREC_40_44_2  -1
    X_44_2    PREC_43_44_2  -1
    X_44_2    PREC_66_44_2  -1
    X_46_2    OBJ       215371.002997664
    X_46_2    R4102     8.1089999999999991e+03
    X_46_2    ORD_46_1  -1
    X_46_2    ORD_46_2  1
    X_46_2    PREC_46_47_2  1
    X_46_2    PREC_46_21_2  1
    X_46_2    PREC_46_55_2  1
    X_46_2    PREC_46_73_2  1
    X_46_2    PREC_46_2_2  1
    X_46_2    PREC_46_29_2  1
    X_46_2    PREC_46_63_2  1
    X_46_2    PREC_46_79_2  1
    X_47_2    OBJ       500488.015032387
    X_47_2    R4111     553
    X_47_2    R4102     20455
    X_47_2    ORD_47_1  -1
    X_47_2    ORD_47_2  1
    X_47_2    PREC_46_47_2  -1
    X_47_2    PREC_47_48_2  1
    X_47_2    PREC_47_22_2  1
    X_47_2    PREC_47_56_2  1
    X_47_2    PREC_47_74_2  1
    X_48_2    OBJ       656038.081931191
    X_48_2    R4111     3266
    X_48_2    R4102     3.2284999999999996e+04
    X_48_2    ORD_48_1  -1
    X_48_2    ORD_48_2  1
    X_48_2    PREC_19_48_2  -1
    X_48_2    PREC_47_48_2  -1
    X_48_2    PREC_48_49_2  1
    X_48_2    PREC_53_48_2  -1
    X_49_2    OBJ       547378.204690867
    X_49_2    R4111     8207
    X_49_2    R4102     43721
    X_49_2    ORD_49_1  -1
    X_49_2    ORD_49_2  1
    X_49_2    PREC_20_49_2  -1
    X_49_2    PREC_26_49_2  -1
    X_49_2    PREC_48_49_2  -1
    X_49_2    PREC_54_49_2  -1
    X_49_2    PREC_72_49_2  -1
    X_49_2    PREC_76_49_2  -1
    X_53_2    OBJ       -23048947.1310557
    X_53_2    R4111     37735
    X_53_2    R4102     43079
    X_53_2    ORD_53_2  1
    X_53_2    PREC_53_54_2  1
    X_53_2    PREC_53_28_2  1
    X_53_2    PREC_53_48_2  1
    X_53_2    PREC_53_62_2  1
    X_53_2    PREC_53_78_2  1
    X_53_2    PREC_53_7_2  1
    X_53_2    PREC_53_22_2  1
    X_53_2    PREC_53_36_2  1
    X_53_2    PREC_53_69_2  1
    X_53_2    PREC_53_74_2  1
    X_53_2    PREC_53_84_2  1
    X_54_2    OBJ       -11761737.7673078
    X_54_2    R4111     38023
    X_54_2    R4102     41064
    X_54_2    ORD_54_1  -1
    X_54_2    ORD_54_2  1
    X_54_2    PREC_53_54_2  -1
    X_54_2    PREC_54_55_2  1
    X_54_2    PREC_54_29_2  1
    X_54_2    PREC_54_49_2  1
    X_54_2    PREC_54_63_2  1
    X_54_2    PREC_54_79_2  1
    X_55_2    OBJ       -1597563.87505068
    X_55_2    R4111     31303
    X_55_2    R4102     34218
    X_55_2    ORD_55_1  -1
    X_55_2    ORD_55_2  1
    X_55_2    PREC_26_55_2  -1
    X_55_2    PREC_46_55_2  -1
    X_55_2    PREC_54_55_2  -1
    X_55_2    PREC_55_56_2  1
    X_55_2    PREC_76_55_2  -1
    X_56_2    OBJ       -726640.004342739
    X_56_2    R4111     18643
    X_56_2    R4102     22893
    X_56_2    ORD_56_1  -1
    X_56_2    ORD_56_2  1
    X_56_2    PREC_4_56_2  -1
    X_56_2    PREC_19_56_2  -1
    X_56_2    PREC_27_56_2  -1
    X_56_2    PREC_47_56_2  -1
    X_56_2    PREC_55_56_2  -1
    X_56_2    PREC_61_56_2  -1
    X_56_2    PREC_66_56_2  -1
    X_56_2    PREC_77_56_2  -1
    X_56_2    PREC_81_56_2  -1
    X_61_2    OBJ       -1513327.89282687
    X_61_2    R4111     31179
    X_61_2    R4102     36027
    X_61_2    ORD_61_1  -1
    X_61_2    ORD_61_2  1
    X_61_2    PREC_61_62_2  1
    X_61_2    PREC_61_36_2  1
    X_61_2    PREC_61_56_2  1
    X_61_2    PREC_61_69_2  1
    X_61_2    PREC_61_84_2  1
    X_62_2    OBJ       -167815.064379542
    X_62_2    R4111     16429
    X_62_2    R4102     33437
    X_62_2    ORD_62_1  -1
    X_62_2    ORD_62_2  1
    X_62_2    PREC_53_62_2  -1
    X_62_2    PREC_61_62_2  -1
    X_62_2    PREC_62_63_2  1
    X_62_2    PREC_66_62_2  -1
    X_62_2    PREC_81_62_2  -1
    X_63_2    OBJ       105098.545400054
    X_63_2    R4111     5519
    X_63_2    R4102     15934
    X_63_2    ORD_63_1  -1
    X_63_2    ORD_63_2  1
    X_63_2    PREC_9_63_2  -1
    X_63_2    PREC_26_63_2  -1
    X_63_2    PREC_34_63_2  -1
    X_63_2    PREC_39_63_2  -1
    X_63_2    PREC_46_63_2  -1
    X_63_2    PREC_54_63_2  -1
    X_63_2    PREC_62_63_2  -1
    X_63_2    PREC_67_63_2  -1
    X_63_2    PREC_76_63_2  -1
    X_63_2    PREC_82_63_2  -1
    X_63_2    PREC_85_63_2  -1
    X_66_2    OBJ       -3412971.23750739
    X_66_2    R4111     16431
    X_66_2    R4102     19563
    X_66_2    ORD_66_2  1
    X_66_2    PREC_66_67_2  1
    X_66_2    PREC_66_41_2  1
    X_66_2    PREC_66_62_2  1
    X_66_2    PREC_66_70_2  1
    X_66_2    PREC_66_87_2  1
    X_66_2    PREC_66_16_2  1
    X_66_2    PREC_66_36_2  1
    X_66_2    PREC_66_44_2  1
    X_66_2    PREC_66_56_2  1
    X_66_2    PREC_66_84_2  1
    X_66_2    PREC_66_89_2  1
    X_67_2    OBJ       -1010148.25318909
    X_67_2    R4111     18823
    X_67_2    R4102     27348
    X_67_2    ORD_67_1  -1
    X_67_2    ORD_67_2  1
    X_67_2    PREC_66_67_2  -1
    X_67_2    PREC_67_68_2  1
    X_67_2    PREC_67_42_2  1
    X_67_2    PREC_67_63_2  1
    X_67_2    PREC_67_71_2  1
    X_67_2    PREC_67_88_2  1
    X_68_2    OBJ       -551785.473214152
    X_68_2    R4111     19673
    X_68_2    R4102     37161
    X_68_2    ORD_68_1  -1
    X_68_2    ORD_68_2  1
    X_68_2    PREC_39_68_2  -1
    X_68_2    PREC_67_68_2  -1
    X_68_2    PREC_68_69_2  1
    X_68_2    PREC_85_68_2  -1
    X_69_2    OBJ       237697.450451337
    X_69_2    R4111     12135
    X_69_2    R4102     34991
    X_69_2    ORD_69_1  -1
    X_69_2    ORD_69_2  1
    X_69_2    PREC_13_69_2  -1
    X_69_2    PREC_40_69_2  -1
    X_69_2    PREC_53_69_2  -1
    X_69_2    PREC_61_69_2  -1
    X_69_2    PREC_68_69_2  -1
    X_69_2    PREC_81_69_2  -1
    X_69_2    PREC_86_69_2  -1
    X_70_2    OBJ       23052.6638390214
    X_70_2    R4102     922
    X_70_2    ORD_70_1  -1
    X_70_2    ORD_70_2  1
    X_70_2    PREC_66_70_2  -1
    X_70_2    PREC_70_71_2  1
    X_71_2    OBJ       232300.841149352
    X_71_2    R4102     9491
    X_71_2    ORD_71_1  -1
    X_71_2    ORD_71_2  1
    X_71_2    PREC_39_71_2  -1
    X_71_2    PREC_67_71_2  -1
    X_71_2    PREC_70_71_2  -1
    X_71_2    PREC_85_71_2  -1
    X_72_2    OBJ       9480.11249853383
    X_72_2    R4102     369
    X_72_2    ORD_72_1  -1
    X_72_2    ORD_72_2  1
    X_72_2    PREC_72_73_2  1
    X_72_2    PREC_72_49_2  1
    X_72_2    PREC_72_79_2  1
    X_73_2    OBJ       120554.696090519
    X_73_2    R4102     4792
    X_73_2    ORD_73_1  -1
    X_73_2    ORD_73_2  1
    X_73_2    PREC_46_73_2  -1
    X_73_2    PREC_72_73_2  -1
    X_73_2    PREC_73_74_2  1
    X_73_2    PREC_76_73_2  -1
    X_74_2    OBJ       365788.626033901
    X_74_2    R4102     14927
    X_74_2    ORD_74_1  -1
    X_74_2    ORD_74_2  1
    X_74_2    PREC_19_74_2  -1
    X_74_2    PREC_47_74_2  -1
    X_74_2    PREC_53_74_2  -1
    X_74_2    PREC_73_74_2  -1
    X_74_2    PREC_77_74_2  -1
    X_74_2    PREC_81_74_2  -1
    X_76_2    OBJ       105751.715053056
    X_76_2    R4111     185
    X_76_2    R4102     7.4640000000000009e+03
    X_76_2    ORD_76_1  -1
    X_76_2    ORD_76_2  1
    X_76_2    PREC_76_77_2  1
    X_76_2    PREC_76_55_2  1
    X_76_2    PREC_76_73_2  1
    X_76_2    PREC_76_83_2  1
    X_76_2    PREC_76_29_2  1
    X_76_2    PREC_76_49_2  1
    X_76_2    PREC_76_63_2  1
    X_76_2    PREC_76_88_2  1
    X_77_2    OBJ       304387.468759661
    X_77_2    R4111     1467
    X_77_2    R4102     19341
    X_77_2    ORD_77_1  -1
    X_77_2    ORD_77_2  1
    X_77_2    PREC_76_77_2  -1
    X_77_2    PREC_77_78_2  1
    X_77_2    PREC_77_56_2  1
    X_77_2    PREC_77_74_2  1
    X_77_2    PREC_77_84_2  1
    X_78_2    OBJ       499152.526436516
    X_78_2    R4111     4301
    X_78_2    R4102     3.1058999999999996e+04
    X_78_2    ORD_78_1  -1
    X_78_2    ORD_78_2  1
    X_78_2    PREC_53_78_2  -1
    X_78_2    PREC_77_78_2  -1
    X_78_2    PREC_78_79_2  1
    X_78_2    PREC_81_78_2  -1
    X_79_2    OBJ       855162.086243069
    X_79_2    R4111     2568
    X_79_2    R4102     41061
    X_79_2    ORD_79_1  -1
    X_79_2    ORD_79_2  1
    X_79_2    PREC_26_79_2  -1
    X_79_2    PREC_46_79_2  -1
    X_79_2    PREC_54_79_2  -1
    X_79_2    PREC_72_79_2  -1
    X_79_2    PREC_78_79_2  -1
    X_79_2    PREC_82_79_2  -1
    X_79_2    PREC_85_79_2  -1
    X_81_2    OBJ       -1364781.81035701
    X_81_2    R4111     4008
    X_81_2    R4102     8246
    X_81_2    ORD_81_1  -1
    X_81_2    ORD_81_2  1
    X_81_2    PREC_81_82_2  1
    X_81_2    PREC_81_62_2  1
    X_81_2    PREC_81_78_2  1
    X_81_2    PREC_81_87_2  1
    X_81_2    PREC_81_36_2  1
    X_81_2    PREC_81_56_2  1
    X_81_2    PREC_81_69_2  1
    X_81_2    PREC_81_74_2  1
    X_81_2    PREC_81_89_2  1
    X_82_2    OBJ       23789.4641927134
    X_82_2    R4111     5738
    X_82_2    R4102     19228
    X_82_2    ORD_82_1  -1
    X_82_2    ORD_82_2  1
    X_82_2    PREC_81_82_2  -1
    X_82_2    PREC_82_83_2  1
    X_82_2    PREC_82_63_2  1
    X_82_2    PREC_82_79_2  1
    X_82_2    PREC_82_88_2  1
    X_83_2    OBJ       233516.696201394
    X_83_2    R4111     8309
    X_83_2    R4102     29026
    X_83_2    ORD_83_1  -1
    X_83_2    ORD_83_2  1
    X_83_2    PREC_76_83_2  -1
    X_83_2    PREC_82_83_2  -1
    X_83_2    PREC_83_84_2  1
    X_83_2    PREC_85_83_2  -1
    X_84_2    OBJ       241019.341696271
    X_84_2    R4111     9257
    X_84_2    R4102     36137
    X_84_2    ORD_84_1  -1
    X_84_2    ORD_84_2  1
    X_84_2    PREC_53_84_2  -1
    X_84_2    PREC_61_84_2  -1
    X_84_2    PREC_66_84_2  -1
    X_84_2    PREC_77_84_2  -1
    X_84_2    PREC_83_84_2  -1
    X_84_2    PREC_86_84_2  -1
    X_85_2    OBJ       -192063.196118467
    X_85_2    R4111     1068
    X_85_2    R4102     1437
    X_85_2    ORD_85_1  -1
    X_85_2    ORD_85_2  1
    X_85_2    PREC_85_86_2  1
    X_85_2    PREC_85_68_2  1
    X_85_2    PREC_85_83_2  1
    X_85_2    PREC_85_42_2  1
    X_85_2    PREC_85_63_2  1
    X_85_2    PREC_85_71_2  1
    X_85_2    PREC_85_79_2  1
    X_86_2    OBJ       37908.0441951741
    X_86_2    R4111     2419
    X_86_2    R4102     6507
    X_86_2    ORD_86_1  -1
    X_86_2    ORD_86_2  1
    X_86_2    PREC_85_86_2  -1
    X_86_2    PREC_86_87_2  1
    X_86_2    PREC_86_69_2  1
    X_86_2    PREC_86_84_2  1
    X_86_2    PREC_86_89_2  1
    X_87_2    OBJ       296935.053737501
    X_87_2    R4111     3.0490000000000005e+03
    X_87_2    R4102     17312
    X_87_2    ORD_87_1  -1
    X_87_2    ORD_87_2  1
    X_87_2    PREC_66_87_2  -1
    X_87_2    PREC_81_87_2  -1
    X_87_2    PREC_86_87_2  -1
    X_87_2    PREC_87_88_2  1
    X_88_2    OBJ       640864.054724795
    X_88_2    R4111     2188
    X_88_2    R4102     30320
    X_88_2    ORD_88_1  -1
    X_88_2    ORD_88_2  1
    X_88_2    PREC_39_88_2  -1
    X_88_2    PREC_67_88_2  -1
    X_88_2    PREC_76_88_2  -1
    X_88_2    PREC_82_88_2  -1
    X_88_2    PREC_87_88_2  -1
    X_89_2    OBJ       17952.9261737169
    X_89_2    R4102     738
    X_89_2    ORD_89_1  -1
    X_89_2    ORD_89_2  1
    X_89_2    PREC_66_89_2  -1
    X_89_2    PREC_81_89_2  -1
    X_89_2    PREC_86_89_2  -1
    X_0_3     OBJ       2050.84386906161
    X_0_3     R4103     93
    X_0_3     ORD_0_2   -1
    X_0_3     ORD_0_3   1
    X_0_3     PREC_0_1_3  1
    X_0_3     PREC_0_7_3  1
    X_0_3     PREC_0_22_3  1
    X_0_3     PREC_3_0_3  -1
    X_0_3     PREC_18_0_3  -1
    X_1_3     OBJ       68272.9556018781
    X_1_3     R4103     3133
    X_1_3     ORD_1_2   -1
    X_1_3     ORD_1_3   1
    X_1_3     PREC_0_1_3  -1
    X_1_3     PREC_1_2_3  1
    X_1_3     PREC_4_1_3  -1
    X_1_3     PREC_8_1_3  -1
    X_1_3     PREC_19_1_3  -1
    X_1_3     PREC_45_1_3  -1
    X_2_3     OBJ       254343.441341626
    X_2_3     R4103     1.1977999999999998e+04
    X_2_3     ORD_2_2   -1
    X_2_3     ORD_2_3   1
    X_2_3     PREC_1_2_3  -1
    X_2_3     PREC_5_2_3  -1
    X_2_3     PREC_9_2_3  -1
    X_2_3     PREC_20_2_3  -1
    X_2_3     PREC_26_2_3  -1
    X_2_3     PREC_46_2_3  -1
    X_3_3     OBJ       6485.05210690947
    X_3_3     R4103     277
    X_3_3     ORD_3_3   1
    X_3_3     PREC_3_4_3  1
    X_3_3     PREC_3_0_3  1
    X_3_3     PREC_3_10_3  1
    X_3_3     PREC_3_27_3  1
    X_3_3     PREC_3_15_3  1
    X_3_3     PREC_3_21_3  1
    X_3_3     PREC_3_35_3  1
    X_3_3     PREC_3_55_3  1
    X_3_3     PREC_3_42_3  1
    X_3_3     PREC_3_49_3  1
    X_3_3     PREC_3_63_3  1
    X_4_3     OBJ       133497.430638664
    X_4_3     R4103     5805
    X_4_3     ORD_4_2   -1
    X_4_3     ORD_4_3   1
    X_4_3     PREC_3_4_3  -1
    X_4_3     PREC_4_5_3  1
    X_4_3     PREC_4_1_3  1
    X_4_3     PREC_4_11_3  1
    X_4_3     PREC_4_28_3  1
    X_4_3     PREC_4_16_3  1
    X_4_3     PREC_4_22_3  1
    X_4_3     PREC_4_36_3  1
    X_4_3     PREC_4_56_3  1
    X_5_3     OBJ       382672.216044385
    X_5_3     R4103     17046
    X_5_3     ORD_5_2   -1
    X_5_3     ORD_5_3   1
    X_5_3     PREC_4_5_3  -1
    X_5_3     PREC_5_6_3  1
    X_5_3     PREC_5_2_3  1
    X_5_3     PREC_5_12_3  1
    X_5_3     PREC_5_29_3  1
    X_5_3     PREC_8_5_3  -1
    X_6_3     OBJ       652767.293324121
    X_6_3     R4112     277
    X_6_3     R4103     30590
    X_6_3     ORD_6_2   -1
    X_6_3     ORD_6_3   1
    X_6_3     PREC_5_6_3  -1
    X_6_3     PREC_6_7_3  1
    X_6_3     PREC_9_6_3  -1
    X_6_3     PREC_18_6_3  -1
    X_6_3     PREC_26_6_3  -1
    X_7_3     OBJ       753916.164221932
    X_7_3     R4112     2823
    X_7_3     R4103     43176
    X_7_3     ORD_7_2   -1
    X_7_3     ORD_7_3   1
    X_7_3     PREC_0_7_3  -1
    X_7_3     PREC_6_7_3  -1
    X_7_3     PREC_10_7_3  -1
    X_7_3     PREC_13_7_3  -1
    X_7_3     PREC_19_7_3  -1
    X_7_3     PREC_27_7_3  -1
    X_7_3     PREC_33_7_3  -1
    X_7_3     PREC_38_7_3  -1
    X_7_3     PREC_45_7_3  -1
    X_7_3     PREC_53_7_3  -1
    X_8_3     OBJ       21616.7651595083
    X_8_3     R4103     922
    X_8_3     ORD_8_3   1
    X_8_3     PREC_8_9_3  1
    X_8_3     PREC_8_5_3  1
    X_8_3     PREC_8_14_3  1
    X_8_3     PREC_8_34_3  1
    X_8_3     PREC_8_1_3  1
    X_8_3     PREC_8_28_3  1
    X_8_3     PREC_8_41_3  1
    X_8_3     PREC_8_62_3  1
    X_8_3     PREC_8_22_3  1
    X_8_3     PREC_8_44_3  1
    X_8_3     PREC_8_56_3  1
    X_8_3     PREC_8_69_3  1
    X_9_3     OBJ       260980.91747679
    X_9_3     R4103     11333
    X_9_3     ORD_9_2   -1
    X_9_3     ORD_9_3   1
    X_9_3     PREC_8_9_3  -1
    X_9_3     PREC_9_10_3  1
    X_9_3     PREC_9_6_3  1
    X_9_3     PREC_9_15_3  1
    X_9_3     PREC_9_35_3  1
    X_9_3     PREC_9_2_3  1
    X_9_3     PREC_9_17_3  1
    X_9_3     PREC_9_29_3  1
    X_9_3     PREC_9_42_3  1
    X_9_3     PREC_9_63_3  1
    X_10_3    OBJ       542178.961021868
    X_10_3    R4103     24141
    X_10_3    ORD_10_2  -1
    X_10_3    ORD_10_3  1
    X_10_3    PREC_3_10_3  -1
    X_10_3    PREC_9_10_3  -1
    X_10_3    PREC_10_11_3  1
    X_10_3    PREC_10_7_3  1
    X_10_3    PREC_10_16_3  1
    X_10_3    PREC_10_36_3  1
    X_11_3    OBJ       784926.520703377
    X_11_3    R4112     369
    X_11_3    R4103     36463
    X_11_3    ORD_11_2  -1
    X_11_3    ORD_11_3  1
    X_11_3    PREC_4_11_3  -1
    X_11_3    PREC_10_11_3  -1
    X_11_3    PREC_11_12_3  1
    X_11_3    PREC_13_11_3  -1
    X_11_3    PREC_33_11_3  -1
    X_11_3    PREC_38_11_3  -1
    X_12_3    OBJ       824408.179061005
    X_12_3    R4112     4191
    X_12_3    R4103     47497
    X_12_3    ORD_12_2  -1
    X_12_3    ORD_12_3  1
    X_12_3    PREC_5_12_3  -1
    X_12_3    PREC_11_12_3  -1
    X_12_3    PREC_14_12_3  -1
    X_12_3    PREC_18_12_3  -1
    X_12_3    PREC_26_12_3  -1
    X_12_3    PREC_34_12_3  -1
    X_12_3    PREC_39_12_3  -1
    X_12_3    PREC_60_12_3  -1
    X_12_3    PREC_65_12_3  -1
    X_13_3    OBJ       8438.89203100391
    X_13_3    R4103     369
    X_13_3    ORD_13_2  -1
    X_13_3    ORD_13_3  1
    X_13_3    PREC_13_14_3  1
    X_13_3    PREC_13_11_3  1
    X_13_3    PREC_13_41_3  1
    X_13_3    PREC_13_7_3  1
    X_13_3    PREC_13_36_3  1
    X_13_3    PREC_13_44_3  1
    X_13_3    PREC_13_69_3  1
    X_14_3    OBJ       82670.2961532759
    X_14_3    R4103     3686
    X_14_3    ORD_14_2  -1
    X_14_3    ORD_14_3  1
    X_14_3    PREC_8_14_3  -1
    X_14_3    PREC_13_14_3  -1
    X_14_3    PREC_14_15_3  1
    X_14_3    PREC_14_12_3  1
    X_14_3    PREC_14_17_3  1
    X_14_3    PREC_14_42_3  1
    X_14_3    PREC_38_14_3  -1
    X_15_3    OBJ       261549.029728129
    X_15_3    R4103     1.1977999999999998e+04
    X_15_3    ORD_15_2  -1
    X_15_3    ORD_15_3  1
    X_15_3    PREC_3_15_3  -1
    X_15_3    PREC_9_15_3  -1
    X_15_3    PREC_14_15_3  -1
    X_15_3    PREC_15_16_3  1
    X_15_3    PREC_39_15_3  -1
    X_15_3    PREC_65_15_3  -1
    X_16_3    OBJ       518128.750387102
    X_16_3    R4112     607
    X_16_3    R4103     25760
    X_16_3    ORD_16_2  -1
    X_16_3    ORD_16_3  1
    X_16_3    PREC_4_16_3  -1
    X_16_3    PREC_10_16_3  -1
    X_16_3    PREC_15_16_3  -1
    X_16_3    PREC_33_16_3  -1
    X_16_3    PREC_40_16_3  -1
    X_16_3    PREC_66_16_3  -1
    X_17_3    OBJ       1940.00370248672
    X_17_3    R4103     93
    X_17_3    ORD_17_2  -1
    X_17_3    ORD_17_3  1
    X_17_3    PREC_9_17_3  -1
    X_17_3    PREC_14_17_3  -1
    X_17_3    PREC_39_17_3  -1
    X_17_3    PREC_65_17_3  -1
    X_18_3    OBJ       10808.4201781824
    X_18_3    R4103     461
    X_18_3    ORD_18_3  1
    X_18_3    PREC_18_19_3  1
    X_18_3    PREC_18_0_3  1
    X_18_3    PREC_18_27_3  1
    X_18_3    PREC_18_47_3  1
    X_18_3    PREC_18_6_3  1
    X_18_3    PREC_18_35_3  1
    X_18_3    PREC_18_55_3  1
    X_18_3    PREC_18_73_3  1
    X_18_3    PREC_18_12_3  1
    X_18_3    PREC_18_63_3  1
    X_18_3    PREC_18_79_3  1
    X_19_3    OBJ       159035.711867969
    X_19_3    R4103     6911
    X_19_3    ORD_19_2  -1
    X_19_3    ORD_19_3  1
    X_19_3    PREC_18_19_3  -1
    X_19_3    PREC_19_20_3  1
    X_19_3    PREC_19_1_3  1
    X_19_3    PREC_19_28_3  1
    X_19_3    PREC_19_48_3  1
    X_19_3    PREC_19_7_3  1
    X_19_3    PREC_19_36_3  1
    X_19_3    PREC_19_56_3  1
    X_19_3    PREC_19_74_3  1
    X_20_3    OBJ       378487.059795476
    X_20_3    R4112     553
    X_20_3    R4103     18152
    X_20_3    ORD_20_2  -1
    X_20_3    ORD_20_3  1
    X_20_3    PREC_19_20_3  -1
    X_20_3    PREC_20_21_3  1
    X_20_3    PREC_20_2_3  1
    X_20_3    PREC_20_29_3  1
    X_20_3    PREC_20_49_3  1
    X_20_3    PREC_45_20_3  -1
    X_21_3    OBJ       568711.043907519
    X_21_3    R4112     2380
    X_21_3    R4103     30813
    X_21_3    ORD_21_2  -1
    X_21_3    ORD_21_3  1
    X_21_3    PREC_3_21_3  -1
    X_21_3    PREC_20_21_3  -1
    X_21_3    PREC_21_22_3  1
    X_21_3    PREC_26_21_3  -1
    X_21_3    PREC_46_21_3  -1
    X_22_3    OBJ       612458.469544291
    X_22_3    R4112     5698
    X_22_3    R4103     41723
    X_22_3    ORD_22_2  -1
    X_22_3    ORD_22_3  1
    X_22_3    PREC_0_22_3  -1
    X_22_3    PREC_4_22_3  -1
    X_22_3    PREC_8_22_3  -1
    X_22_3    PREC_21_22_3  -1
    X_22_3    PREC_27_22_3  -1
    X_22_3    PREC_33_22_3  -1
    X_22_3    PREC_47_22_3  -1
    X_22_3    PREC_53_22_3  -1
    X_22_3    PREC_75_22_3  -1
    X_26_3    OBJ       -12575855.3665097
    X_26_3    R4112     32478
    X_26_3    R4103     43534
    X_26_3    ORD_26_2  -1
    X_26_3    ORD_26_3  1
    X_26_3    PREC_26_27_3  1
    X_26_3    PREC_26_6_3  1
    X_26_3    PREC_26_21_3  1
    X_26_3    PREC_26_35_3  1
    X_26_3    PREC_26_55_3  1
    X_26_3    PREC_26_2_3  1
    X_26_3    PREC_26_12_3  1
    X_26_3    PREC_26_42_3  1
    X_26_3    PREC_26_49_3  1
    X_26_3    PREC_26_63_3  1
    X_26_3    PREC_26_79_3  1
    X_27_3    OBJ       -4318552.91575978
    X_27_3    R4112     23762
    X_27_3    R4103     42198
    X_27_3    ORD_27_2  -1
    X_27_3    ORD_27_3  1
    X_27_3    PREC_3_27_3  -1
    X_27_3    PREC_18_27_3  -1
    X_27_3    PREC_26_27_3  -1
    X_27_3    PREC_27_28_3  1
    X_27_3    PREC_27_7_3  1
    X_27_3    PREC_27_22_3  1
    X_27_3    PREC_27_36_3  1
    X_27_3    PREC_27_56_3  1
    X_28_3    OBJ       -2396763.54626363
    X_28_3    R4112     30935
    X_28_3    R4103     36014
    X_28_3    ORD_28_2  -1
    X_28_3    ORD_28_3  1
    X_28_3    PREC_4_28_3  -1
    X_28_3    PREC_8_28_3  -1
    X_28_3    PREC_19_28_3  -1
    X_28_3    PREC_27_28_3  -1
    X_28_3    PREC_28_29_3  1
    X_28_3    PREC_33_28_3  -1
    X_28_3    PREC_38_28_3  -1
    X_28_3    PREC_45_28_3  -1
    X_28_3    PREC_53_28_3  -1
    X_28_3    PREC_75_28_3  -1
    X_29_3    OBJ       -1538251.48723901
    X_29_3    R4112     19875
    X_29_3    R4103     21258
    X_29_3    ORD_29_2  -1
    X_29_3    ORD_29_3  1
    X_29_3    PREC_5_29_3  -1
    X_29_3    PREC_9_29_3  -1
    X_29_3    PREC_20_29_3  -1
    X_29_3    PREC_28_29_3  -1
    X_29_3    PREC_34_29_3  -1
    X_29_3    PREC_39_29_3  -1
    X_29_3    PREC_46_29_3  -1
    X_29_3    PREC_54_29_3  -1
    X_29_3    PREC_60_29_3  -1
    X_29_3    PREC_65_29_3  -1
    X_29_3    PREC_76_29_3  -1
    X_29_3    PREC_80_29_3  -1
    X_33_3    OBJ       -15752005.8314474
    X_33_3    R4112     37283
    X_33_3    R4103     44009
    X_33_3    ORD_33_3  1
    X_33_3    PREC_33_34_3  1
    X_33_3    PREC_33_11_3  1
    X_33_3    PREC_33_28_3  1
    X_33_3    PREC_33_41_3  1
    X_33_3    PREC_33_62_3  1
    X_33_3    PREC_33_7_3  1
    X_33_3    PREC_33_16_3  1
    X_33_3    PREC_33_22_3  1
    X_33_3    PREC_33_44_3  1
    X_33_3    PREC_33_56_3  1
    X_33_3    PREC_33_69_3  1
    X_33_3    PREC_33_84_3  1
    X_34_3    OBJ       -1581028.12145754
    X_34_3    R4112     15678
    X_34_3    R4103     38248
    X_34_3    ORD_34_2  -1
    X_34_3    ORD_34_3  1
    X_34_3    PREC_8_34_3  -1
    X_34_3    PREC_33_34_3  -1
    X_34_3    PREC_34_35_3  1
    X_34_3    PREC_34_12_3  1
    X_34_3    PREC_34_29_3  1
    X_34_3    PREC_34_42_3  1
    X_34_3    PREC_34_63_3  1
    X_34_3    PREC_38_34_3  -1
    X_35_3    OBJ       101416.496510322
    X_35_3    R4112     11088
    X_35_3    R4103     33782
    X_35_3    ORD_35_2  -1
    X_35_3    ORD_35_3  1
    X_35_3    PREC_3_35_3  -1
    X_35_3    PREC_9_35_3  -1
    X_35_3    PREC_18_35_3  -1
    X_35_3    PREC_26_35_3  -1
    X_35_3    PREC_34_35_3  -1
    X_35_3    PREC_35_36_3  1
    X_35_3    PREC_39_35_3  -1
    X_35_3    PREC_60_35_3  -1
    X_35_3    PREC_65_35_3  -1
    X_35_3    PREC_80_35_3  -1
    X_36_3    OBJ       77997.7890769778
    X_36_3    R4112     5880
    X_36_3    R4103     18164
    X_36_3    ORD_36_2  -1
    X_36_3    ORD_36_3  1
    X_36_3    PREC_4_36_3  -1
    X_36_3    PREC_10_36_3  -1
    X_36_3    PREC_13_36_3  -1
    X_36_3    PREC_19_36_3  -1
    X_36_3    PREC_27_36_3  -1
    X_36_3    PREC_35_36_3  -1
    X_36_3    PREC_40_36_3  -1
    X_36_3    PREC_45_36_3  -1
    X_36_3    PREC_53_36_3  -1
    X_36_3    PREC_61_36_3  -1
    X_36_3    PREC_66_36_3  -1
    X_36_3    PREC_75_36_3  -1
    X_36_3    PREC_81_36_3  -1
    X_38_3    OBJ       -308921.319835554
    X_38_3    R4112     2571
    X_38_3    R4103     9758
    X_38_3    ORD_38_3  1
    X_38_3    PREC_38_39_3  1
    X_38_3    PREC_38_14_3  1
    X_38_3    PREC_38_34_3  1
    X_38_3    PREC_38_67_3  1
    X_38_3    PREC_38_11_3  1
    X_38_3    PREC_38_28_3  1
    X_38_3    PREC_38_62_3  1
    X_38_3    PREC_38_70_3  1
    X_38_3    PREC_38_87_3  1
    X_38_3    PREC_38_7_3  1
    X_38_3    PREC_38_56_3  1
    X_38_3    PREC_38_84_3  1
    X_38_3    PREC_38_89_3  1
    X_39_3    OBJ       -732082.606524951
    X_39_3    R4112     5244
    X_39_3    R4103     22279
    X_39_3    ORD_39_2  -1
    X_39_3    ORD_39_3  1
    X_39_3    PREC_38_39_3  -1
    X_39_3    PREC_39_40_3  1
    X_39_3    PREC_39_15_3  1
    X_39_3    PREC_39_35_3  1
    X_39_3    PREC_39_43_3  1
    X_39_3    PREC_39_68_3  1
    X_39_3    PREC_39_12_3  1
    X_39_3    PREC_39_17_3  1
    X_39_3    PREC_39_29_3  1
    X_39_3    PREC_39_63_3  1
    X_39_3    PREC_39_71_3  1
    X_39_3    PREC_39_88_3  1
    X_40_3    OBJ       536918.564920955
    X_40_3    R4112     3.1210000000000005e+03
    X_40_3    R4103     33093
    X_40_3    ORD_40_2  -1
    X_40_3    ORD_40_3  1
    X_40_3    PREC_39_40_3  -1
    X_40_3    PREC_40_41_3  1
    X_40_3    PREC_40_16_3  1
    X_40_3    PREC_40_36_3  1
    X_40_3    PREC_40_44_3  1
    X_40_3    PREC_40_69_3  1
    X_40_3    PREC_65_40_3  -1
    X_41_3    OBJ       466275.404400189
    X_41_3    R4112     7125
    X_41_3    R4103     42369
    X_41_3    ORD_41_2  -1
    X_41_3    ORD_41_3  1
    X_41_3    PREC_8_41_3  -1
    X_41_3    PREC_13_41_3  -1
    X_41_3    PREC_33_41_3  -1
    X_41_3    PREC_40_41_3  -1
    X_41_3    PREC_41_42_3  1
    X_41_3    PREC_66_41_3  -1
    X_42_3    OBJ       379707.880761787
    X_42_3    R4112     10976
    X_42_3    R4103     41057
    X_42_3    ORD_42_2  -1
    X_42_3    ORD_42_3  1
    X_42_3    PREC_3_42_3  -1
    X_42_3    PREC_9_42_3  -1
    X_42_3    PREC_14_42_3  -1
    X_42_3    PREC_26_42_3  -1
    X_42_3    PREC_34_42_3  -1
    X_42_3    PREC_41_42_3  -1
    X_42_3    PREC_60_42_3  -1
    X_42_3    PREC_67_42_3  -1
    X_42_3    PREC_80_42_3  -1
    X_42_3    PREC_85_42_3  -1
    X_43_3    OBJ       29986.4008856171
    X_43_3    R4103     1383
    X_43_3    ORD_43_2  -1
    X_43_3    ORD_43_3  1
    X_43_3    PREC_39_43_3  -1
    X_43_3    PREC_43_44_3  1
    X_43_3    PREC_65_43_3  -1
    X_44_3    OBJ       211220.751189184
    X_44_3    R4103     9951
    X_44_3    ORD_44_2  -1
    X_44_3    ORD_44_3  1
    X_44_3    PREC_8_44_3  -1
    X_44_3    PREC_13_44_3  -1
    X_44_3    PREC_33_44_3  -1
    X_44_3    PREC_40_44_3  -1
    X_44_3    PREC_43_44_3  -1
    X_44_3    PREC_66_44_3  -1
    X_45_3    OBJ       12970.1042138189
    X_45_3    R4103     553
    X_45_3    ORD_45_3  1
    X_45_3    PREC_45_46_3  1
    X_45_3    PREC_45_20_3  1
    X_45_3    PREC_45_54_3  1
    X_45_3    PREC_45_72_3  1
    X_45_3    PREC_45_1_3  1
    X_45_3    PREC_45_28_3  1
    X_45_3    PREC_45_62_3  1
    X_45_3    PREC_45_78_3  1
    X_45_3    PREC_45_7_3  1
    X_45_3    PREC_45_36_3  1
    X_45_3    PREC_45_84_3  1
    X_46_3    OBJ       186680.181852766
    X_46_3    R4103     8.1089999999999991e+03
    X_46_3    ORD_46_2  -1
    X_46_3    ORD_46_3  1
    X_46_3    PREC_45_46_3  -1
    X_46_3    PREC_46_47_3  1
    X_46_3    PREC_46_21_3  1
    X_46_3    PREC_46_55_3  1
    X_46_3    PREC_46_73_3  1
    X_46_3    PREC_46_2_3  1
    X_46_3    PREC_46_29_3  1
    X_46_3    PREC_46_63_3  1
    X_46_3    PREC_46_79_3  1
    X_47_3    OBJ       433815.102130484
    X_47_3    R4112     553
    X_47_3    R4103     20455
    X_47_3    ORD_47_2  -1
    X_47_3    ORD_47_3  1
    X_47_3    PREC_18_47_3  -1
    X_47_3    PREC_46_47_3  -1
    X_47_3    PREC_47_48_3  1
    X_47_3    PREC_47_22_3  1
    X_47_3    PREC_47_56_3  1
    X_47_3    PREC_47_74_3  1
    X_48_3    OBJ       568643.441933468
    X_48_3    R4112     3266
    X_48_3    R4103     3.2284999999999996e+04
    X_48_3    ORD_48_2  -1
    X_48_3    ORD_48_3  1
    X_48_3    PREC_19_48_3  -1
    X_48_3    PREC_47_48_3  -1
    X_48_3    PREC_48_49_3  1
    X_48_3    PREC_53_48_3  -1
    X_48_3    PREC_75_48_3  -1
    X_49_3    OBJ       474458.77751259
    X_49_3    R4112     8207
    X_49_3    R4103     43721
    X_49_3    ORD_49_2  -1
    X_49_3    ORD_49_3  1
    X_49_3    PREC_3_49_3  -1
    X_49_3    PREC_20_49_3  -1
    X_49_3    PREC_26_49_3  -1
    X_49_3    PREC_48_49_3  -1
    X_49_3    PREC_54_49_3  -1
    X_49_3    PREC_60_49_3  -1
    X_49_3    PREC_72_49_3  -1
    X_49_3    PREC_76_49_3  -1
    X_49_3    PREC_80_49_3  -1
    X_53_3    OBJ       -19978463.1266585
    X_53_3    R4112     37735
    X_53_3    R4103     43079
    X_53_3    ORD_53_2  -1
    X_53_3    ORD_53_3  1
    X_53_3    PREC_53_54_3  1
    X_53_3    PREC_53_28_3  1
    X_53_3    PREC_53_48_3  1
    X_53_3    PREC_53_62_3  1
    X_53_3    PREC_53_78_3  1
    X_53_3    PREC_53_7_3  1
    X_53_3    PREC_53_22_3  1
    X_53_3    PREC_53_36_3  1
    X_53_3    PREC_53_69_3  1
    X_53_3    PREC_53_74_3  1
    X_53_3    PREC_53_84_3  1
    X_54_3    OBJ       -10194888.4239044
    X_54_3    R4112     38023
    X_54_3    R4103     41064
    X_54_3    ORD_54_2  -1
    X_54_3    ORD_54_3  1
    X_54_3    PREC_45_54_3  -1
    X_54_3    PREC_53_54_3  -1
    X_54_3    PREC_54_55_3  1
    X_54_3    PREC_54_29_3  1
    X_54_3    PREC_54_49_3  1
    X_54_3    PREC_54_63_3  1
    X_54_3    PREC_54_79_3  1
    X_54_3    PREC_75_54_3  -1
    X_55_3    OBJ       -1384743.12031275
    X_55_3    R4112     31303
    X_55_3    R4103     34218
    X_55_3    ORD_55_2  -1
    X_55_3    ORD_55_3  1
    X_55_3    PREC_3_55_3  -1
    X_55_3    PREC_18_55_3  -1
    X_55_3    PREC_26_55_3  -1
    X_55_3    PREC_46_55_3  -1
    X_55_3    PREC_54_55_3  -1
    X_55_3    PREC_55_56_3  1
    X_55_3    PREC_60_55_3  -1
    X_55_3    PREC_65_55_3  -1
    X_55_3    PREC_76_55_3  -1
    X_55_3    PREC_80_55_3  -1
    X_56_3    OBJ       -629840.072545276
    X_56_3    R4112     18643
    X_56_3    R4103     22893
    X_56_3    ORD_56_2  -1
    X_56_3    ORD_56_3  1
    X_56_3    PREC_4_56_3  -1
    X_56_3    PREC_8_56_3  -1
    X_56_3    PREC_19_56_3  -1
    X_56_3    PREC_27_56_3  -1
    X_56_3    PREC_33_56_3  -1
    X_56_3    PREC_38_56_3  -1
    X_56_3    PREC_47_56_3  -1
    X_56_3    PREC_55_56_3  -1
    X_56_3    PREC_61_56_3  -1
    X_56_3    PREC_66_56_3  -1
    X_56_3    PREC_77_56_3  -1
    X_56_3    PREC_81_56_3  -1
    X_60_3    OBJ       -13230650.4182679
    X_60_3    R4112     41662
    X_60_3    R4103     41662
    X_60_3    ORD_60_3  1
    X_60_3    PREC_60_61_3  1
    X_60_3    PREC_60_35_3  1
    X_60_3    PREC_60_55_3  1
    X_60_3    PREC_60_68_3  1
    X_60_3    PREC_60_83_3  1
    X_60_3    PREC_60_12_3  1
    X_60_3    PREC_60_29_3  1
    X_60_3    PREC_60_42_3  1
    X_60_3    PREC_60_49_3  1
    X_60_3    PREC_60_71_3  1
    X_60_3    PREC_60_79_3  1
    X_60_3    PREC_60_88_3  1
    X_61_3    OBJ       -1311728.70211711
    X_61_3    R4112     31179
    X_61_3    R4103     36027
    X_61_3    ORD_61_2  -1
    X_61_3    ORD_61_3  1
    X_61_3    PREC_60_61_3  -1
    X_61_3    PREC_61_62_3  1
    X_61_3    PREC_61_36_3  1
    X_61_3    PREC_61_56_3  1
    X_61_3    PREC_61_69_3  1
    X_61_3    PREC_61_84_3  1
    X_61_3    PREC_65_61_3  -1
    X_61_3    PREC_80_61_3  -1
    X_62_3    OBJ       -145459.44579339
    X_62_3    R4112     16429
    X_62_3    R4103     33437
    X_62_3    ORD_62_2  -1
    X_62_3    ORD_62_3  1
    X_62_3    PREC_8_62_3  -1
    X_62_3    PREC_33_62_3  -1
    X_62_3    PREC_38_62_3  -1
    X_62_3    PREC_45_62_3  -1
    X_62_3    PREC_53_62_3  -1
    X_62_3    PREC_61_62_3  -1
    X_62_3    PREC_62_63_3  1
    X_62_3    PREC_66_62_3  -1
    X_62_3    PREC_75_62_3  -1
    X_62_3    PREC_81_62_3  -1
    X_63_3    OBJ       91097.7582620821
    X_63_3    R4112     5519
    X_63_3    R4103     15934
    X_63_3    ORD_63_2  -1
    X_63_3    ORD_63_3  1
    X_63_3    PREC_3_63_3  -1
    X_63_3    PREC_9_63_3  -1
    X_63_3    PREC_18_63_3  -1
    X_63_3    PREC_26_63_3  -1
    X_63_3    PREC_34_63_3  -1
    X_63_3    PREC_39_63_3  -1
    X_63_3    PREC_46_63_3  -1
    X_63_3    PREC_54_63_3  -1
    X_63_3    PREC_62_63_3  -1
    X_63_3    PREC_67_63_3  -1
    X_63_3    PREC_76_63_3  -1
    X_63_3    PREC_82_63_3  -1
    X_63_3    PREC_85_63_3  -1
    X_65_3    OBJ       -650931.362071117
    X_65_3    R4112     3772
    X_65_3    R4103     7.3649999999999991e+03
    X_65_3    ORD_65_3  1
    X_65_3    PREC_65_66_3  1
    X_65_3    PREC_65_40_3  1
    X_65_3    PREC_65_61_3  1
    X_65_3    PREC_65_86_3  1
    X_65_3    PREC_65_15_3  1
    X_65_3    PREC_65_35_3  1
    X_65_3    PREC_65_43_3  1
    X_65_3    PREC_65_55_3  1
    X_65_3    PREC_65_83_3  1
    X_65_3    PREC_65_12_3  1
    X_65_3    PREC_65_17_3  1
    X_65_3    PREC_65_29_3  1
    X_65_3    PREC_65_79_3  1
    X_66_3    OBJ       -2958309.53289033
    X_66_3    R4112     16431
    X_66_3    R4103     19563
    X_66_3    ORD_66_2  -1
    X_66_3    ORD_66_3  1
    X_66_3    PREC_65_66_3  -1
    X_66_3    PREC_66_67_3  1
    X_66_3    PREC_66_41_3  1
    X_66_3    PREC_66_62_3  1
    X_66_3    PREC_66_70_3  1
    X_66_3    PREC_66_87_3  1
    X_66_3    PREC_66_16_3  1
    X_66_3    PREC_66_36_3  1
    X_66_3    PREC_66_44_3  1
    X_66_3    PREC_66_56_3  1
    X_66_3    PREC_66_84_3  1
    X_66_3    PREC_66_89_3  1
    X_67_3    OBJ       -875580.542314877
    X_67_3    R4112     18823
    X_67_3    R4103     27348
    X_67_3    ORD_67_2  -1
    X_67_3    ORD_67_3  1
    X_67_3    PREC_38_67_3  -1
    X_67_3    PREC_66_67_3  -1
    X_67_3    PREC_67_68_3  1
    X_67_3    PREC_67_42_3  1
    X_67_3    PREC_67_63_3  1
    X_67_3    PREC_67_71_3  1
    X_67_3    PREC_67_88_3  1
    X_68_3    OBJ       -478278.928219739
    X_68_3    R4112     19673
    X_68_3    R4103     37161
    X_68_3    ORD_68_2  -1
    X_68_3    ORD_68_3  1
    X_68_3    PREC_39_68_3  -1
    X_68_3    PREC_60_68_3  -1
    X_68_3    PREC_67_68_3  -1
    X_68_3    PREC_68_69_3  1
    X_68_3    PREC_80_68_3  -1
    X_68_3    PREC_85_68_3  -1
    X_69_3    OBJ       206032.393676859
    X_69_3    R4112     12135
    X_69_3    R4103     34991
    X_69_3    ORD_69_2  -1
    X_69_3    ORD_69_3  1
    X_69_3    PREC_8_69_3  -1
    X_69_3    PREC_13_69_3  -1
    X_69_3    PREC_33_69_3  -1
    X_69_3    PREC_40_69_3  -1
    X_69_3    PREC_53_69_3  -1
    X_69_3    PREC_61_69_3  -1
    X_69_3    PREC_68_69_3  -1
    X_69_3    PREC_75_69_3  -1
    X_69_3    PREC_81_69_3  -1
    X_69_3    PREC_86_69_3  -1
    X_70_3    OBJ       19981.6847103874
    X_70_3    R4103     922
    X_70_3    ORD_70_2  -1
    X_70_3    ORD_70_3  1
    X_70_3    PREC_38_70_3  -1
    X_70_3    PREC_66_70_3  -1
    X_70_3    PREC_70_71_3  1
    X_71_3    OBJ       201354.698017458
    X_71_3    R4103     9491
    X_71_3    ORD_71_2  -1
    X_71_3    ORD_71_3  1
    X_71_3    PREC_39_71_3  -1
    X_71_3    PREC_60_71_3  -1
    X_71_3    PREC_67_71_3  -1
    X_71_3    PREC_70_71_3  -1
    X_71_3    PREC_80_71_3  -1
    X_71_3    PREC_85_71_3  -1
    X_72_3    OBJ       8217.21169785414
    X_72_3    R4103     369
    X_72_3    ORD_72_2  -1
    X_72_3    ORD_72_3  1
    X_72_3    PREC_45_72_3  -1
    X_72_3    PREC_72_73_3  1
    X_72_3    PREC_72_49_3  1
    X_72_3    PREC_72_79_3  1
    X_72_3    PREC_75_72_3  -1
    X_73_3    OBJ       104494.905424326
    X_73_3    R4103     4792
    X_73_3    ORD_73_2  -1
    X_73_3    ORD_73_3  1
    X_73_3    PREC_18_73_3  -1
    X_73_3    PREC_46_73_3  -1
    X_73_3    PREC_72_73_3  -1
    X_73_3    PREC_73_74_3  1
    X_73_3    PREC_76_73_3  -1
    X_73_3    PREC_80_73_3  -1
    X_74_3    OBJ       317059.800424587
    X_74_3    R4103     14927
    X_74_3    ORD_74_2  -1
    X_74_3    ORD_74_3  1
    X_74_3    PREC_19_74_3  -1
    X_74_3    PREC_47_74_3  -1
    X_74_3    PREC_53_74_3  -1
    X_74_3    PREC_73_74_3  -1
    X_74_3    PREC_77_74_3  -1
    X_74_3    PREC_81_74_3  -1
    X_75_3    OBJ       12970.1042138189
    X_75_3    R4103     553
    X_75_3    ORD_75_3  1
    X_75_3    PREC_75_76_3  1
    X_75_3    PREC_75_54_3  1
    X_75_3    PREC_75_72_3  1
    X_75_3    PREC_75_82_3  1
    X_75_3    PREC_75_28_3  1
    X_75_3    PREC_75_48_3  1
    X_75_3    PREC_75_62_3  1
    X_75_3    PREC_75_87_3  1
    X_75_3    PREC_75_22_3  1
    X_75_3    PREC_75_36_3  1
    X_75_3    PREC_75_69_3  1
    X_76_3    OBJ       91663.9153951501
    X_76_3    R4112     185
    X_76_3    R4103     7.4640000000000009e+03
    X_76_3    ORD_76_2  -1
    X_76_3    ORD_76_3  1
    X_76_3    PREC_75_76_3  -1
    X_76_3    PREC_76_77_3  1
    X_76_3    PREC_76_55_3  1
    X_76_3    PREC_76_73_3  1
    X_76_3    PREC_76_83_3  1
    X_76_3    PREC_76_29_3  1
    X_76_3    PREC_76_49_3  1
    X_76_3    PREC_76_63_3  1
    X_76_3    PREC_76_88_3  1
    X_77_3    OBJ       263838.247632497
    X_77_3    R4112     1467
    X_77_3    R4103     19341
    X_77_3    ORD_77_2  -1
    X_77_3    ORD_77_3  1
    X_77_3    PREC_76_77_3  -1
    X_77_3    PREC_77_78_3  1
    X_77_3    PREC_77_56_3  1
    X_77_3    PREC_77_74_3  1
    X_77_3    PREC_77_84_3  1
    X_77_3    PREC_80_77_3  -1
    X_78_3    OBJ       432657.521720542
    X_78_3    R4112     4301
    X_78_3    R4103     3.1058999999999996e+04
    X_78_3    ORD_78_2  -1
    X_78_3    ORD_78_3  1
    X_78_3    PREC_45_78_3  -1
    X_78_3    PREC_53_78_3  -1
    X_78_3    PREC_77_78_3  -1
    X_78_3    PREC_78_79_3  1
    X_78_3    PREC_81_78_3  -1
    X_79_3    OBJ       741240.982079555
    X_79_3    R4112     2568
    X_79_3    R4103     41061
    X_79_3    ORD_79_2  -1
    X_79_3    ORD_79_3  1
    X_79_3    PREC_18_79_3  -1
    X_79_3    PREC_26_79_3  -1
    X_79_3    PREC_46_79_3  -1
    X_79_3    PREC_54_79_3  -1
    X_79_3    PREC_60_79_3  -1
    X_79_3    PREC_65_79_3  -1
    X_79_3    PREC_72_79_3  -1
    X_79_3    PREC_78_79_3  -1
    X_79_3    PREC_82_79_3  -1
    X_79_3    PREC_85_79_3  -1
    X_80_3    OBJ       12970.1042138189
    X_80_3    R4103     553
    X_80_3    ORD_80_3  1
    X_80_3    PREC_80_81_3  1
    X_80_3    PREC_80_61_3  1
    X_80_3    PREC_80_77_3  1
    X_80_3    PREC_80_86_3  1
    X_80_3    PREC_80_35_3  1
    X_80_3    PREC_80_55_3  1
    X_80_3    PREC_80_68_3  1
    X_80_3    PREC_80_73_3  1
    X_80_3    PREC_80_29_3  1
    X_80_3    PREC_80_42_3  1
    X_80_3    PREC_80_49_3  1
    X_80_3    PREC_80_71_3  1
    X_81_3    OBJ       -1182971.30533193
    X_81_3    R4112     4008
    X_81_3    R4103     8246
    X_81_3    ORD_81_2  -1
    X_81_3    ORD_81_3  1
    X_81_3    PREC_80_81_3  -1
    X_81_3    PREC_81_82_3  1
    X_81_3    PREC_81_62_3  1
    X_81_3    PREC_81_78_3  1
    X_81_3    PREC_81_87_3  1
    X_81_3    PREC_81_36_3  1
    X_81_3    PREC_81_56_3  1
    X_81_3    PREC_81_69_3  1
    X_81_3    PREC_81_74_3  1
    X_81_3    PREC_81_89_3  1
    X_82_3    OBJ       20620.3316131828
    X_82_3    R4112     5738
    X_82_3    R4103     19228
    X_82_3    ORD_82_2  -1
    X_82_3    ORD_82_3  1
    X_82_3    PREC_75_82_3  -1
    X_82_3    PREC_81_82_3  -1
    X_82_3    PREC_82_83_3  1
    X_82_3    PREC_82_63_3  1
    X_82_3    PREC_82_79_3  1
    X_82_3    PREC_82_88_3  1
    X_83_3    OBJ       202408.581962198
    X_83_3    R4112     8309
    X_83_3    R4103     29026
    X_83_3    ORD_83_2  -1
    X_83_3    ORD_83_3  1
    X_83_3    PREC_60_83_3  -1
    X_83_3    PREC_65_83_3  -1
    X_83_3    PREC_76_83_3  -1
    X_83_3    PREC_82_83_3  -1
    X_83_3    PREC_83_84_3  1
    X_83_3    PREC_85_83_3  -1
    X_84_3    OBJ       208911.756511539
    X_84_3    R4112     9257
    X_84_3    R4103     36137
    X_84_3    ORD_84_2  -1
    X_84_3    ORD_84_3  1
    X_84_3    PREC_33_84_3  -1
    X_84_3    PREC_38_84_3  -1
    X_84_3    PREC_45_84_3  -1
    X_84_3    PREC_53_84_3  -1
    X_84_3    PREC_61_84_3  -1
    X_84_3    PREC_66_84_3  -1
    X_84_3    PREC_77_84_3  -1
    X_84_3    PREC_83_84_3  -1
    X_84_3    PREC_86_84_3  -1
    X_85_3    OBJ       -166477.343187225
    X_85_3    R4112     1068
    X_85_3    R4103     1437
    X_85_3    ORD_85_2  -1
    X_85_3    ORD_85_3  1
    X_85_3    PREC_85_86_3  1
    X_85_3    PREC_85_68_3  1
    X_85_3    PREC_85_83_3  1
    X_85_3    PREC_85_42_3  1
    X_85_3    PREC_85_63_3  1
    X_85_3    PREC_85_71_3  1
    X_85_3    PREC_85_79_3  1
    X_86_3    OBJ       32858.093640928
    X_86_3    R4112     2419
    X_86_3    R4103     6507
    X_86_3    ORD_86_2  -1
    X_86_3    ORD_86_3  1
    X_86_3    PREC_65_86_3  -1
    X_86_3    PREC_80_86_3  -1
    X_86_3    PREC_85_86_3  -1
    X_86_3    PREC_86_87_3  1
    X_86_3    PREC_86_69_3  1
    X_86_3    PREC_86_84_3  1
    X_86_3    PREC_86_89_3  1
    X_87_3    OBJ       257378.612063106
    X_87_3    R4112     3.0490000000000005e+03
    X_87_3    R4103     17312
    X_87_3    ORD_87_2  -1
    X_87_3    ORD_87_3  1
    X_87_3    PREC_38_87_3  -1
    X_87_3    PREC_66_87_3  -1
    X_87_3    PREC_75_87_3  -1
    X_87_3    PREC_81_87_3  -1
    X_87_3    PREC_86_87_3  -1
    X_87_3    PREC_87_88_3  1
    X_88_3    OBJ       555490.834948769
    X_88_3    R4112     2188
    X_88_3    R4103     30320
    X_88_3    ORD_88_2  -1
    X_88_3    ORD_88_3  1
    X_88_3    PREC_39_88_3  -1
    X_88_3    PREC_60_88_3  -1
    X_88_3    PREC_67_88_3  -1
    X_88_3    PREC_76_88_3  -1
    X_88_3    PREC_82_88_3  -1
    X_88_3    PREC_87_88_3  -1
    X_89_3    OBJ       15561.3126941472
    X_89_3    R4103     738
    X_89_3    ORD_89_2  -1
    X_89_3    ORD_89_3  1
    X_89_3    PREC_38_89_3  -1
    X_89_3    PREC_66_89_3  -1
    X_89_3    PREC_81_89_3  -1
    X_89_3    PREC_86_89_3  -1
    X_0_4     OBJ       1777.63905585844
    X_0_4     R4104     93
    X_0_4     ORD_0_3   -1
    X_0_4     ORD_0_4   1
    X_0_4     PREC_0_1_4  1
    X_0_4     PREC_0_7_4  1
    X_0_4     PREC_0_22_4  1
    X_0_4     PREC_3_0_4  -1
    X_0_4     PREC_18_0_4  -1
    X_1_4     OBJ       59177.9189862561
    X_1_4     R4104     3133
    X_1_4     ORD_1_3   -1
    X_1_4     ORD_1_4   1
    X_1_4     PREC_0_1_4  -1
    X_1_4     PREC_1_2_4  1
    X_1_4     PREC_4_1_4  -1
    X_1_4     PREC_8_1_4  -1
    X_1_4     PREC_19_1_4  -1
    X_1_4     PREC_45_1_4  -1
    X_2_4     OBJ       220460.875521057
    X_2_4     R4104     1.1977999999999998e+04
    X_2_4     ORD_2_3   -1
    X_2_4     ORD_2_4   1
    X_2_4     PREC_1_2_4  -1
    X_2_4     PREC_5_2_4  -1
    X_2_4     PREC_9_2_4  -1
    X_2_4     PREC_20_2_4  -1
    X_2_4     PREC_26_2_4  -1
    X_2_4     PREC_46_2_4  -1
    X_3_4     OBJ       5621.14068185706
    X_3_4     R4104     277
    X_3_4     ORD_3_3   -1
    X_3_4     ORD_3_4   1
    X_3_4     PREC_3_4_4  1
    X_3_4     PREC_3_0_4  1
    X_3_4     PREC_3_10_4  1
    X_3_4     PREC_3_27_4  1
    X_3_4     PREC_3_15_4  1
    X_3_4     PREC_3_21_4  1
    X_3_4     PREC_3_35_4  1
    X_3_4     PREC_3_55_4  1
    X_3_4     PREC_3_42_4  1
    X_3_4     PREC_3_49_4  1
    X_3_4     PREC_3_63_4  1
    X_4_4     OBJ       115713.463194362
    X_4_4     R4104     5805
    X_4_4     ORD_4_3   -1
    X_4_4     ORD_4_4   1
    X_4_4     PREC_3_4_4  -1
    X_4_4     PREC_4_5_4  1
    X_4_4     PREC_4_1_4  1
    X_4_4     PREC_4_11_4  1
    X_4_4     PREC_4_28_4  1
    X_4_4     PREC_4_16_4  1
    X_4_4     PREC_4_22_4  1
    X_4_4     PREC_4_36_4  1
    X_4_4     PREC_4_56_4  1
    X_5_4     OBJ       331694.229431349
    X_5_4     R4104     17046
    X_5_4     ORD_5_3   -1
    X_5_4     ORD_5_4   1
    X_5_4     PREC_4_5_4  -1
    X_5_4     PREC_5_6_4  1
    X_5_4     PREC_5_2_4  1
    X_5_4     PREC_5_12_4  1
    X_5_4     PREC_5_29_4  1
    X_5_4     PREC_8_5_4  -1
    X_6_4     OBJ       565808.374057704
    X_6_4     R4113     277
    X_6_4     R4104     30590
    X_6_4     ORD_6_3   -1
    X_6_4     ORD_6_4   1
    X_6_4     PREC_5_6_4  -1
    X_6_4     PREC_6_7_4  1
    X_6_4     PREC_9_6_4  -1
    X_6_4     PREC_18_6_4  -1
    X_6_4     PREC_26_6_4  -1
    X_7_4     OBJ       653482.616878639
    X_7_4     R4113     2823
    X_7_4     R4104     43176
    X_7_4     ORD_7_3   -1
    X_7_4     ORD_7_4   1
    X_7_4     PREC_0_7_4  -1
    X_7_4     PREC_6_7_4  -1
    X_7_4     PREC_10_7_4  -1
    X_7_4     PREC_13_7_4  -1
    X_7_4     PREC_19_7_4  -1
    X_7_4     PREC_27_7_4  -1
    X_7_4     PREC_33_7_4  -1
    X_7_4     PREC_38_7_4  -1
    X_7_4     PREC_45_7_4  -1
    X_7_4     PREC_53_7_4  -1
    X_8_4     OBJ       18737.0704267433
    X_8_4     R4104     922
    X_8_4     ORD_8_3   -1
    X_8_4     ORD_8_4   1
    X_8_4     PREC_8_9_4  1
    X_8_4     PREC_8_5_4  1
    X_8_4     PREC_8_14_4  1
    X_8_4     PREC_8_34_4  1
    X_8_4     PREC_8_1_4  1
    X_8_4     PREC_8_28_4  1
    X_8_4     PREC_8_41_4  1
    X_8_4     PREC_8_62_4  1
    X_8_4     PREC_8_22_4  1
    X_8_4     PREC_8_44_4  1
    X_8_4     PREC_8_56_4  1
    X_8_4     PREC_8_69_4  1
    X_9_4     OBJ       226214.134941822
    X_9_4     R4104     11333
    X_9_4     ORD_9_3   -1
    X_9_4     ORD_9_4   1
    X_9_4     PREC_8_9_4  -1
    X_9_4     PREC_9_10_4  1
    X_9_4     PREC_9_6_4  1
    X_9_4     PREC_9_15_4  1
    X_9_4     PREC_9_35_4  1
    X_9_4     PREC_9_2_4  1
    X_9_4     PREC_9_17_4  1
    X_9_4     PREC_9_29_4  1
    X_9_4     PREC_9_42_4  1
    X_9_4     PREC_9_63_4  1
    X_10_4    OBJ       469952.155264859
    X_10_4    R4104     24141
    X_10_4    ORD_10_3  -1
    X_10_4    ORD_10_4  1
    X_10_4    PREC_3_10_4  -1
    X_10_4    PREC_9_10_4  -1
    X_10_4    PREC_10_11_4  1
    X_10_4    PREC_10_7_4  1
    X_10_4    PREC_10_16_4  1
    X_10_4    PREC_10_36_4  1
    X_11_4    OBJ       680361.903814671
    X_11_4    R4113     369
    X_11_4    R4104     36463
    X_11_4    ORD_11_3  -1
    X_11_4    ORD_11_4  1
    X_11_4    PREC_4_11_4  -1
    X_11_4    PREC_10_11_4  -1
    X_11_4    PREC_11_12_4  1
    X_11_4    PREC_13_11_4  -1
    X_11_4    PREC_33_11_4  -1
    X_11_4    PREC_38_11_4  -1
    X_12_4    OBJ       714583.981343514
    X_12_4    R4113     4191
    X_12_4    R4104     47497
    X_12_4    ORD_12_3  -1
    X_12_4    ORD_12_4  1
    X_12_4    PREC_5_12_4  -1
    X_12_4    PREC_11_12_4  -1
    X_12_4    PREC_14_12_4  -1
    X_12_4    PREC_18_12_4  -1
    X_12_4    PREC_26_12_4  -1
    X_12_4    PREC_34_12_4  -1
    X_12_4    PREC_39_12_4  -1
    X_12_4    PREC_60_12_4  -1
    X_12_4    PREC_65_12_4  -1
    X_13_4    OBJ       7314.69825118826
    X_13_4    R4104     369
    X_13_4    ORD_13_3  -1
    X_13_4    ORD_13_4  1
    X_13_4    PREC_13_14_4  1
    X_13_4    PREC_13_11_4  1
    X_13_4    PREC_13_41_4  1
    X_13_4    PREC_13_7_4  1
    X_13_4    PREC_13_36_4  1
    X_13_4    PREC_13_44_4  1
    X_13_4    PREC_13_69_4  1
    X_14_4    OBJ       71657.3062525183
    X_14_4    R4104     3686
    X_14_4    ORD_14_3  -1
    X_14_4    ORD_14_4  1
    X_14_4    PREC_8_14_4  -1
    X_14_4    PREC_13_14_4  -1
    X_14_4    PREC_14_15_4  1
    X_14_4    PREC_14_12_4  1
    X_14_4    PREC_14_17_4  1
    X_14_4    PREC_14_42_4  1
    X_14_4    PREC_38_14_4  -1
    X_15_4    OBJ       226706.565663305
    X_15_4    R4104     1.1977999999999998e+04
    X_15_4    ORD_15_3  -1
    X_15_4    ORD_15_4  1
    X_15_4    PREC_3_15_4  -1
    X_15_4    PREC_9_15_4  -1
    X_15_4    PREC_14_15_4  -1
    X_15_4    PREC_15_16_4  1
    X_15_4    PREC_39_15_4  -1
    X_15_4    PREC_65_15_4  -1
    X_16_4    OBJ       449105.812756327
    X_16_4    R4113     607
    X_16_4    R4104     25760
    X_16_4    ORD_16_3  -1
    X_16_4    ORD_16_4  1
    X_16_4    PREC_4_16_4  -1
    X_16_4    PREC_10_16_4  -1
    X_16_4    PREC_15_16_4  -1
    X_16_4    PREC_33_16_4  -1
    X_16_4    PREC_40_16_4  -1
    X_16_4    PREC_66_16_4  -1
    X_17_4    OBJ       1681.56455109786
    X_17_4    R4104     93
    X_17_4    ORD_17_3  -1
    X_17_4    ORD_17_4  1
    X_17_4    PREC_9_17_4  -1
    X_17_4    PREC_14_17_4  -1
    X_17_4    PREC_39_17_4  -1
    X_17_4    PREC_65_17_4  -1
    X_18_4    OBJ       9368.56780309511
    X_18_4    R4104     461
    X_18_4    ORD_18_3  -1
    X_18_4    ORD_18_4  1
    X_18_4    PREC_18_19_4  1
    X_18_4    PREC_18_0_4  1
    X_18_4    PREC_18_27_4  1
    X_18_4    PREC_18_47_4  1
    X_18_4    PREC_18_6_4  1
    X_18_4    PREC_18_35_4  1
    X_18_4    PREC_18_55_4  1
    X_18_4    PREC_18_73_4  1
    X_18_4    PREC_18_12_4  1
    X_18_4    PREC_18_63_4  1
    X_18_4    PREC_18_79_4  1
    X_19_4    OBJ       137849.641778001
    X_19_4    R4104     6911
    X_19_4    ORD_19_3  -1
    X_19_4    ORD_19_4  1
    X_19_4    PREC_18_19_4  -1
    X_19_4    PREC_19_20_4  1
    X_19_4    PREC_19_1_4  1
    X_19_4    PREC_19_28_4  1
    X_19_4    PREC_19_48_4  1
    X_19_4    PREC_19_7_4  1
    X_19_4    PREC_19_36_4  1
    X_19_4    PREC_19_56_4  1
    X_19_4    PREC_19_74_4  1
    X_20_4    OBJ       328066.602133551
    X_20_4    R4113     553
    X_20_4    R4104     18152
    X_20_4    ORD_20_3  -1
    X_20_4    ORD_20_4  1
    X_20_4    PREC_19_20_4  -1
    X_20_4    PREC_20_21_4  1
    X_20_4    PREC_20_2_4  1
    X_20_4    PREC_20_29_4  1
    X_20_4    PREC_20_49_4  1
    X_20_4    PREC_45_20_4  -1
    X_21_4    OBJ       492949.745418997
    X_21_4    R4113     2380
    X_21_4    R4104     30813
    X_21_4    ORD_21_3  -1
    X_21_4    ORD_21_4  1
    X_21_4    PREC_3_21_4  -1
    X_21_4    PREC_20_21_4  -1
    X_21_4    PREC_21_22_4  1
    X_21_4    PREC_26_21_4  -1
    X_21_4    PREC_46_21_4  -1
    X_22_4    OBJ       530869.322612737
    X_22_4    R4113     5698
    X_22_4    R4104     41723
    X_22_4    ORD_22_3  -1
    X_22_4    ORD_22_4  1
    X_22_4    PREC_0_22_4  -1
    X_22_4    PREC_4_22_4  -1
    X_22_4    PREC_8_22_4  -1
    X_22_4    PREC_21_22_4  -1
    X_22_4    PREC_27_22_4  -1
    X_22_4    PREC_33_22_4  -1
    X_22_4    PREC_47_22_4  -1
    X_22_4    PREC_53_22_4  -1
    X_22_4    PREC_75_22_4  -1
    X_26_4    OBJ       -10900552.6932499
    X_26_4    R4113     32478
    X_26_4    R4104     43534
    X_26_4    ORD_26_3  -1
    X_26_4    ORD_26_4  1
    X_26_4    PREC_26_27_4  1
    X_26_4    PREC_26_6_4  1
    X_26_4    PREC_26_21_4  1
    X_26_4    PREC_26_35_4  1
    X_26_4    PREC_26_55_4  1
    X_26_4    PREC_26_2_4  1
    X_26_4    PREC_26_12_4  1
    X_26_4    PREC_26_42_4  1
    X_26_4    PREC_26_49_4  1
    X_26_4    PREC_26_63_4  1
    X_26_4    PREC_26_79_4  1
    X_27_4    OBJ       -3743253.42053394
    X_27_4    R4113     23762
    X_27_4    R4104     42198
    X_27_4    ORD_27_3  -1
    X_27_4    ORD_27_4  1
    X_27_4    PREC_3_27_4  -1
    X_27_4    PREC_18_27_4  -1
    X_27_4    PREC_26_27_4  -1
    X_27_4    PREC_27_28_4  1
    X_27_4    PREC_27_7_4  1
    X_27_4    PREC_27_22_4  1
    X_27_4    PREC_27_36_4  1
    X_27_4    PREC_27_56_4  1
    X_28_4    OBJ       -2077476.76542803
    X_28_4    R4113     30935
    X_28_4    R4104     36014
    X_28_4    ORD_28_3  -1
    X_28_4    ORD_28_4  1
    X_28_4    PREC_4_28_4  -1
    X_28_4    PREC_8_28_4  -1
    X_28_4    PREC_19_28_4  -1
    X_28_4    PREC_27_28_4  -1
    X_28_4    PREC_28_29_4  1
    X_28_4    PREC_33_28_4  -1
    X_28_4    PREC_38_28_4  -1
    X_28_4    PREC_45_28_4  -1
    X_28_4    PREC_53_28_4  -1
    X_28_4    PREC_75_28_4  -1
    X_29_4    OBJ       -1333332.07988162
    X_29_4    R4113     19875
    X_29_4    R4104     21258
    X_29_4    ORD_29_3  -1
    X_29_4    ORD_29_4  1
    X_29_4    PREC_5_29_4  -1
    X_29_4    PREC_9_29_4  -1
    X_29_4    PREC_20_29_4  -1
    X_29_4    PREC_28_29_4  -1
    X_29_4    PREC_34_29_4  -1
    X_29_4    PREC_39_29_4  -1
    X_29_4    PREC_46_29_4  -1
    X_29_4    PREC_54_29_4  -1
    X_29_4    PREC_60_29_4  -1
    X_29_4    PREC_65_29_4  -1
    X_29_4    PREC_76_29_4  -1
    X_29_4    PREC_80_29_4  -1
    X_33_4    OBJ       -13653589.7229969
    X_33_4    R4113     37283
    X_33_4    R4104     44009
    X_33_4    ORD_33_3  -1
    X_33_4    ORD_33_4  1
    X_33_4    PREC_33_34_4  1
    X_33_4    PREC_33_11_4  1
    X_33_4    PREC_33_28_4  1
    X_33_4    PREC_33_41_4  1
    X_33_4    PREC_33_62_4  1
    X_33_4    PREC_33_7_4  1
    X_33_4    PREC_33_16_4  1
    X_33_4    PREC_33_22_4  1
    X_33_4    PREC_33_44_4  1
    X_33_4    PREC_33_56_4  1
    X_33_4    PREC_33_69_4  1
    X_33_4    PREC_33_84_4  1
    X_34_4    OBJ       -1370410.19041562
    X_34_4    R4113     15678
    X_34_4    R4104     38248
    X_34_4    ORD_34_3  -1
    X_34_4    ORD_34_4  1
    X_34_4    PREC_8_34_4  -1
    X_34_4    PREC_33_34_4  -1
    X_34_4    PREC_34_35_4  1
    X_34_4    PREC_34_12_4  1
    X_34_4    PREC_34_29_4  1
    X_34_4    PREC_34_42_4  1
    X_34_4    PREC_34_63_4  1
    X_34_4    PREC_38_34_4  -1
    X_35_4    OBJ       87906.2164725245
    X_35_4    R4113     11088
    X_35_4    R4104     33782
    X_35_4    ORD_35_3  -1
    X_35_4    ORD_35_4  1
    X_35_4    PREC_3_35_4  -1
    X_35_4    PREC_9_35_4  -1
    X_35_4    PREC_18_35_4  -1
    X_35_4    PREC_26_35_4  -1
    X_35_4    PREC_34_35_4  -1
    X_35_4    PREC_35_36_4  1
    X_35_4    PREC_39_35_4  -1
    X_35_4    PREC_60_35_4  -1
    X_35_4    PREC_65_35_4  -1
    X_35_4    PREC_80_35_4  -1
    X_36_4    OBJ       67607.250959229
    X_36_4    R4113     5880
    X_36_4    R4104     18164
    X_36_4    ORD_36_3  -1
    X_36_4    ORD_36_4  1
    X_36_4    PREC_4_36_4  -1
    X_36_4    PREC_10_36_4  -1
    X_36_4    PREC_13_36_4  -1
    X_36_4    PREC_19_36_4  -1
    X_36_4    PREC_27_36_4  -1
    X_36_4    PREC_35_36_4  -1
    X_36_4    PREC_40_36_4  -1
    X_36_4    PREC_45_36_4  -1
    X_36_4    PREC_53_36_4  -1
    X_36_4    PREC_61_36_4  -1
    X_36_4    PREC_66_36_4  -1
    X_36_4    PREC_75_36_4  -1
    X_36_4    PREC_81_36_4  -1
    X_38_4    OBJ       -267768.11809584
    X_38_4    R4113     2571
    X_38_4    R4104     9758
    X_38_4    ORD_38_3  -1
    X_38_4    ORD_38_4  1
    X_38_4    PREC_38_39_4  1
    X_38_4    PREC_38_14_4  1
    X_38_4    PREC_38_34_4  1
    X_38_4    PREC_38_67_4  1
    X_38_4    PREC_38_11_4  1
    X_38_4    PREC_38_28_4  1
    X_38_4    PREC_38_62_4  1
    X_38_4    PREC_38_70_4  1
    X_38_4    PREC_38_87_4  1
    X_38_4    PREC_38_7_4  1
    X_38_4    PREC_38_56_4  1
    X_38_4    PREC_38_84_4  1
    X_38_4    PREC_38_89_4  1
    X_39_4    OBJ       -634557.634106424
    X_39_4    R4113     5244
    X_39_4    R4104     22279
    X_39_4    ORD_39_3  -1
    X_39_4    ORD_39_4  1
    X_39_4    PREC_38_39_4  -1
    X_39_4    PREC_39_40_4  1
    X_39_4    PREC_39_15_4  1
    X_39_4    PREC_39_35_4  1
    X_39_4    PREC_39_43_4  1
    X_39_4    PREC_39_68_4  1
    X_39_4    PREC_39_12_4  1
    X_39_4    PREC_39_17_4  1
    X_39_4    PREC_39_29_4  1
    X_39_4    PREC_39_63_4  1
    X_39_4    PREC_39_71_4  1
    X_39_4    PREC_39_88_4  1
    X_40_4    OBJ       465392.527055546
    X_40_4    R4113     3.1210000000000005e+03
    X_40_4    R4104     33093
    X_40_4    ORD_40_3  -1
    X_40_4    ORD_40_4  1
    X_40_4    PREC_39_40_4  -1
    X_40_4    PREC_40_41_4  1
    X_40_4    PREC_40_16_4  1
    X_40_4    PREC_40_36_4  1
    X_40_4    PREC_40_44_4  1
    X_40_4    PREC_40_69_4  1
    X_40_4    PREC_65_40_4  -1
    X_41_4    OBJ       404160.151902361
    X_41_4    R4113     7125
    X_41_4    R4104     42369
    X_41_4    ORD_41_3  -1
    X_41_4    ORD_41_4  1
    X_41_4    PREC_8_41_4  -1
    X_41_4    PREC_13_41_4  -1
    X_41_4    PREC_33_41_4  -1
    X_41_4    PREC_40_41_4  -1
    X_41_4    PREC_41_42_4  1
    X_41_4    PREC_66_41_4  -1
    X_42_4    OBJ       329124.790454302
    X_42_4    R4113     10976
    X_42_4    R4104     41057
    X_42_4    ORD_42_3  -1
    X_42_4    ORD_42_4  1
    X_42_4    PREC_3_42_4  -1
    X_42_4    PREC_9_42_4  -1
    X_42_4    PREC_14_42_4  -1
    X_42_4    PREC_26_42_4  -1
    X_42_4    PREC_34_42_4  -1
    X_42_4    PREC_41_42_4  -1
    X_42_4    PREC_60_42_4  -1
    X_42_4    PREC_67_42_4  -1
    X_42_4    PREC_80_42_4  -1
    X_42_4    PREC_85_42_4  -1
    X_43_4    OBJ       25991.7384073179
    X_43_4    R4104     1383
    X_43_4    ORD_43_3  -1
    X_43_4    ORD_43_4  1
    X_43_4    PREC_39_43_4  -1
    X_43_4    PREC_43_44_4  1
    X_43_4    PREC_65_43_4  -1
    X_44_4    OBJ       183082.809172331
    X_44_4    R4104     9951
    X_44_4    ORD_44_3  -1
    X_44_4    ORD_44_4  1
    X_44_4    PREC_8_44_4  -1
    X_44_4    PREC_13_44_4  -1
    X_44_4    PREC_33_44_4  -1
    X_44_4    PREC_40_44_4  -1
    X_44_4    PREC_43_44_4  -1
    X_44_4    PREC_66_44_4  -1
    X_45_4    OBJ       11242.2813637141
    X_45_4    R4104     553
    X_45_4    ORD_45_3  -1
    X_45_4    ORD_45_4  1
    X_45_4    PREC_45_46_4  1
    X_45_4    PREC_45_20_4  1
    X_45_4    PREC_45_54_4  1
    X_45_4    PREC_45_72_4  1
    X_45_4    PREC_45_1_4  1
    X_45_4    PREC_45_28_4  1
    X_45_4    PREC_45_62_4  1
    X_45_4    PREC_45_78_4  1
    X_45_4    PREC_45_7_4  1
    X_45_4    PREC_45_36_4  1
    X_45_4    PREC_45_84_4  1
    X_46_4    OBJ       161811.431490431
    X_46_4    R4104     8.1089999999999991e+03
    X_46_4    ORD_46_3  -1
    X_46_4    ORD_46_4  1
    X_46_4    PREC_45_46_4  -1
    X_46_4    PREC_46_47_4  1
    X_46_4    PREC_46_21_4  1
    X_46_4    PREC_46_55_4  1
    X_46_4    PREC_46_73_4  1
    X_46_4    PREC_46_2_4  1
    X_46_4    PREC_46_29_4  1
    X_46_4    PREC_46_63_4  1
    X_46_4    PREC_46_79_4  1
    X_47_4    OBJ       376024.074870811
    X_47_4    R4113     553
    X_47_4    R4104     20455
    X_47_4    ORD_47_3  -1
    X_47_4    ORD_47_4  1
    X_47_4    PREC_18_47_4  -1
    X_47_4    PREC_46_47_4  -1
    X_47_4    PREC_47_48_4  1
    X_47_4    PREC_47_22_4  1
    X_47_4    PREC_47_56_4  1
    X_47_4    PREC_47_74_4  1
    X_48_4    OBJ       492891.149096216
    X_48_4    R4113     3266
    X_48_4    R4104     3.2284999999999996e+04
    X_48_4    ORD_48_3  -1
    X_48_4    ORD_48_4  1
    X_48_4    PREC_19_48_4  -1
    X_48_4    PREC_47_48_4  -1
    X_48_4    PREC_48_49_4  1
    X_48_4    PREC_53_48_4  -1
    X_48_4    PREC_75_48_4  -1
    X_49_4    OBJ       411253.370392914
    X_49_4    R4113     8207
    X_49_4    R4104     43721
    X_49_4    ORD_49_3  -1
    X_49_4    ORD_49_4  1
    X_49_4    PREC_3_49_4  -1
    X_49_4    PREC_20_49_4  -1
    X_49_4    PREC_26_49_4  -1
    X_49_4    PREC_48_49_4  -1
    X_49_4    PREC_54_49_4  -1
    X_49_4    PREC_60_49_4  -1
    X_49_4    PREC_72_49_4  -1
    X_49_4    PREC_76_49_4  -1
    X_49_4    PREC_80_49_4  -1
    X_53_4    OBJ       -17317016.1150424
    X_53_4    R4113     37735
    X_53_4    R4104     43079
    X_53_4    ORD_53_3  -1
    X_53_4    ORD_53_4  1
    X_53_4    PREC_53_54_4  1
    X_53_4    PREC_53_28_4  1
    X_53_4    PREC_53_48_4  1
    X_53_4    PREC_53_62_4  1
    X_53_4    PREC_53_78_4  1
    X_53_4    PREC_53_7_4  1
    X_53_4    PREC_53_22_4  1
    X_53_4    PREC_53_36_4  1
    X_53_4    PREC_53_69_4  1
    X_53_4    PREC_53_74_4  1
    X_53_4    PREC_53_84_4  1
    X_54_4    OBJ       -8836768.17423647
    X_54_4    R4113     38023
    X_54_4    R4104     41064
    X_54_4    ORD_54_3  -1
    X_54_4    ORD_54_4  1
    X_54_4    PREC_45_54_4  -1
    X_54_4    PREC_53_54_4  -1
    X_54_4    PREC_54_55_4  1
    X_54_4    PREC_54_29_4  1
    X_54_4    PREC_54_49_4  1
    X_54_4    PREC_54_63_4  1
    X_54_4    PREC_54_79_4  1
    X_54_4    PREC_75_54_4  -1
    X_55_4    OBJ       -1200273.4533495
    X_55_4    R4113     31303
    X_55_4    R4104     34218
    X_55_4    ORD_55_3  -1
    X_55_4    ORD_55_4  1
    X_55_4    PREC_3_55_4  -1
    X_55_4    PREC_18_55_4  -1
    X_55_4    PREC_26_55_4  -1
    X_55_4    PREC_46_55_4  -1
    X_55_4    PREC_54_55_4  -1
    X_55_4    PREC_55_56_4  1
    X_55_4    PREC_60_55_4  -1
    X_55_4    PREC_65_55_4  -1
    X_55_4    PREC_76_55_4  -1
    X_55_4    PREC_80_55_4  -1
    X_56_4    OBJ       -545935.42140948
    X_56_4    R4113     18643
    X_56_4    R4104     22893
    X_56_4    ORD_56_3  -1
    X_56_4    ORD_56_4  1
    X_56_4    PREC_4_56_4  -1
    X_56_4    PREC_8_56_4  -1
    X_56_4    PREC_19_56_4  -1
    X_56_4    PREC_27_56_4  -1
    X_56_4    PREC_33_56_4  -1
    X_56_4    PREC_38_56_4  -1
    X_56_4    PREC_47_56_4  -1
    X_56_4    PREC_55_56_4  -1
    X_56_4    PREC_61_56_4  -1
    X_56_4    PREC_66_56_4  -1
    X_56_4    PREC_77_56_4  -1
    X_56_4    PREC_81_56_4  -1
    X_60_4    OBJ       -11468118.6962733
    X_60_4    R4113     41662
    X_60_4    R4104     41662
    X_60_4    ORD_60_3  -1
    X_60_4    ORD_60_4  1
    X_60_4    PREC_60_61_4  1
    X_60_4    PREC_60_35_4  1
    X_60_4    PREC_60_55_4  1
    X_60_4    PREC_60_68_4  1
    X_60_4    PREC_60_83_4  1
    X_60_4    PREC_60_12_4  1
    X_60_4    PREC_60_29_4  1
    X_60_4    PREC_60_42_4  1
    X_60_4    PREC_60_49_4  1
    X_60_4    PREC_60_71_4  1
    X_60_4    PREC_60_79_4  1
    X_60_4    PREC_60_88_4  1
    X_61_4    OBJ       -1136985.70951713
    X_61_4    R4113     31179
    X_61_4    R4104     36027
    X_61_4    ORD_61_3  -1
    X_61_4    ORD_61_4  1
    X_61_4    PREC_60_61_4  -1
    X_61_4    PREC_61_62_4  1
    X_61_4    PREC_61_36_4  1
    X_61_4    PREC_61_56_4  1
    X_61_4    PREC_61_69_4  1
    X_61_4    PREC_61_84_4  1
    X_61_4    PREC_65_61_4  -1
    X_61_4    PREC_80_61_4  -1
    X_62_4    OBJ       -126081.948892661
    X_62_4    R4113     16429
    X_62_4    R4104     33437
    X_62_4    ORD_62_3  -1
    X_62_4    ORD_62_4  1
    X_62_4    PREC_8_62_4  -1
    X_62_4    PREC_33_62_4  -1
    X_62_4    PREC_38_62_4  -1
    X_62_4    PREC_45_62_4  -1
    X_62_4    PREC_53_62_4  -1
    X_62_4    PREC_61_62_4  -1
    X_62_4    PREC_62_63_4  1
    X_62_4    PREC_66_62_4  -1
    X_62_4    PREC_75_62_4  -1
    X_62_4    PREC_81_62_4  -1
    X_63_4    OBJ       78962.0972277746
    X_63_4    R4113     5519
    X_63_4    R4104     15934
    X_63_4    ORD_63_3  -1
    X_63_4    ORD_63_4  1
    X_63_4    PREC_3_63_4  -1
    X_63_4    PREC_9_63_4  -1
    X_63_4    PREC_18_63_4  -1
    X_63_4    PREC_26_63_4  -1
    X_63_4    PREC_34_63_4  -1
    X_63_4    PREC_39_63_4  -1
    X_63_4    PREC_46_63_4  -1
    X_63_4    PREC_54_63_4  -1
    X_63_4    PREC_62_63_4  -1
    X_63_4    PREC_67_63_4  -1
    X_63_4    PREC_76_63_4  -1
    X_63_4    PREC_82_63_4  -1
    X_63_4    PREC_85_63_4  -1
    X_65_4    OBJ       -564217.017861144
    X_65_4    R4113     3772
    X_65_4    R4104     7.3649999999999991e+03
    X_65_4    ORD_65_3  -1
    X_65_4    ORD_65_4  1
    X_65_4    PREC_65_66_4  1
    X_65_4    PREC_65_40_4  1
    X_65_4    PREC_65_61_4  1
    X_65_4    PREC_65_86_4  1
    X_65_4    PREC_65_15_4  1
    X_65_4    PREC_65_35_4  1
    X_65_4    PREC_65_43_4  1
    X_65_4    PREC_65_55_4  1
    X_65_4    PREC_65_83_4  1
    X_65_4    PREC_65_12_4  1
    X_65_4    PREC_65_17_4  1
    X_65_4    PREC_65_29_4  1
    X_65_4    PREC_65_79_4  1
    X_66_4    OBJ       -2564215.95242666
    X_66_4    R4113     16431
    X_66_4    R4104     19563
    X_66_4    ORD_66_3  -1
    X_66_4    ORD_66_4  1
    X_66_4    PREC_65_66_4  -1
    X_66_4    PREC_66_67_4  1
    X_66_4    PREC_66_41_4  1
    X_66_4    PREC_66_62_4  1
    X_66_4    PREC_66_70_4  1
    X_66_4    PREC_66_87_4  1
    X_66_4    PREC_66_16_4  1
    X_66_4    PREC_66_36_4  1
    X_66_4    PREC_66_44_4  1
    X_66_4    PREC_66_56_4  1
    X_66_4    PREC_66_84_4  1
    X_66_4    PREC_66_89_4  1
    X_67_4    OBJ       -758939.377126168
    X_67_4    R4113     18823
    X_67_4    R4104     27348
    X_67_4    ORD_67_3  -1
    X_67_4    ORD_67_4  1
    X_67_4    PREC_38_67_4  -1
    X_67_4    PREC_66_67_4  -1
    X_67_4    PREC_67_68_4  1
    X_67_4    PREC_67_42_4  1
    X_67_4    PREC_67_63_4  1
    X_67_4    PREC_67_71_4  1
    X_67_4    PREC_67_88_4  1
    X_68_4    OBJ       -414564.616655361
    X_68_4    R4113     19673
    X_68_4    R4104     37161
    X_68_4    ORD_68_3  -1
    X_68_4    ORD_68_4  1
    X_68_4    PREC_39_68_4  -1
    X_68_4    PREC_60_68_4  -1
    X_68_4    PREC_67_68_4  -1
    X_68_4    PREC_68_69_4  1
    X_68_4    PREC_80_68_4  -1
    X_68_4    PREC_85_68_4  -1
    X_69_4    OBJ       178585.622873169
    X_69_4    R4113     12135
    X_69_4    R4104     34991
    X_69_4    ORD_69_3  -1
    X_69_4    ORD_69_4  1
    X_69_4    PREC_8_69_4  -1
    X_69_4    PREC_13_69_4  -1
    X_69_4    PREC_33_69_4  -1
    X_69_4    PREC_40_69_4  -1
    X_69_4    PREC_53_69_4  -1
    X_69_4    PREC_61_69_4  -1
    X_69_4    PREC_68_69_4  -1
    X_69_4    PREC_75_69_4  -1
    X_69_4    PREC_81_69_4  -1
    X_69_4    PREC_86_69_4  -1
    X_70_4    OBJ       17319.8085329074
    X_70_4    R4104     922
    X_70_4    ORD_70_3  -1
    X_70_4    ORD_70_4  1
    X_70_4    PREC_38_70_4  -1
    X_70_4    PREC_66_70_4  -1
    X_70_4    PREC_70_71_4  1
    X_71_4    OBJ       174531.070198042
    X_71_4    R4104     9491
    X_71_4    ORD_71_3  -1
    X_71_4    ORD_71_4  1
    X_71_4    PREC_39_71_4  -1
    X_71_4    PREC_60_71_4  -1
    X_71_4    PREC_67_71_4  -1
    X_71_4    PREC_70_71_4  -1
    X_71_4    PREC_80_71_4  -1
    X_71_4    PREC_85_71_4  -1
    X_72_4    OBJ       7122.5492416671
    X_72_4    R4104     369
    X_72_4    ORD_72_3  -1
    X_72_4    ORD_72_4  1
    X_72_4    PREC_45_72_4  -1
    X_72_4    PREC_72_73_4  1
    X_72_4    PREC_72_49_4  1
    X_72_4    PREC_72_79_4  1
    X_72_4    PREC_75_72_4  -1
    X_73_4    OBJ       90574.5326705493
    X_73_4    R4104     4792
    X_73_4    ORD_73_3  -1
    X_73_4    ORD_73_4  1
    X_73_4    PREC_18_73_4  -1
    X_73_4    PREC_46_73_4  -1
    X_73_4    PREC_72_73_4  -1
    X_73_4    PREC_73_74_4  1
    X_73_4    PREC_76_73_4  -1
    X_73_4    PREC_80_73_4  -1
    X_74_4    OBJ       274822.424456582
    X_74_4    R4104     14927
    X_74_4    ORD_74_3  -1
    X_74_4    ORD_74_4  1
    X_74_4    PREC_19_74_4  -1
    X_74_4    PREC_47_74_4  -1
    X_74_4    PREC_53_74_4  -1
    X_74_4    PREC_73_74_4  -1
    X_74_4    PREC_77_74_4  -1
    X_74_4    PREC_81_74_4  -1
    X_75_4    OBJ       11242.2813637141
    X_75_4    R4104     553
    X_75_4    ORD_75_3  -1
    X_75_4    ORD_75_4  1
    X_75_4    PREC_75_76_4  1
    X_75_4    PREC_75_54_4  1
    X_75_4    PREC_75_72_4  1
    X_75_4    PREC_75_82_4  1
    X_75_4    PREC_75_28_4  1
    X_75_4    PREC_75_48_4  1
    X_75_4    PREC_75_62_4  1
    X_75_4    PREC_75_87_4  1
    X_75_4    PREC_75_22_4  1
    X_75_4    PREC_75_36_4  1
    X_75_4    PREC_75_69_4  1
    X_76_4    OBJ       79452.8332836379
    X_76_4    R4113     185
    X_76_4    R4104     7.4640000000000009e+03
    X_76_4    ORD_76_3  -1
    X_76_4    ORD_76_4  1
    X_76_4    PREC_75_76_4  -1
    X_76_4    PREC_76_77_4  1
    X_76_4    PREC_76_55_4  1
    X_76_4    PREC_76_73_4  1
    X_76_4    PREC_76_83_4  1
    X_76_4    PREC_76_29_4  1
    X_76_4    PREC_76_49_4  1
    X_76_4    PREC_76_63_4  1
    X_76_4    PREC_76_88_4  1
    X_77_4    OBJ       228690.823565901
    X_77_4    R4113     1467
    X_77_4    R4104     19341
    X_77_4    ORD_77_3  -1
    X_77_4    ORD_77_4  1
    X_77_4    PREC_76_77_4  -1
    X_77_4    PREC_77_78_4  1
    X_77_4    PREC_77_56_4  1
    X_77_4    PREC_77_74_4  1
    X_77_4    PREC_77_84_4  1
    X_77_4    PREC_80_77_4  -1
    X_78_4    OBJ       375020.70246492
    X_78_4    R4113     4301
    X_78_4    R4104     3.1058999999999996e+04
    X_78_4    ORD_78_3  -1
    X_78_4    ORD_78_4  1
    X_78_4    PREC_45_78_4  -1
    X_78_4    PREC_53_78_4  -1
    X_78_4    PREC_77_78_4  -1
    X_78_4    PREC_78_79_4  1
    X_78_4    PREC_81_78_4  -1
    X_79_4    OBJ       642495.969305747
    X_79_4    R4113     2568
    X_79_4    R4104     41061
    X_79_4    ORD_79_3  -1
    X_79_4    ORD_79_4  1
    X_79_4    PREC_18_79_4  -1
    X_79_4    PREC_26_79_4  -1
    X_79_4    PREC_46_79_4  -1
    X_79_4    PREC_54_79_4  -1
    X_79_4    PREC_60_79_4  -1
    X_79_4    PREC_65_79_4  -1
    X_79_4    PREC_72_79_4  -1
    X_79_4    PREC_78_79_4  -1
    X_79_4    PREC_82_79_4  -1
    X_79_4    PREC_85_79_4  -1
    X_80_4    OBJ       11242.2813637141
    X_80_4    R4104     553
    X_80_4    ORD_80_3  -1
    X_80_4    ORD_80_4  1
    X_80_4    PREC_80_81_4  1
    X_80_4    PREC_80_61_4  1
    X_80_4    PREC_80_77_4  1
    X_80_4    PREC_80_86_4  1
    X_80_4    PREC_80_35_4  1
    X_80_4    PREC_80_55_4  1
    X_80_4    PREC_80_68_4  1
    X_80_4    PREC_80_73_4  1
    X_80_4    PREC_80_29_4  1
    X_80_4    PREC_80_42_4  1
    X_80_4    PREC_80_49_4  1
    X_80_4    PREC_80_71_4  1
    X_81_4    OBJ       -1025380.83275939
    X_81_4    R4113     4008
    X_81_4    R4104     8246
    X_81_4    ORD_81_3  -1
    X_81_4    ORD_81_4  1
    X_81_4    PREC_80_81_4  -1
    X_81_4    PREC_81_82_4  1
    X_81_4    PREC_81_62_4  1
    X_81_4    PREC_81_78_4  1
    X_81_4    PREC_81_87_4  1
    X_81_4    PREC_81_36_4  1
    X_81_4    PREC_81_56_4  1
    X_81_4    PREC_81_69_4  1
    X_81_4    PREC_81_74_4  1
    X_81_4    PREC_81_89_4  1
    X_82_4    OBJ       17873.3775756019
    X_82_4    R4113     5738
    X_82_4    R4104     19228
    X_82_4    ORD_82_3  -1
    X_82_4    ORD_82_4  1
    X_82_4    PREC_75_82_4  -1
    X_82_4    PREC_81_82_4  -1
    X_82_4    PREC_82_83_4  1
    X_82_4    PREC_82_63_4  1
    X_82_4    PREC_82_79_4  1
    X_82_4    PREC_82_88_4  1
    X_83_4    OBJ       175444.560146631
    X_83_4    R4113     8309
    X_83_4    R4104     29026
    X_83_4    ORD_83_3  -1
    X_83_4    ORD_83_4  1
    X_83_4    PREC_60_83_4  -1
    X_83_4    PREC_65_83_4  -1
    X_83_4    PREC_76_83_4  -1
    X_83_4    PREC_82_83_4  -1
    X_83_4    PREC_83_84_4  1
    X_83_4    PREC_85_83_4  -1
    X_84_4    OBJ       181081.409075195
    X_84_4    R4113     9257
    X_84_4    R4104     36137
    X_84_4    ORD_84_3  -1
    X_84_4    ORD_84_4  1
    X_84_4    PREC_33_84_4  -1
    X_84_4    PREC_38_84_4  -1
    X_84_4    PREC_45_84_4  -1
    X_84_4    PREC_53_84_4  -1
    X_84_4    PREC_61_84_4  -1
    X_84_4    PREC_66_84_4  -1
    X_84_4    PREC_77_84_4  -1
    X_84_4    PREC_83_84_4  -1
    X_84_4    PREC_86_84_4  -1
    X_85_4    OBJ       -144299.930204131
    X_85_4    R4113     1068
    X_85_4    R4104     1437
    X_85_4    ORD_85_3  -1
    X_85_4    ORD_85_4  1
    X_85_4    PREC_85_86_4  1
    X_85_4    PREC_85_68_4  1
    X_85_4    PREC_85_83_4  1
    X_85_4    PREC_85_42_4  1
    X_85_4    PREC_85_63_4  1
    X_85_4    PREC_85_71_4  1
    X_85_4    PREC_85_79_4  1
    X_86_4    OBJ       28480.8763057588
    X_86_4    R4113     2419
    X_86_4    R4104     6507
    X_86_4    ORD_86_3  -1
    X_86_4    ORD_86_4  1
    X_86_4    PREC_65_86_4  -1
    X_86_4    PREC_80_86_4  -1
    X_86_4    PREC_85_86_4  -1
    X_86_4    PREC_86_87_4  1
    X_86_4    PREC_86_69_4  1
    X_86_4    PREC_86_84_4  1
    X_86_4    PREC_86_89_4  1
    X_87_4    OBJ       223091.713537103
    X_87_4    R4113     3.0490000000000005e+03
    X_87_4    R4104     17312
    X_87_4    ORD_87_3  -1
    X_87_4    ORD_87_4  1
    X_87_4    PREC_38_87_4  -1
    X_87_4    PREC_66_87_4  -1
    X_87_4    PREC_75_87_4  -1
    X_87_4    PREC_81_87_4  -1
    X_87_4    PREC_86_87_4  -1
    X_87_4    PREC_87_88_4  1
    X_88_4    OBJ       481490.677214826
    X_88_4    R4113     2188
    X_88_4    R4104     30320
    X_88_4    ORD_88_3  -1
    X_88_4    ORD_88_4  1
    X_88_4    PREC_39_88_4  -1
    X_88_4    PREC_60_88_4  -1
    X_88_4    PREC_67_88_4  -1
    X_88_4    PREC_76_88_4  -1
    X_88_4    PREC_82_88_4  -1
    X_88_4    PREC_87_88_4  -1
    X_89_4    OBJ       13488.2999251421
    X_89_4    R4104     738
    X_89_4    ORD_89_3  -1
    X_89_4    ORD_89_4  1
    X_89_4    PREC_38_89_4  -1
    X_89_4    PREC_66_89_4  -1
    X_89_4    PREC_81_89_4  -1
    X_89_4    PREC_86_89_4  -1
    X_0_5     OBJ       1540.82944127736
    X_0_5     R4105     93
    X_0_5     ORD_0_4   -1
    X_0_5     ORD_0_5   1
    X_0_5     PREC_0_1_5  1
    X_0_5     PREC_0_7_5  1
    X_0_5     PREC_0_22_5  1
    X_0_5     PREC_3_0_5  -1
    X_0_5     PREC_18_0_5  -1
    X_1_5     OBJ       51294.4849782884
    X_1_5     R4105     3133
    X_1_5     ORD_1_4   -1
    X_1_5     ORD_1_5   1
    X_1_5     PREC_0_1_5  -1
    X_1_5     PREC_1_2_5  1
    X_1_5     PREC_4_1_5  -1
    X_1_5     PREC_8_1_5  -1
    X_1_5     PREC_19_1_5  -1
    X_1_5     PREC_25_1_5  -1
    X_1_5     PREC_45_1_5  -1
    X_2_5     OBJ       191092.002919899
    X_2_5     R4105     1.1977999999999998e+04
    X_2_5     ORD_2_4   -1
    X_2_5     ORD_2_5   1
    X_2_5     PREC_1_2_5  -1
    X_2_5     PREC_5_2_5  -1
    X_2_5     PREC_9_2_5  -1
    X_2_5     PREC_20_2_5  -1
    X_2_5     PREC_26_2_5  -1
    X_2_5     PREC_32_2_5  -1
    X_2_5     PREC_37_2_5  -1
    X_2_5     PREC_46_2_5  -1
    X_2_5     PREC_52_2_5  -1
    X_3_5     OBJ       4872.3159111649
    X_3_5     R4105     277
    X_3_5     ORD_3_4   -1
    X_3_5     ORD_3_5   1
    X_3_5     PREC_3_4_5  1
    X_3_5     PREC_3_0_5  1
    X_3_5     PREC_3_10_5  1
    X_3_5     PREC_3_27_5  1
    X_3_5     PREC_3_15_5  1
    X_3_5     PREC_3_21_5  1
    X_3_5     PREC_3_35_5  1
    X_3_5     PREC_3_55_5  1
    X_3_5     PREC_3_42_5  1
    X_3_5     PREC_3_49_5  1
    X_3_5     PREC_3_63_5  1
    X_4_5     OBJ       100298.601256786
    X_4_5     R4105     5805
    X_4_5     ORD_4_4   -1
    X_4_5     ORD_4_5   1
    X_4_5     PREC_3_4_5  -1
    X_4_5     PREC_4_5_5  1
    X_4_5     PREC_4_1_5  1
    X_4_5     PREC_4_11_5  1
    X_4_5     PREC_4_28_5  1
    X_4_5     PREC_4_16_5  1
    X_4_5     PREC_4_22_5  1
    X_4_5     PREC_4_36_5  1
    X_4_5     PREC_4_56_5  1
    X_5_5     OBJ       287507.316249204
    X_5_5     R4105     17046
    X_5_5     ORD_5_4   -1
    X_5_5     ORD_5_5   1
    X_5_5     PREC_4_5_5  -1
    X_5_5     PREC_5_6_5  1
    X_5_5     PREC_5_2_5  1
    X_5_5     PREC_5_12_5  1
    X_5_5     PREC_5_29_5  1
    X_5_5     PREC_8_5_5  -1
    X_5_5     PREC_25_5_5  -1
    X_6_5     OBJ       490433.757064576
    X_6_5     R4114     277
    X_6_5     R4105     30590
    X_6_5     ORD_6_4   -1
    X_6_5     ORD_6_5   1
    X_6_5     PREC_5_6_5  -1
    X_6_5     PREC_6_7_5  1
    X_6_5     PREC_9_6_5  -1
    X_6_5     PREC_18_6_5  -1
    X_6_5     PREC_26_6_5  -1
    X_6_5     PREC_32_6_5  -1
    X_6_5     PREC_37_6_5  -1
    X_6_5     PREC_52_6_5  -1
    X_7_5     OBJ       566428.405210378
    X_7_5     R4114     2823
    X_7_5     R4105     43176
    X_7_5     ORD_7_4   -1
    X_7_5     ORD_7_5   1
    X_7_5     PREC_0_7_5  -1
    X_7_5     PREC_6_7_5  -1
    X_7_5     PREC_10_7_5  -1
    X_7_5     PREC_13_7_5  -1
    X_7_5     PREC_19_7_5  -1
    X_7_5     PREC_27_7_5  -1
    X_7_5     PREC_33_7_5  -1
    X_7_5     PREC_38_7_5  -1
    X_7_5     PREC_45_7_5  -1
    X_7_5     PREC_53_7_5  -1
    X_7_5     PREC_59_7_5  -1
    X_7_5     PREC_64_7_5  -1
    X_8_5     OBJ       16240.9965407018
    X_8_5     R4105     922
    X_8_5     ORD_8_4   -1
    X_8_5     ORD_8_5   1
    X_8_5     PREC_8_9_5  1
    X_8_5     PREC_8_5_5  1
    X_8_5     PREC_8_14_5  1
    X_8_5     PREC_8_34_5  1
    X_8_5     PREC_8_1_5  1
    X_8_5     PREC_8_28_5  1
    X_8_5     PREC_8_41_5  1
    X_8_5     PREC_8_62_5  1
    X_8_5     PREC_8_22_5  1
    X_8_5     PREC_8_44_5  1
    X_8_5     PREC_8_56_5  1
    X_8_5     PREC_8_69_5  1
    X_9_5     OBJ       196078.837266053
    X_9_5     R4105     11333
    X_9_5     ORD_9_4   -1
    X_9_5     ORD_9_5   1
    X_9_5     PREC_8_9_5  -1
    X_9_5     PREC_9_10_5  1
    X_9_5     PREC_9_6_5  1
    X_9_5     PREC_9_15_5  1
    X_9_5     PREC_9_35_5  1
    X_9_5     PREC_9_2_5  1
    X_9_5     PREC_9_17_5  1
    X_9_5     PREC_9_29_5  1
    X_9_5     PREC_9_42_5  1
    X_9_5     PREC_9_63_5  1
    X_10_5    OBJ       407347.10144752
    X_10_5    R4105     24141
    X_10_5    ORD_10_4  -1
    X_10_5    ORD_10_5  1
    X_10_5    PREC_3_10_5  -1
    X_10_5    PREC_9_10_5  -1
    X_10_5    PREC_10_11_5  1
    X_10_5    PREC_10_7_5  1
    X_10_5    PREC_10_16_5  1
    X_10_5    PREC_10_36_5  1
    X_10_5    PREC_32_10_5  -1
    X_10_5    PREC_37_10_5  -1
    X_11_5    OBJ       589726.94634846
    X_11_5    R4114     369
    X_11_5    R4105     36463
    X_11_5    ORD_11_4  -1
    X_11_5    ORD_11_5  1
    X_11_5    PREC_4_11_5  -1
    X_11_5    PREC_10_11_5  -1
    X_11_5    PREC_11_12_5  1
    X_11_5    PREC_13_11_5  -1
    X_11_5    PREC_25_11_5  -1
    X_11_5    PREC_33_11_5  -1
    X_11_5    PREC_38_11_5  -1
    X_11_5    PREC_59_11_5  -1
    X_11_5    PREC_64_11_5  -1
    X_12_5    OBJ       619390.102332988
    X_12_5    R4114     4191
    X_12_5    R4105     47497
    X_12_5    ORD_12_4  -1
    X_12_5    ORD_12_5  1
    X_12_5    PREC_5_12_5  -1
    X_12_5    PREC_11_12_5  -1
    X_12_5    PREC_14_12_5  -1
    X_12_5    PREC_18_12_5  -1
    X_12_5    PREC_26_12_5  -1
    X_12_5    PREC_34_12_5  -1
    X_12_5    PREC_39_12_5  -1
    X_12_5    PREC_52_12_5  -1
    X_12_5    PREC_60_12_5  -1
    X_12_5    PREC_65_12_5  -1
    X_13_5    OBJ       6340.26484867487
    X_13_5    R4105     369
    X_13_5    ORD_13_4  -1
    X_13_5    ORD_13_5  1
    X_13_5    PREC_13_14_5  1
    X_13_5    PREC_13_11_5  1
    X_13_5    PREC_13_41_5  1
    X_13_5    PREC_13_7_5  1
    X_13_5    PREC_13_36_5  1
    X_13_5    PREC_13_44_5  1
    X_13_5    PREC_13_69_5  1
    X_13_5    PREC_37_13_5  -1
    X_14_5    OBJ       62111.4206467461
    X_14_5    R4105     3686
    X_14_5    ORD_14_4  -1
    X_14_5    ORD_14_5  1
    X_14_5    PREC_8_14_5  -1
    X_14_5    PREC_13_14_5  -1
    X_14_5    PREC_14_15_5  1
    X_14_5    PREC_14_12_5  1
    X_14_5    PREC_14_17_5  1
    X_14_5    PREC_14_42_5  1
    X_14_5    PREC_38_14_5  -1
    X_14_5    PREC_64_14_5  -1
    X_15_5    OBJ       196505.668433466
    X_15_5    R4105     1.1977999999999998e+04
    X_15_5    ORD_15_4  -1
    X_15_5    ORD_15_5  1
    X_15_5    PREC_3_15_5  -1
    X_15_5    PREC_9_15_5  -1
    X_15_5    PREC_14_15_5  -1
    X_15_5    PREC_15_16_5  1
    X_15_5    PREC_32_15_5  -1
    X_15_5    PREC_39_15_5  -1
    X_15_5    PREC_65_15_5  -1
    X_16_5    OBJ       389277.821199519
    X_16_5    R4114     607
    X_16_5    R4105     25760
    X_16_5    ORD_16_4  -1
    X_16_5    ORD_16_5  1
    X_16_5    PREC_4_16_5  -1
    X_16_5    PREC_10_16_5  -1
    X_16_5    PREC_15_16_5  -1
    X_16_5    PREC_25_16_5  -1
    X_16_5    PREC_33_16_5  -1
    X_16_5    PREC_40_16_5  -1
    X_16_5    PREC_59_16_5  -1
    X_16_5    PREC_66_16_5  -1
    X_17_5    OBJ       1457.55357883307
    X_17_5    R4105     93
    X_17_5    ORD_17_4  -1
    X_17_5    ORD_17_5  1
    X_17_5    PREC_9_17_5  -1
    X_17_5    PREC_14_17_5  -1
    X_17_5    PREC_32_17_5  -1
    X_17_5    PREC_39_17_5  -1
    X_17_5    PREC_65_17_5  -1
    X_18_5    OBJ       8120.52651860817
    X_18_5    R4105     461
    X_18_5    ORD_18_4  -1
    X_18_5    ORD_18_5  1
    X_18_5    PREC_18_19_5  1
    X_18_5    PREC_18_0_5  1
    X_18_5    PREC_18_27_5  1
    X_18_5    PREC_18_47_5  1
    X_18_5    PREC_18_6_5  1
    X_18_5    PREC_18_35_5  1
    X_18_5    PREC_18_55_5  1
    X_18_5    PREC_18_73_5  1
    X_18_5    PREC_18_12_5  1
    X_18_5    PREC_18_63_5  1
    X_18_5    PREC_18_79_5  1
    X_19_5    OBJ       119485.891031185
    X_19_5    R4105     6911
    X_19_5    ORD_19_4  -1
    X_19_5    ORD_19_5  1
    X_19_5    PREC_18_19_5  -1
    X_19_5    PREC_19_20_5  1
    X_19_5    PREC_19_1_5  1
    X_19_5    PREC_19_28_5  1
    X_19_5    PREC_19_48_5  1
    X_19_5    PREC_19_7_5  1
    X_19_5    PREC_19_36_5  1
    X_19_5    PREC_19_56_5  1
    X_19_5    PREC_19_74_5  1
    X_20_5    OBJ       284362.946235501
    X_20_5    R4114     553
    X_20_5    R4105     18152
    X_20_5    ORD_20_4  -1
    X_20_5    ORD_20_5  1
    X_20_5    PREC_19_20_5  -1
    X_20_5    PREC_20_21_5  1
    X_20_5    PREC_20_2_5  1
    X_20_5    PREC_20_29_5  1
    X_20_5    PREC_20_49_5  1
    X_20_5    PREC_25_20_5  -1
    X_20_5    PREC_45_20_5  -1
    X_21_5    OBJ       427281.04915819
    X_21_5    R4114     2380
    X_21_5    R4105     30813
    X_21_5    ORD_21_4  -1
    X_21_5    ORD_21_5  1
    X_21_5    PREC_3_21_5  -1
    X_21_5    PREC_20_21_5  -1
    X_21_5    PREC_21_22_5  1
    X_21_5    PREC_26_21_5  -1
    X_21_5    PREC_32_21_5  -1
    X_21_5    PREC_46_21_5  -1
    X_21_5    PREC_52_21_5  -1
    X_22_5    OBJ       460149.139420017
    X_22_5    R4114     5698
    X_22_5    R4105     41723
    X_22_5    ORD_22_4  -1
    X_22_5    ORD_22_5  1
    X_22_5    PREC_0_22_5  -1
    X_22_5    PREC_4_22_5  -1
    X_22_5    PREC_8_22_5  -1
    X_22_5    PREC_21_22_5  -1
    X_22_5    PREC_27_22_5  -1
    X_22_5    PREC_33_22_5  -1
    X_22_5    PREC_47_22_5  -1
    X_22_5    PREC_53_22_5  -1
    X_22_5    PREC_59_22_5  -1
    X_22_5    PREC_64_22_5  -1
    X_22_5    PREC_75_22_5  -1
    X_25_5    OBJ       -6563153.59845123
    X_25_5    R4114     27389
    X_25_5    R4105     36695
    X_25_5    ORD_25_5  1
    X_25_5    PREC_25_26_5  1
    X_25_5    PREC_25_5_5  1
    X_25_5    PREC_25_20_5  1
    X_25_5    PREC_25_34_5  1
    X_25_5    PREC_25_54_5  1
    X_25_5    PREC_25_1_5  1
    X_25_5    PREC_25_11_5  1
    X_25_5    PREC_25_41_5  1
    X_25_5    PREC_25_48_5  1
    X_25_5    PREC_25_62_5  1
    X_25_5    PREC_25_78_5  1
    X_25_5    PREC_25_16_5  1
    X_25_5    PREC_25_69_5  1
    X_25_5    PREC_25_74_5  1
    X_25_5    PREC_25_84_5  1
    X_26_5    OBJ       -9448426.81116936
    X_26_5    R4114     32478
    X_26_5    R4105     43534
    X_26_5    ORD_26_4  -1
    X_26_5    ORD_26_5  1
    X_26_5    PREC_25_26_5  -1
    X_26_5    PREC_26_27_5  1
    X_26_5    PREC_26_6_5  1
    X_26_5    PREC_26_21_5  1
    X_26_5    PREC_26_35_5  1
    X_26_5    PREC_26_55_5  1
    X_26_5    PREC_26_2_5  1
    X_26_5    PREC_26_12_5  1
    X_26_5    PREC_26_42_5  1
    X_26_5    PREC_26_49_5  1
    X_26_5    PREC_26_63_5  1
    X_26_5    PREC_26_79_5  1
    X_27_5    OBJ       -3244592.90963068
    X_27_5    R4114     23762
    X_27_5    R4105     42198
    X_27_5    ORD_27_4  -1
    X_27_5    ORD_27_5  1
    X_27_5    PREC_3_27_5  -1
    X_27_5    PREC_18_27_5  -1
    X_27_5    PREC_26_27_5  -1
    X_27_5    PREC_27_28_5  1
    X_27_5    PREC_27_7_5  1
    X_27_5    PREC_27_22_5  1
    X_27_5    PREC_27_36_5  1
    X_27_5    PREC_27_56_5  1
    X_27_5    PREC_32_27_5  -1
    X_27_5    PREC_37_27_5  -1
    X_27_5    PREC_52_27_5  -1
    X_28_5    OBJ       -1800724.02954453
    X_28_5    R4114     30935
    X_28_5    R4105     36014
    X_28_5    ORD_28_4  -1
    X_28_5    ORD_28_5  1
    X_28_5    PREC_4_28_5  -1
    X_28_5    PREC_8_28_5  -1
    X_28_5    PREC_19_28_5  -1
    X_28_5    PREC_27_28_5  -1
    X_28_5    PREC_28_29_5  1
    X_28_5    PREC_33_28_5  -1
    X_28_5    PREC_38_28_5  -1
    X_28_5    PREC_45_28_5  -1
    X_28_5    PREC_53_28_5  -1
    X_28_5    PREC_59_28_5  -1
    X_28_5    PREC_64_28_5  -1
    X_28_5    PREC_75_28_5  -1
    X_29_5    OBJ       -1155711.17596146
    X_29_5    R4114     19875
    X_29_5    R4105     21258
    X_29_5    ORD_29_4  -1
    X_29_5    ORD_29_5  1
    X_29_5    PREC_5_29_5  -1
    X_29_5    PREC_9_29_5  -1
    X_29_5    PREC_20_29_5  -1
    X_29_5    PREC_28_29_5  -1
    X_29_5    PREC_34_29_5  -1
    X_29_5    PREC_39_29_5  -1
    X_29_5    PREC_46_29_5  -1
    X_29_5    PREC_54_29_5  -1
    X_29_5    PREC_60_29_5  -1
    X_29_5    PREC_65_29_5  -1
    X_29_5    PREC_76_29_5  -1
    X_29_5    PREC_80_29_5  -1
    X_32_5    OBJ       -5557436.54437009
    X_32_5    R4114     34635
    X_32_5    R4105     43849
    X_32_5    ORD_32_5  1
    X_32_5    PREC_32_33_5  1
    X_32_5    PREC_32_10_5  1
    X_32_5    PREC_32_27_5  1
    X_32_5    PREC_32_40_5  1
    X_32_5    PREC_32_61_5  1
    X_32_5    PREC_32_6_5  1
    X_32_5    PREC_32_15_5  1
    X_32_5    PREC_32_21_5  1
    X_32_5    PREC_32_43_5  1
    X_32_5    PREC_32_55_5  1
    X_32_5    PREC_32_68_5  1
    X_32_5    PREC_32_83_5  1
    X_32_5    PREC_32_2_5  1
    X_32_5    PREC_32_17_5  1
    X_32_5    PREC_32_49_5  1
    X_32_5    PREC_32_71_5  1
    X_32_5    PREC_32_79_5  1
    X_32_5    PREC_32_88_5  1
    X_33_5    OBJ       -11834715.8018286
    X_33_5    R4114     37283
    X_33_5    R4105     44009
    X_33_5    ORD_33_4  -1
    X_33_5    ORD_33_5  1
    X_33_5    PREC_32_33_5  -1
    X_33_5    PREC_33_34_5  1
    X_33_5    PREC_33_11_5  1
    X_33_5    PREC_33_28_5  1
    X_33_5    PREC_33_41_5  1
    X_33_5    PREC_33_62_5  1
    X_33_5    PREC_33_7_5  1
    X_33_5    PREC_33_16_5  1
    X_33_5    PREC_33_22_5  1
    X_33_5    PREC_33_44_5  1
    X_33_5    PREC_33_56_5  1
    X_33_5    PREC_33_69_5  1
    X_33_5    PREC_33_84_5  1
    X_33_5    PREC_37_33_5  -1
    X_34_5    OBJ       -1187849.89622047
    X_34_5    R4114     15678
    X_34_5    R4105     38248
    X_34_5    ORD_34_4  -1
    X_34_5    ORD_34_5  1
    X_34_5    PREC_8_34_5  -1
    X_34_5    PREC_25_34_5  -1
    X_34_5    PREC_33_34_5  -1
    X_34_5    PREC_34_35_5  1
    X_34_5    PREC_34_12_5  1
    X_34_5    PREC_34_29_5  1
    X_34_5    PREC_34_42_5  1
    X_34_5    PREC_34_63_5  1
    X_34_5    PREC_38_34_5  -1
    X_34_5    PREC_59_34_5  -1
    X_34_5    PREC_64_34_5  -1
    X_35_5    OBJ       76195.7192410788
    X_35_5    R4114     11088
    X_35_5    R4105     33782
    X_35_5    ORD_35_4  -1
    X_35_5    ORD_35_5  1
    X_35_5    PREC_3_35_5  -1
    X_35_5    PREC_9_35_5  -1
    X_35_5    PREC_18_35_5  -1
    X_35_5    PREC_26_35_5  -1
    X_35_5    PREC_34_35_5  -1
    X_35_5    PREC_35_36_5  1
    X_35_5    PREC_39_35_5  -1
    X_35_5    PREC_52_35_5  -1
    X_35_5    PREC_60_35_5  -1
    X_35_5    PREC_65_35_5  -1
    X_35_5    PREC_80_35_5  -1
    X_36_5    OBJ       58600.8967222548
    X_36_5    R4114     5880
    X_36_5    R4105     18164
    X_36_5    ORD_36_4  -1
    X_36_5    ORD_36_5  1
    X_36_5    PREC_4_36_5  -1
    X_36_5    PREC_10_36_5  -1
    X_36_5    PREC_13_36_5  -1
    X_36_5    PREC_19_36_5  -1
    X_36_5    PREC_27_36_5  -1
    X_36_5    PREC_35_36_5  -1
    X_36_5    PREC_40_36_5  -1
    X_36_5    PREC_45_36_5  -1
    X_36_5    PREC_53_36_5  -1
    X_36_5    PREC_61_36_5  -1
    X_36_5    PREC_66_36_5  -1
    X_36_5    PREC_75_36_5  -1
    X_36_5    PREC_81_36_5  -1
    X_37_5    OBJ       -91835.8188530442
    X_37_5    R4114     1028
    X_37_5    R4105     2042
    X_37_5    ORD_37_5  1
    X_37_5    PREC_37_38_5  1
    X_37_5    PREC_37_13_5  1
    X_37_5    PREC_37_33_5  1
    X_37_5    PREC_37_66_5  1
    X_37_5    PREC_37_10_5  1
    X_37_5    PREC_37_27_5  1
    X_37_5    PREC_37_61_5  1
    X_37_5    PREC_37_86_5  1
    X_37_5    PREC_37_6_5  1
    X_37_5    PREC_37_55_5  1
    X_37_5    PREC_37_83_5  1
    X_37_5    PREC_37_2_5  1
    X_37_5    PREC_37_49_5  1
    X_37_5    PREC_37_79_5  1
    X_38_5    OBJ       -232097.173179097
    X_38_5    R4114     2571
    X_38_5    R4105     9758
    X_38_5    ORD_38_4  -1
    X_38_5    ORD_38_5  1
    X_38_5    PREC_37_38_5  -1
    X_38_5    PREC_38_39_5  1
    X_38_5    PREC_38_14_5  1
    X_38_5    PREC_38_34_5  1
    X_38_5    PREC_38_67_5  1
    X_38_5    PREC_38_11_5  1
    X_38_5    PREC_38_28_5  1
    X_38_5    PREC_38_62_5  1
    X_38_5    PREC_38_70_5  1
    X_38_5    PREC_38_87_5  1
    X_38_5    PREC_38_7_5  1
    X_38_5    PREC_38_56_5  1
    X_38_5    PREC_38_84_5  1
    X_38_5    PREC_38_89_5  1
    X_39_5    OBJ       -550024.529218233
    X_39_5    R4114     5244
    X_39_5    R4105     22279
    X_39_5    ORD_39_4  -1
    X_39_5    ORD_39_5  1
    X_39_5    PREC_38_39_5  -1
    X_39_5    PREC_39_40_5  1
    X_39_5    PREC_39_15_5  1
    X_39_5    PREC_39_35_5  1
    X_39_5    PREC_39_43_5  1
    X_39_5    PREC_39_68_5  1
    X_39_5    PREC_39_12_5  1
    X_39_5    PREC_39_17_5  1
    X_39_5    PREC_39_29_5  1
    X_39_5    PREC_39_63_5  1
    X_39_5    PREC_39_71_5  1
    X_39_5    PREC_39_88_5  1
    X_39_5    PREC_64_39_5  -1
    X_40_5    OBJ       403394.88777229
    X_40_5    R4114     3.1210000000000005e+03
    X_40_5    R4105     33093
    X_40_5    ORD_40_4  -1
    X_40_5    ORD_40_5  1
    X_40_5    PREC_32_40_5  -1
    X_40_5    PREC_39_40_5  -1
    X_40_5    PREC_40_41_5  1
    X_40_5    PREC_40_16_5  1
    X_40_5    PREC_40_36_5  1
    X_40_5    PREC_40_44_5  1
    X_40_5    PREC_40_69_5  1
    X_40_5    PREC_65_40_5  -1
    X_41_5    OBJ       350319.632655437
    X_41_5    R4114     7125
    X_41_5    R4105     42369
    X_41_5    ORD_41_4  -1
    X_41_5    ORD_41_5  1
    X_41_5    PREC_8_41_5  -1
    X_41_5    PREC_13_41_5  -1
    X_41_5    PREC_25_41_5  -1
    X_41_5    PREC_33_41_5  -1
    X_41_5    PREC_40_41_5  -1
    X_41_5    PREC_41_42_5  1
    X_41_5    PREC_59_41_5  -1
    X_41_5    PREC_66_41_5  -1
    X_42_5    OBJ       285280.167149193
    X_42_5    R4114     10976
    X_42_5    R4105     41057
    X_42_5    ORD_42_4  -1
    X_42_5    ORD_42_5  1
    X_42_5    PREC_3_42_5  -1
    X_42_5    PREC_9_42_5  -1
    X_42_5    PREC_14_42_5  -1
    X_42_5    PREC_26_42_5  -1
    X_42_5    PREC_34_42_5  -1
    X_42_5    PREC_41_42_5  -1
    X_42_5    PREC_52_42_5  -1
    X_42_5    PREC_60_42_5  -1
    X_42_5    PREC_67_42_5  -1
    X_42_5    PREC_80_42_5  -1
    X_42_5    PREC_85_42_5  -1
    X_43_5    OBJ       22529.2280994776
    X_43_5    R4105     1383
    X_43_5    ORD_43_4  -1
    X_43_5    ORD_43_5  1
    X_43_5    PREC_32_43_5  -1
    X_43_5    PREC_39_43_5  -1
    X_43_5    PREC_43_44_5  1
    X_43_5    PREC_65_43_5  -1
    X_44_5    OBJ       158693.28570094
    X_44_5    R4105     9951
    X_44_5    ORD_44_4  -1
    X_44_5    ORD_44_5  1
    X_44_5    PREC_8_44_5  -1
    X_44_5    PREC_13_44_5  -1
    X_44_5    PREC_33_44_5  -1
    X_44_5    PREC_40_44_5  -1
    X_44_5    PREC_43_44_5  -1
    X_44_5    PREC_59_44_5  -1
    X_44_5    PREC_66_44_5  -1
    X_45_5    OBJ       9744.63182232981
    X_45_5    R4105     553
    X_45_5    ORD_45_4  -1
    X_45_5    ORD_45_5  1
    X_45_5    PREC_45_46_5  1
    X_45_5    PREC_45_20_5  1
    X_45_5    PREC_45_54_5  1
    X_45_5    PREC_45_72_5  1
    X_45_5    PREC_45_1_5  1
    X_45_5    PREC_45_28_5  1
    X_45_5    PREC_45_62_5  1
    X_45_5    PREC_45_78_5  1
    X_45_5    PREC_45_7_5  1
    X_45_5    PREC_45_36_5  1
    X_45_5    PREC_45_84_5  1
    X_46_5    OBJ       140255.591681569
    X_46_5    R4105     8.1089999999999991e+03
    X_46_5    ORD_46_4  -1
    X_46_5    ORD_46_5  1
    X_46_5    PREC_45_46_5  -1
    X_46_5    PREC_46_47_5  1
    X_46_5    PREC_46_21_5  1
    X_46_5    PREC_46_55_5  1
    X_46_5    PREC_46_73_5  1
    X_46_5    PREC_46_2_5  1
    X_46_5    PREC_46_29_5  1
    X_46_5    PREC_46_63_5  1
    X_46_5    PREC_46_79_5  1
    X_47_5    OBJ       325931.725723833
    X_47_5    R4114     553
    X_47_5    R4105     20455
    X_47_5    ORD_47_4  -1
    X_47_5    ORD_47_5  1
    X_47_5    PREC_18_47_5  -1
    X_47_5    PREC_46_47_5  -1
    X_47_5    PREC_47_48_5  1
    X_47_5    PREC_47_22_5  1
    X_47_5    PREC_47_56_5  1
    X_47_5    PREC_47_74_5  1
    X_47_5    PREC_52_47_5  -1
    X_48_5    OBJ       427230.258791611
    X_48_5    R4114     3266
    X_48_5    R4105     3.2284999999999996e+04
    X_48_5    ORD_48_4  -1
    X_48_5    ORD_48_5  1
    X_48_5    PREC_19_48_5  -1
    X_48_5    PREC_25_48_5  -1
    X_48_5    PREC_47_48_5  -1
    X_48_5    PREC_48_49_5  1
    X_48_5    PREC_53_48_5  -1
    X_48_5    PREC_59_48_5  -1
    X_48_5    PREC_75_48_5  -1
    X_49_5    OBJ       356467.922347676
    X_49_5    R4114     8207
    X_49_5    R4105     43721
    X_49_5    ORD_49_4  -1
    X_49_5    ORD_49_5  1
    X_49_5    PREC_3_49_5  -1
    X_49_5    PREC_20_49_5  -1
    X_49_5    PREC_26_49_5  -1
    X_49_5    PREC_32_49_5  -1
    X_49_5    PREC_37_49_5  -1
    X_49_5    PREC_48_49_5  -1
    X_49_5    PREC_54_49_5  -1
    X_49_5    PREC_60_49_5  -1
    X_49_5    PREC_72_49_5  -1
    X_49_5    PREC_76_49_5  -1
    X_49_5    PREC_80_49_5  -1
    X_52_5    OBJ       -7473367.3624374
    X_52_5    R4114     32298
    X_52_5    R4105     38471
    X_52_5    ORD_52_5  1
    X_52_5    PREC_52_53_5  1
    X_52_5    PREC_52_27_5  1
    X_52_5    PREC_52_47_5  1
    X_52_5    PREC_52_61_5  1
    X_52_5    PREC_52_77_5  1
    X_52_5    PREC_52_6_5  1
    X_52_5    PREC_52_21_5  1
    X_52_5    PREC_52_35_5  1
    X_52_5    PREC_52_68_5  1
    X_52_5    PREC_52_73_5  1
    X_52_5    PREC_52_83_5  1
    X_52_5    PREC_52_2_5  1
    X_52_5    PREC_52_12_5  1
    X_52_5    PREC_52_42_5  1
    X_52_5    PREC_52_88_5  1
    X_53_5    OBJ       -15010115.904686
    X_53_5    R4114     37735
    X_53_5    R4105     43079
    X_53_5    ORD_53_4  -1
    X_53_5    ORD_53_5  1
    X_53_5    PREC_52_53_5  -1
    X_53_5    PREC_53_54_5  1
    X_53_5    PREC_53_28_5  1
    X_53_5    PREC_53_48_5  1
    X_53_5    PREC_53_62_5  1
    X_53_5    PREC_53_78_5  1
    X_53_5    PREC_53_7_5  1
    X_53_5    PREC_53_22_5  1
    X_53_5    PREC_53_36_5  1
    X_53_5    PREC_53_69_5  1
    X_53_5    PREC_53_74_5  1
    X_53_5    PREC_53_84_5  1
    X_54_5    OBJ       -7659571.004436
    X_54_5    R4114     38023
    X_54_5    R4105     41064
    X_54_5    ORD_54_4  -1
    X_54_5    ORD_54_5  1
    X_54_5    PREC_25_54_5  -1
    X_54_5    PREC_45_54_5  -1
    X_54_5    PREC_53_54_5  -1
    X_54_5    PREC_54_55_5  1
    X_54_5    PREC_54_29_5  1
    X_54_5    PREC_54_49_5  1
    X_54_5    PREC_54_63_5  1
    X_54_5    PREC_54_79_5  1
    X_54_5    PREC_59_54_5  -1
    X_54_5    PREC_64_54_5  -1
    X_54_5    PREC_75_54_5  -1
    X_55_5    OBJ       -1040378.06123215
    X_55_5    R4114     31303
    X_55_5    R4105     34218
    X_55_5    ORD_55_4  -1
    X_55_5    ORD_55_5  1
    X_55_5    PREC_3_55_5  -1
    X_55_5    PREC_18_55_5  -1
    X_55_5    PREC_26_55_5  -1
    X_55_5    PREC_32_55_5  -1
    X_55_5    PREC_37_55_5  -1
    X_55_5    PREC_46_55_5  -1
    X_55_5    PREC_54_55_5  -1
    X_55_5    PREC_55_56_5  1
    X_55_5    PREC_60_55_5  -1
    X_55_5    PREC_65_55_5  -1
    X_55_5    PREC_76_55_5  -1
    X_55_5    PREC_80_55_5  -1
    X_56_5    OBJ       -473208.195764841
    X_56_5    R4114     18643
    X_56_5    R4105     22893
    X_56_5    ORD_56_4  -1
    X_56_5    ORD_56_5  1
    X_56_5    PREC_4_56_5  -1
    X_56_5    PREC_8_56_5  -1
    X_56_5    PREC_19_56_5  -1
    X_56_5    PREC_27_56_5  -1
    X_56_5    PREC_33_56_5  -1
    X_56_5    PREC_38_56_5  -1
    X_56_5    PREC_47_56_5  -1
    X_56_5    PREC_55_56_5  -1
    X_56_5    PREC_61_56_5  -1
    X_56_5    PREC_66_56_5  -1
    X_56_5    PREC_77_56_5  -1
    X_56_5    PREC_81_56_5  -1
    X_59_5    OBJ       -5425499.55598713
    X_59_5    R4114     38803
    X_59_5    R4105     40277
    X_59_5    ORD_59_5  1
    X_59_5    PREC_59_60_5  1
    X_59_5    PREC_59_34_5  1
    X_59_5    PREC_59_54_5  1
    X_59_5    PREC_59_67_5  1
    X_59_5    PREC_59_82_5  1
    X_59_5    PREC_59_11_5  1
    X_59_5    PREC_59_28_5  1
    X_59_5    PREC_59_41_5  1
    X_59_5    PREC_59_48_5  1
    X_59_5    PREC_59_70_5  1
    X_59_5    PREC_59_78_5  1
    X_59_5    PREC_59_87_5  1
    X_59_5    PREC_59_7_5  1
    X_59_5    PREC_59_16_5  1
    X_59_5    PREC_59_22_5  1
    X_59_5    PREC_59_44_5  1
    X_59_5    PREC_59_74_5  1
    X_59_5    PREC_59_89_5  1
    X_60_5    OBJ       -9940384.05324525
    X_60_5    R4114     41662
    X_60_5    R4105     41662
    X_60_5    ORD_60_4  -1
    X_60_5    ORD_60_5  1
    X_60_5    PREC_59_60_5  -1
    X_60_5    PREC_60_61_5  1
    X_60_5    PREC_60_35_5  1
    X_60_5    PREC_60_55_5  1
    X_60_5    PREC_60_68_5  1
    X_60_5    PREC_60_83_5  1
    X_60_5    PREC_60_12_5  1
    X_60_5    PREC_60_29_5  1
    X_60_5    PREC_60_42_5  1
    X_60_5    PREC_60_49_5  1
    X_60_5    PREC_60_71_5  1
    X_60_5    PREC_60_79_5  1
    X_60_5    PREC_60_88_5  1
    X_60_5    PREC_64_60_5  -1
    X_61_5    OBJ       -985521.24502553
    X_61_5    R4114     31179
    X_61_5    R4105     36027
    X_61_5    ORD_61_4  -1
    X_61_5    ORD_61_5  1
    X_61_5    PREC_32_61_5  -1
    X_61_5    PREC_37_61_5  -1
    X_61_5    PREC_52_61_5  -1
    X_61_5    PREC_60_61_5  -1
    X_61_5    PREC_61_62_5  1
    X_61_5    PREC_61_36_5  1
    X_61_5    PREC_61_56_5  1
    X_61_5    PREC_61_69_5  1
    X_61_5    PREC_61_84_5  1
    X_61_5    PREC_65_61_5  -1
    X_61_5    PREC_80_61_5  -1
    X_62_5    OBJ       -109285.840805081
    X_62_5    R4114     16429
    X_62_5    R4105     33437
    X_62_5    ORD_62_4  -1
    X_62_5    ORD_62_5  1
    X_62_5    PREC_8_62_5  -1
    X_62_5    PREC_25_62_5  -1
    X_62_5    PREC_33_62_5  -1
    X_62_5    PREC_38_62_5  -1
    X_62_5    PREC_45_62_5  -1
    X_62_5    PREC_53_62_5  -1
    X_62_5    PREC_61_62_5  -1
    X_62_5    PREC_62_63_5  1
    X_62_5    PREC_66_62_5  -1
    X_62_5    PREC_75_62_5  -1
    X_62_5    PREC_81_62_5  -1
    X_63_5    OBJ       68443.0980252096
    X_63_5    R4114     5519
    X_63_5    R4105     15934
    X_63_5    ORD_63_4  -1
    X_63_5    ORD_63_5  1
    X_63_5    PREC_3_63_5  -1
    X_63_5    PREC_9_63_5  -1
    X_63_5    PREC_18_63_5  -1
    X_63_5    PREC_26_63_5  -1
    X_63_5    PREC_34_63_5  -1
    X_63_5    PREC_39_63_5  -1
    X_63_5    PREC_46_63_5  -1
    X_63_5    PREC_54_63_5  -1
    X_63_5    PREC_62_63_5  -1
    X_63_5    PREC_67_63_5  -1
    X_63_5    PREC_76_63_5  -1
    X_63_5    PREC_82_63_5  -1
    X_63_5    PREC_85_63_5  -1
    X_64_5    OBJ       -23450.1777831304
    X_64_5    R4114     452
    X_64_5    R4105     1281
    X_64_5    ORD_64_5  1
    X_64_5    PREC_64_65_5  1
    X_64_5    PREC_64_39_5  1
    X_64_5    PREC_64_60_5  1
    X_64_5    PREC_64_85_5  1
    X_64_5    PREC_64_14_5  1
    X_64_5    PREC_64_34_5  1
    X_64_5    PREC_64_54_5  1
    X_64_5    PREC_64_82_5  1
    X_64_5    PREC_64_11_5  1
    X_64_5    PREC_64_28_5  1
    X_64_5    PREC_64_78_5  1
    X_64_5    PREC_64_7_5  1
    X_64_5    PREC_64_22_5  1
    X_64_5    PREC_64_74_5  1
    X_65_5    OBJ       -489054.394661878
    X_65_5    R4114     3772
    X_65_5    R4105     7.3649999999999991e+03
    X_65_5    ORD_65_4  -1
    X_65_5    ORD_65_5  1
    X_65_5    PREC_64_65_5  -1
    X_65_5    PREC_65_66_5  1
    X_65_5    PREC_65_40_5  1
    X_65_5    PREC_65_61_5  1
    X_65_5    PREC_65_86_5  1
    X_65_5    PREC_65_15_5  1
    X_65_5    PREC_65_35_5  1
    X_65_5    PREC_65_43_5  1
    X_65_5    PREC_65_55_5  1
    X_65_5    PREC_65_83_5  1
    X_65_5    PREC_65_12_5  1
    X_65_5    PREC_65_17_5  1
    X_65_5    PREC_65_29_5  1
    X_65_5    PREC_65_79_5  1
    X_66_5    OBJ       -2222621.8648105
    X_66_5    R4114     16431
    X_66_5    R4105     19563
    X_66_5    ORD_66_4  -1
    X_66_5    ORD_66_5  1
    X_66_5    PREC_37_66_5  -1
    X_66_5    PREC_65_66_5  -1
    X_66_5    PREC_66_67_5  1
    X_66_5    PREC_66_41_5  1
    X_66_5    PREC_66_62_5  1
    X_66_5    PREC_66_70_5  1
    X_66_5    PREC_66_87_5  1
    X_66_5    PREC_66_16_5  1
    X_66_5    PREC_66_36_5  1
    X_66_5    PREC_66_44_5  1
    X_66_5    PREC_66_56_5  1
    X_66_5    PREC_66_84_5  1
    X_66_5    PREC_66_89_5  1
    X_67_5    OBJ       -657836.65844132
    X_67_5    R4114     18823
    X_67_5    R4105     27348
    X_67_5    ORD_67_4  -1
    X_67_5    ORD_67_5  1
    X_67_5    PREC_38_67_5  -1
    X_67_5    PREC_59_67_5  -1
    X_67_5    PREC_66_67_5  -1
    X_67_5    PREC_67_68_5  1
    X_67_5    PREC_67_42_5  1
    X_67_5    PREC_67_63_5  1
    X_67_5    PREC_67_71_5  1
    X_67_5    PREC_67_88_5  1
    X_68_5    OBJ       -359338.058279763
    X_68_5    R4114     19673
    X_68_5    R4105     37161
    X_68_5    ORD_68_4  -1
    X_68_5    ORD_68_5  1
    X_68_5    PREC_32_68_5  -1
    X_68_5    PREC_39_68_5  -1
    X_68_5    PREC_52_68_5  -1
    X_68_5    PREC_60_68_5  -1
    X_68_5    PREC_67_68_5  -1
    X_68_5    PREC_68_69_5  1
    X_68_5    PREC_80_68_5  -1
    X_68_5    PREC_85_68_5  -1
    X_69_5    OBJ       154795.195686647
    X_69_5    R4114     12135
    X_69_5    R4105     34991
    X_69_5    ORD_69_4  -1
    X_69_5    ORD_69_5  1
    X_69_5    PREC_8_69_5  -1
    X_69_5    PREC_13_69_5  -1
    X_69_5    PREC_25_69_5  -1
    X_69_5    PREC_33_69_5  -1
    X_69_5    PREC_40_69_5  -1
    X_69_5    PREC_53_69_5  -1
    X_69_5    PREC_61_69_5  -1
    X_69_5    PREC_68_69_5  -1
    X_69_5    PREC_75_69_5  -1
    X_69_5    PREC_81_69_5  -1
    X_69_5    PREC_86_69_5  -1
    X_70_5    OBJ       15012.5363283623
    X_70_5    R4105     922
    X_70_5    ORD_70_4  -1
    X_70_5    ORD_70_5  1
    X_70_5    PREC_38_70_5  -1
    X_70_5    PREC_59_70_5  -1
    X_70_5    PREC_66_70_5  -1
    X_70_5    PREC_70_71_5  1
    X_71_5    OBJ       151280.773502651
    X_71_5    R4105     9491
    X_71_5    ORD_71_4  -1
    X_71_5    ORD_71_5  1
    X_71_5    PREC_32_71_5  -1
    X_71_5    PREC_39_71_5  -1
    X_71_5    PREC_60_71_5  -1
    X_71_5    PREC_67_71_5  -1
    X_71_5    PREC_70_71_5  -1
    X_71_5    PREC_80_71_5  -1
    X_71_5    PREC_85_71_5  -1
    X_72_5    OBJ       6173.71312378632
    X_72_5    R4105     369
    X_72_5    ORD_72_4  -1
    X_72_5    ORD_72_5  1
    X_72_5    PREC_45_72_5  -1
    X_72_5    PREC_72_73_5  1
    X_72_5    PREC_72_49_5  1
    X_72_5    PREC_72_79_5  1
    X_72_5    PREC_75_72_5  -1
    X_73_5    OBJ       78508.5735536595
    X_73_5    R4105     4792
    X_73_5    ORD_73_4  -1
    X_73_5    ORD_73_5  1
    X_73_5    PREC_18_73_5  -1
    X_73_5    PREC_46_73_5  -1
    X_73_5    PREC_52_73_5  -1
    X_73_5    PREC_72_73_5  -1
    X_73_5    PREC_73_74_5  1
    X_73_5    PREC_76_73_5  -1
    X_73_5    PREC_80_73_5  -1
    X_74_5    OBJ       238211.734452151
    X_74_5    R4105     14927
    X_74_5    ORD_74_4  -1
    X_74_5    ORD_74_5  1
    X_74_5    PREC_19_74_5  -1
    X_74_5    PREC_25_74_5  -1
    X_74_5    PREC_47_74_5  -1
    X_74_5    PREC_53_74_5  -1
    X_74_5    PREC_59_74_5  -1
    X_74_5    PREC_64_74_5  -1
    X_74_5    PREC_73_74_5  -1
    X_74_5    PREC_77_74_5  -1
    X_74_5    PREC_81_74_5  -1
    X_75_5    OBJ       9744.63182232981
    X_75_5    R4105     553
    X_75_5    ORD_75_4  -1
    X_75_5    ORD_75_5  1
    X_75_5    PREC_75_76_5  1
    X_75_5    PREC_75_54_5  1
    X_75_5    PREC_75_72_5  1
    X_75_5    PREC_75_82_5  1
    X_75_5    PREC_75_28_5  1
    X_75_5    PREC_75_48_5  1
    X_75_5    PREC_75_62_5  1
    X_75_5    PREC_75_87_5  1
    X_75_5    PREC_75_22_5  1
    X_75_5    PREC_75_36_5  1
    X_75_5    PREC_75_69_5  1
    X_76_5    OBJ       68868.4602832441
    X_76_5    R4114     185
    X_76_5    R4105     7.4640000000000009e+03
    X_76_5    ORD_76_4  -1
    X_76_5    ORD_76_5  1
    X_76_5    PREC_75_76_5  -1
    X_76_5    PREC_76_77_5  1
    X_76_5    PREC_76_55_5  1
    X_76_5    PREC_76_73_5  1
    X_76_5    PREC_76_83_5  1
    X_76_5    PREC_76_29_5  1
    X_76_5    PREC_76_49_5  1
    X_76_5    PREC_76_63_5  1
    X_76_5    PREC_76_88_5  1
    X_77_5    OBJ       198225.591825862
    X_77_5    R4114     1467
    X_77_5    R4105     19341
    X_77_5    ORD_77_4  -1
    X_77_5    ORD_77_5  1
    X_77_5    PREC_52_77_5  -1
    X_77_5    PREC_76_77_5  -1
    X_77_5    PREC_77_78_5  1
    X_77_5    PREC_77_56_5  1
    X_77_5    PREC_77_74_5  1
    X_77_5    PREC_77_84_5  1
    X_77_5    PREC_80_77_5  -1
    X_78_5    OBJ       325062.018378875
    X_78_5    R4114     4301
    X_78_5    R4105     3.1058999999999996e+04
    X_78_5    ORD_78_4  -1
    X_78_5    ORD_78_5  1
    X_78_5    PREC_25_78_5  -1
    X_78_5    PREC_45_78_5  -1
    X_78_5    PREC_53_78_5  -1
    X_78_5    PREC_59_78_5  -1
    X_78_5    PREC_64_78_5  -1
    X_78_5    PREC_77_78_5  -1
    X_78_5    PREC_78_79_5  1
    X_78_5    PREC_81_78_5  -1
    X_79_5    OBJ       556905.352718106
    X_79_5    R4114     2568
    X_79_5    R4105     41061
    X_79_5    ORD_79_4  -1
    X_79_5    ORD_79_5  1
    X_79_5    PREC_18_79_5  -1
    X_79_5    PREC_26_79_5  -1
    X_79_5    PREC_32_79_5  -1
    X_79_5    PREC_37_79_5  -1
    X_79_5    PREC_46_79_5  -1
    X_79_5    PREC_54_79_5  -1
    X_79_5    PREC_60_79_5  -1
    X_79_5    PREC_65_79_5  -1
    X_79_5    PREC_72_79_5  -1
    X_79_5    PREC_78_79_5  -1
    X_79_5    PREC_82_79_5  -1
    X_79_5    PREC_85_79_5  -1
    X_80_5    OBJ       9744.63182232981
    X_80_5    R4105     553
    X_80_5    ORD_80_4  -1
    X_80_5    ORD_80_5  1
    X_80_5    PREC_80_81_5  1
    X_80_5    PREC_80_61_5  1
    X_80_5    PREC_80_77_5  1
    X_80_5    PREC_80_86_5  1
    X_80_5    PREC_80_35_5  1
    X_80_5    PREC_80_55_5  1
    X_80_5    PREC_80_68_5  1
    X_80_5    PREC_80_73_5  1
    X_80_5    PREC_80_29_5  1
    X_80_5    PREC_80_42_5  1
    X_80_5    PREC_80_49_5  1
    X_80_5    PREC_80_71_5  1
    X_81_5    OBJ       -888783.901563299
    X_81_5    R4114     4008
    X_81_5    R4105     8246
    X_81_5    ORD_81_4  -1
    X_81_5    ORD_81_5  1
    X_81_5    PREC_80_81_5  -1
    X_81_5    PREC_81_82_5  1
    X_81_5    PREC_81_62_5  1
    X_81_5    PREC_81_78_5  1
    X_81_5    PREC_81_87_5  1
    X_81_5    PREC_81_36_5  1
    X_81_5    PREC_81_56_5  1
    X_81_5    PREC_81_69_5  1
    X_81_5    PREC_81_74_5  1
    X_81_5    PREC_81_89_5  1
    X_82_5    OBJ       15492.3612264215
    X_82_5    R4114     5738
    X_82_5    R4105     19228
    X_82_5    ORD_82_4  -1
    X_82_5    ORD_82_5  1
    X_82_5    PREC_59_82_5  -1
    X_82_5    PREC_64_82_5  -1
    X_82_5    PREC_75_82_5  -1
    X_82_5    PREC_81_82_5  -1
    X_82_5    PREC_82_83_5  1
    X_82_5    PREC_82_63_5  1
    X_82_5    PREC_82_79_5  1
    X_82_5    PREC_82_88_5  1
    X_83_5    OBJ       152072.572154047
    X_83_5    R4114     8309
    X_83_5    R4105     29026
    X_83_5    ORD_83_4  -1
    X_83_5    ORD_83_5  1
    X_83_5    PREC_32_83_5  -1
    X_83_5    PREC_37_83_5  -1
    X_83_5    PREC_52_83_5  -1
    X_83_5    PREC_60_83_5  -1
    X_83_5    PREC_65_83_5  -1
    X_83_5    PREC_76_83_5  -1
    X_83_5    PREC_82_83_5  -1
    X_83_5    PREC_83_84_5  1
    X_83_5    PREC_85_83_5  -1
    X_84_5    OBJ       156958.503725218
    X_84_5    R4114     9257
    X_84_5    R4105     36137
    X_84_5    ORD_84_4  -1
    X_84_5    ORD_84_5  1
    X_84_5    PREC_25_84_5  -1
    X_84_5    PREC_33_84_5  -1
    X_84_5    PREC_38_84_5  -1
    X_84_5    PREC_45_84_5  -1
    X_84_5    PREC_53_84_5  -1
    X_84_5    PREC_61_84_5  -1
    X_84_5    PREC_66_84_5  -1
    X_84_5    PREC_77_84_5  -1
    X_84_5    PREC_83_84_5  -1
    X_84_5    PREC_86_84_5  -1
    X_85_5    OBJ       -125076.89910392
    X_85_5    R4114     1068
    X_85_5    R4105     1437
    X_85_5    ORD_85_4  -1
    X_85_5    ORD_85_5  1
    X_85_5    PREC_64_85_5  -1
    X_85_5    PREC_85_86_5  1
    X_85_5    PREC_85_68_5  1
    X_85_5    PREC_85_83_5  1
    X_85_5    PREC_85_42_5  1
    X_85_5    PREC_85_63_5  1
    X_85_5    PREC_85_71_5  1
    X_85_5    PREC_85_79_5  1
    X_86_5    OBJ       24686.7734935648
    X_86_5    R4114     2419
    X_86_5    R4105     6507
    X_86_5    ORD_86_4  -1
    X_86_5    ORD_86_5  1
    X_86_5    PREC_37_86_5  -1
    X_86_5    PREC_65_86_5  -1
    X_86_5    PREC_80_86_5  -1
    X_86_5    PREC_85_86_5  -1
    X_86_5    PREC_86_87_5  1
    X_86_5    PREC_86_69_5  1
    X_86_5    PREC_86_84_5  1
    X_86_5    PREC_86_89_5  1
    X_87_5    OBJ       193372.371736614
    X_87_5    R4114     3.0490000000000005e+03
    X_87_5    R4105     17312
    X_87_5    ORD_87_4  -1
    X_87_5    ORD_87_5  1
    X_87_5    PREC_38_87_5  -1
    X_87_5    PREC_59_87_5  -1
    X_87_5    PREC_66_87_5  -1
    X_87_5    PREC_75_87_5  -1
    X_87_5    PREC_81_87_5  -1
    X_87_5    PREC_86_87_5  -1
    X_87_5    PREC_87_88_5  1
    X_88_5    OBJ       417348.509928472
    X_88_5    R4114     2188
    X_88_5    R4105     30320
    X_88_5    ORD_88_4  -1
    X_88_5    ORD_88_5  1
    X_88_5    PREC_32_88_5  -1
    X_88_5    PREC_39_88_5  -1
    X_88_5    PREC_52_88_5  -1
    X_88_5    PREC_60_88_5  -1
    X_88_5    PREC_67_88_5  -1
    X_88_5    PREC_76_88_5  -1
    X_88_5    PREC_82_88_5  -1
    X_88_5    PREC_87_88_5  -1
    X_89_5    OBJ       11691.4452171517
    X_89_5    R4105     738
    X_89_5    ORD_89_4  -1
    X_89_5    ORD_89_5  1
    X_89_5    PREC_38_89_5  -1
    X_89_5    PREC_59_89_5  -1
    X_89_5    PREC_66_89_5  -1
    X_89_5    PREC_81_89_5  -1
    X_89_5    PREC_86_89_5  -1
    X_0_6     OBJ       1335.5666097022
    X_0_6     R4106     93
    X_0_6     ORD_0_5   -1
    X_0_6     ORD_0_6   1
    X_0_6     PREC_0_1_6  1
    X_0_6     PREC_0_7_6  1
    X_0_6     PREC_0_22_6  1
    X_0_6     PREC_3_0_6  -1
    X_0_6     PREC_18_0_6  -1
    X_1_6     OBJ       44461.2489634677
    X_1_6     R4106     3133
    X_1_6     ORD_1_5   -1
    X_1_6     ORD_1_6   1
    X_1_6     PREC_0_1_6  -1
    X_1_6     PREC_1_2_6  1
    X_1_6     PREC_4_1_6  -1
    X_1_6     PREC_8_1_6  -1
    X_1_6     PREC_19_1_6  -1
    X_1_6     PREC_25_1_6  -1
    X_1_6     PREC_45_1_6  -1
    X_2_6     OBJ       165635.528270643
    X_2_6     R4106     1.1977999999999998e+04
    X_2_6     ORD_2_5   -1
    X_2_6     ORD_2_6   1
    X_2_6     PREC_1_2_6  -1
    X_2_6     PREC_5_2_6  -1
    X_2_6     PREC_9_2_6  -1
    X_2_6     PREC_20_2_6  -1
    X_2_6     PREC_26_2_6  -1
    X_2_6     PREC_32_2_6  -1
    X_2_6     PREC_37_2_6  -1
    X_2_6     PREC_46_2_6  -1
    X_2_6     PREC_52_2_6  -1
    X_3_6     OBJ       4223.24643373768
    X_3_6     R4106     277
    X_3_6     ORD_3_5   -1
    X_3_6     ORD_3_6   1
    X_3_6     PREC_3_4_6  1
    X_3_6     PREC_3_0_6  1
    X_3_6     PREC_3_10_6  1
    X_3_6     PREC_3_27_6  1
    X_3_6     PREC_3_15_6  1
    X_3_6     PREC_3_21_6  1
    X_3_6     PREC_3_35_6  1
    X_3_6     PREC_3_55_6  1
    X_3_6     PREC_3_42_6  1
    X_3_6     PREC_3_49_6  1
    X_3_6     PREC_3_63_6  1
    X_4_6     OBJ       86937.2425330541
    X_4_6     R4106     5805
    X_4_6     ORD_4_5   -1
    X_4_6     ORD_4_6   1
    X_4_6     PREC_3_4_6  -1
    X_4_6     PREC_4_5_6  1
    X_4_6     PREC_4_1_6  1
    X_4_6     PREC_4_11_6  1
    X_4_6     PREC_4_28_6  1
    X_4_6     PREC_4_16_6  1
    X_4_6     PREC_4_22_6  1
    X_4_6     PREC_4_36_6  1
    X_4_6     PREC_4_56_6  1
    X_5_6     OBJ       249206.798196434
    X_5_6     R4106     17046
    X_5_6     ORD_5_5   -1
    X_5_6     ORD_5_6   1
    X_5_6     PREC_4_5_6  -1
    X_5_6     PREC_5_6_6  1
    X_5_6     PREC_5_2_6  1
    X_5_6     PREC_5_12_6  1
    X_5_6     PREC_5_29_6  1
    X_5_6     PREC_8_5_6  -1
    X_5_6     PREC_25_5_6  -1
    X_6_6     OBJ       425100.230213182
    X_6_6     R4115     277
    X_6_6     R4106     30590
    X_6_6     ORD_6_5   -1
    X_6_6     ORD_6_6   1
    X_6_6     PREC_5_6_6  -1
    X_6_6     PREC_6_7_6  1
    X_6_6     PREC_9_6_6  -1
    X_6_6     PREC_18_6_6  -1
    X_6_6     PREC_26_6_6  -1
    X_6_6     PREC_32_6_6  -1
    X_6_6     PREC_37_6_6  -1
    X_6_6     PREC_52_6_6  -1
    X_7_6     OBJ       490971.190269253
    X_7_6     R4115     2823
    X_7_6     R4106     43176
    X_7_6     ORD_7_5   -1
    X_7_6     ORD_7_6   1
    X_7_6     PREC_0_7_6  -1
    X_7_6     PREC_6_7_6  -1
    X_7_6     PREC_10_7_6  -1
    X_7_6     PREC_13_7_6  -1
    X_7_6     PREC_19_7_6  -1
    X_7_6     PREC_27_7_6  -1
    X_7_6     PREC_33_7_6  -1
    X_7_6     PREC_38_7_6  -1
    X_7_6     PREC_45_7_6  -1
    X_7_6     PREC_53_7_6  -1
    X_7_6     PREC_59_7_6  -1
    X_7_6     PREC_64_7_6  -1
    X_8_6     OBJ       14077.439142173
    X_8_6     R4106     922
    X_8_6     ORD_8_5   -1
    X_8_6     ORD_8_6   1
    X_8_6     PREC_8_9_6  1
    X_8_6     PREC_8_5_6  1
    X_8_6     PREC_8_14_6  1
    X_8_6     PREC_8_34_6  1
    X_8_6     PREC_8_1_6  1
    X_8_6     PREC_8_28_6  1
    X_8_6     PREC_8_41_6  1
    X_8_6     PREC_8_62_6  1
    X_8_6     PREC_8_22_6  1
    X_8_6     PREC_8_44_6  1
    X_8_6     PREC_8_56_6  1
    X_8_6     PREC_8_69_6  1
    X_9_6     OBJ       169958.037474074
    X_9_6     R4106     11333
    X_9_6     ORD_9_5   -1
    X_9_6     ORD_9_6   1
    X_9_6     PREC_8_9_6  -1
    X_9_6     PREC_9_10_6  1
    X_9_6     PREC_9_6_6  1
    X_9_6     PREC_9_15_6  1
    X_9_6     PREC_9_35_6  1
    X_9_6     PREC_9_2_6  1
    X_9_6     PREC_9_17_6  1
    X_9_6     PREC_9_29_6  1
    X_9_6     PREC_9_42_6  1
    X_9_6     PREC_9_63_6  1
    X_10_6    OBJ       353082.03015726
    X_10_6    R4106     24141
    X_10_6    ORD_10_5  -1
    X_10_6    ORD_10_6  1
    X_10_6    PREC_3_10_6  -1
    X_10_6    PREC_9_10_6  -1
    X_10_6    PREC_10_11_6  1
    X_10_6    PREC_10_7_6  1
    X_10_6    PREC_10_16_6  1
    X_10_6    PREC_10_36_6  1
    X_10_6    PREC_32_10_6  -1
    X_10_6    PREC_37_10_6  -1
    X_11_6    OBJ       511165.997536825
    X_11_6    R4115     369
    X_11_6    R4106     36463
    X_11_6    ORD_11_5  -1
    X_11_6    ORD_11_6  1
    X_11_6    PREC_4_11_6  -1
    X_11_6    PREC_10_11_6  -1
    X_11_6    PREC_11_12_6  1
    X_11_6    PREC_13_11_6  -1
    X_11_6    PREC_25_11_6  -1
    X_11_6    PREC_33_11_6  -1
    X_11_6    PREC_38_11_6  -1
    X_11_6    PREC_59_11_6  -1
    X_11_6    PREC_64_11_6  -1
    X_12_6    OBJ       536877.552372174
    X_12_6    R4115     4191
    X_12_6    R4106     47497
    X_12_6    ORD_12_5  -1
    X_12_6    ORD_12_6  1
    X_12_6    PREC_5_12_6  -1
    X_12_6    PREC_11_12_6  -1
    X_12_6    PREC_14_12_6  -1
    X_12_6    PREC_18_12_6  -1
    X_12_6    PREC_26_12_6  -1
    X_12_6    PREC_34_12_6  -1
    X_12_6    PREC_39_12_6  -1
    X_12_6    PREC_52_12_6  -1
    X_12_6    PREC_60_12_6  -1
    X_12_6    PREC_65_12_6  -1
    X_13_6    OBJ       5495.64137451767
    X_13_6    R4106     369
    X_13_6    ORD_13_5  -1
    X_13_6    ORD_13_6  1
    X_13_6    PREC_13_14_6  1
    X_13_6    PREC_13_11_6  1
    X_13_6    PREC_13_41_6  1
    X_13_6    PREC_13_7_6  1
    X_13_6    PREC_13_36_6  1
    X_13_6    PREC_13_44_6  1
    X_13_6    PREC_13_69_6  1
    X_13_6    PREC_37_13_6  -1
    X_14_6    OBJ       53837.1978589615
    X_14_6    R4106     3686
    X_14_6    ORD_14_5  -1
    X_14_6    ORD_14_6  1
    X_14_6    PREC_8_14_6  -1
    X_14_6    PREC_13_14_6  -1
    X_14_6    PREC_14_15_6  1
    X_14_6    PREC_14_12_6  1
    X_14_6    PREC_14_17_6  1
    X_14_6    PREC_14_42_6  1
    X_14_6    PREC_38_14_6  -1
    X_14_6    PREC_64_14_6  -1
    X_15_6    OBJ       170328.0079847
    X_15_6    R4106     1.1977999999999998e+04
    X_15_6    ORD_15_5  -1
    X_15_6    ORD_15_6  1
    X_15_6    PREC_3_15_6  -1
    X_15_6    PREC_9_15_6  -1
    X_15_6    PREC_14_15_6  -1
    X_15_6    PREC_15_16_6  1
    X_15_6    PREC_32_15_6  -1
    X_15_6    PREC_39_15_6  -1
    X_15_6    PREC_65_15_6  -1
    X_16_6    OBJ       337419.863590287
    X_16_6    R4115     607
    X_16_6    R4106     25760
    X_16_6    ORD_16_5  -1
    X_16_6    ORD_16_6  1
    X_16_6    PREC_4_16_6  -1
    X_16_6    PREC_10_16_6  -1
    X_16_6    PREC_15_16_6  -1
    X_16_6    PREC_25_16_6  -1
    X_16_6    PREC_33_16_6  -1
    X_16_6    PREC_40_16_6  -1
    X_16_6    PREC_59_16_6  -1
    X_16_6    PREC_66_16_6  -1
    X_17_6    OBJ       1263.38440815852
    X_17_6    R4106     93
    X_17_6    ORD_17_5  -1
    X_17_6    ORD_17_6  1
    X_17_6    PREC_9_17_6  -1
    X_17_6    PREC_14_17_6  -1
    X_17_6    PREC_32_17_6  -1
    X_17_6    PREC_39_17_6  -1
    X_17_6    PREC_65_17_6  -1
    X_18_6    OBJ       7038.74405622947
    X_18_6    R4106     461
    X_18_6    ORD_18_5  -1
    X_18_6    ORD_18_6  1
    X_18_6    PREC_18_19_6  1
    X_18_6    PREC_18_0_6  1
    X_18_6    PREC_18_27_6  1
    X_18_6    PREC_18_47_6  1
    X_18_6    PREC_18_6_6  1
    X_18_6    PREC_18_35_6  1
    X_18_6    PREC_18_55_6  1
    X_18_6    PREC_18_73_6  1
    X_18_6    PREC_18_12_6  1
    X_18_6    PREC_18_63_6  1
    X_18_6    PREC_18_79_6  1
    X_19_6    OBJ       103568.482089408
    X_19_6    R4106     6911
    X_19_6    ORD_19_5  -1
    X_19_6    ORD_19_6  1
    X_19_6    PREC_18_19_6  -1
    X_19_6    PREC_19_20_6  1
    X_19_6    PREC_19_1_6  1
    X_19_6    PREC_19_28_6  1
    X_19_6    PREC_19_48_6  1
    X_19_6    PREC_19_7_6  1
    X_19_6    PREC_19_36_6  1
    X_19_6    PREC_19_56_6  1
    X_19_6    PREC_19_74_6  1
    X_20_6    OBJ       246481.307959584
    X_20_6    R4115     553
    X_20_6    R4106     18152
    X_20_6    ORD_20_5  -1
    X_20_6    ORD_20_6  1
    X_20_6    PREC_19_20_6  -1
    X_20_6    PREC_20_21_6  1
    X_20_6    PREC_20_2_6  1
    X_20_6    PREC_20_29_6  1
    X_20_6    PREC_20_49_6  1
    X_20_6    PREC_25_20_6  -1
    X_20_6    PREC_45_20_6  -1
    X_21_6    OBJ       370360.461013208
    X_21_6    R4115     2380
    X_21_6    R4106     30813
    X_21_6    ORD_21_5  -1
    X_21_6    ORD_21_6  1
    X_21_6    PREC_3_21_6  -1
    X_21_6    PREC_20_21_6  -1
    X_21_6    PREC_21_22_6  1
    X_21_6    PREC_26_21_6  -1
    X_21_6    PREC_32_21_6  -1
    X_21_6    PREC_46_21_6  -1
    X_21_6    PREC_52_21_6  -1
    X_22_6    OBJ       398850.002231984
    X_22_6    R4115     5698
    X_22_6    R4106     41723
    X_22_6    ORD_22_5  -1
    X_22_6    ORD_22_6  1
    X_22_6    PREC_0_22_6  -1
    X_22_6    PREC_4_22_6  -1
    X_22_6    PREC_8_22_6  -1
    X_22_6    PREC_21_22_6  -1
    X_22_6    PREC_27_22_6  -1
    X_22_6    PREC_33_22_6  -1
    X_22_6    PREC_47_22_6  -1
    X_22_6    PREC_53_22_6  -1
    X_22_6    PREC_59_22_6  -1
    X_22_6    PREC_64_22_6  -1
    X_22_6    PREC_75_22_6  -1
    X_25_6    OBJ       -5688837.82047392
    X_25_6    R4115     27389
    X_25_6    R4106     36695
    X_25_6    ORD_25_5  -1
    X_25_6    ORD_25_6  1
    X_25_6    PREC_25_26_6  1
    X_25_6    PREC_25_5_6  1
    X_25_6    PREC_25_20_6  1
    X_25_6    PREC_25_34_6  1
    X_25_6    PREC_25_54_6  1
    X_25_6    PREC_25_1_6  1
    X_25_6    PREC_25_11_6  1
    X_25_6    PREC_25_41_6  1
    X_25_6    PREC_25_48_6  1
    X_25_6    PREC_25_62_6  1
    X_25_6    PREC_25_78_6  1
    X_25_6    PREC_25_16_6  1
    X_25_6    PREC_25_69_6  1
    X_25_6    PREC_25_74_6  1
    X_25_6    PREC_25_84_6  1
    X_26_6    OBJ       -8189747.04478107
    X_26_6    R4115     32478
    X_26_6    R4106     43534
    X_26_6    ORD_26_5  -1
    X_26_6    ORD_26_6  1
    X_26_6    PREC_25_26_6  -1
    X_26_6    PREC_26_27_6  1
    X_26_6    PREC_26_6_6  1
    X_26_6    PREC_26_21_6  1
    X_26_6    PREC_26_35_6  1
    X_26_6    PREC_26_55_6  1
    X_26_6    PREC_26_2_6  1
    X_26_6    PREC_26_12_6  1
    X_26_6    PREC_26_42_6  1
    X_26_6    PREC_26_49_6  1
    X_26_6    PREC_26_63_6  1
    X_26_6    PREC_26_79_6  1
    X_27_6    OBJ       -2812361.85919895
    X_27_6    R4115     23762
    X_27_6    R4106     42198
    X_27_6    ORD_27_5  -1
    X_27_6    ORD_27_6  1
    X_27_6    PREC_3_27_6  -1
    X_27_6    PREC_18_27_6  -1
    X_27_6    PREC_26_27_6  -1
    X_27_6    PREC_27_28_6  1
    X_27_6    PREC_27_7_6  1
    X_27_6    PREC_27_22_6  1
    X_27_6    PREC_27_36_6  1
    X_27_6    PREC_27_56_6  1
    X_27_6    PREC_32_27_6  -1
    X_27_6    PREC_37_27_6  -1
    X_27_6    PREC_52_27_6  -1
    X_28_6    OBJ       -1560839.13165259
    X_28_6    R4115     30935
    X_28_6    R4106     36014
    X_28_6    ORD_28_5  -1
    X_28_6    ORD_28_6  1
    X_28_6    PREC_4_28_6  -1
    X_28_6    PREC_8_28_6  -1
    X_28_6    PREC_19_28_6  -1
    X_28_6    PREC_27_28_6  -1
    X_28_6    PREC_28_29_6  1
    X_28_6    PREC_33_28_6  -1
    X_28_6    PREC_38_28_6  -1
    X_28_6    PREC_45_28_6  -1
    X_28_6    PREC_53_28_6  -1
    X_28_6    PREC_59_28_6  -1
    X_28_6    PREC_64_28_6  -1
    X_28_6    PREC_75_28_6  -1
    X_29_6    OBJ       -1001752.18341765
    X_29_6    R4115     19875
    X_29_6    R4106     21258
    X_29_6    ORD_29_5  -1
    X_29_6    ORD_29_6  1
    X_29_6    PREC_5_29_6  -1
    X_29_6    PREC_9_29_6  -1
    X_29_6    PREC_20_29_6  -1
    X_29_6    PREC_28_29_6  -1
    X_29_6    PREC_34_29_6  -1
    X_29_6    PREC_39_29_6  -1
    X_29_6    PREC_46_29_6  -1
    X_29_6    PREC_54_29_6  -1
    X_29_6    PREC_60_29_6  -1
    X_29_6    PREC_65_29_6  -1
    X_29_6    PREC_76_29_6  -1
    X_29_6    PREC_80_29_6  -1
    X_32_6    OBJ       -4817098.17151881
    X_32_6    R4115     34635
    X_32_6    R4106     43849
    X_32_6    ORD_32_5  -1
    X_32_6    ORD_32_6  1
    X_32_6    PREC_32_33_6  1
    X_32_6    PREC_32_10_6  1
    X_32_6    PREC_32_27_6  1
    X_32_6    PREC_32_40_6  1
    X_32_6    PREC_32_61_6  1
    X_32_6    PREC_32_6_6  1
    X_32_6    PREC_32_15_6  1
    X_32_6    PREC_32_21_6  1
    X_32_6    PREC_32_43_6  1
    X_32_6    PREC_32_55_6  1
    X_32_6    PREC_32_68_6  1
    X_32_6    PREC_32_83_6  1
    X_32_6    PREC_32_2_6  1
    X_32_6    PREC_32_17_6  1
    X_32_6    PREC_32_49_6  1
    X_32_6    PREC_32_71_6  1
    X_32_6    PREC_32_79_6  1
    X_32_6    PREC_32_88_6  1
    X_33_6    OBJ       -10258144.6309424
    X_33_6    R4115     37283
    X_33_6    R4106     44009
    X_33_6    ORD_33_5  -1
    X_33_6    ORD_33_6  1
    X_33_6    PREC_32_33_6  -1
    X_33_6    PREC_33_34_6  1
    X_33_6    PREC_33_11_6  1
    X_33_6    PREC_33_28_6  1
    X_33_6    PREC_33_41_6  1
    X_33_6    PREC_33_62_6  1
    X_33_6    PREC_33_7_6  1
    X_33_6    PREC_33_16_6  1
    X_33_6    PREC_33_22_6  1
    X_33_6    PREC_33_44_6  1
    X_33_6    PREC_33_56_6  1
    X_33_6    PREC_33_69_6  1
    X_33_6    PREC_33_84_6  1
    X_33_6    PREC_37_33_6  -1
    X_34_6    OBJ       -1029609.51824435
    X_34_6    R4115     15678
    X_34_6    R4106     38248
    X_34_6    ORD_34_5  -1
    X_34_6    ORD_34_6  1
    X_34_6    PREC_8_34_6  -1
    X_34_6    PREC_25_34_6  -1
    X_34_6    PREC_33_34_6  -1
    X_34_6    PREC_34_35_6  1
    X_34_6    PREC_34_12_6  1
    X_34_6    PREC_34_29_6  1
    X_34_6    PREC_34_42_6  1
    X_34_6    PREC_34_63_6  1
    X_34_6    PREC_38_34_6  -1
    X_34_6    PREC_59_34_6  -1
    X_34_6    PREC_64_34_6  -1
    X_35_6    OBJ       66045.2453038965
    X_35_6    R4115     11088
    X_35_6    R4106     33782
    X_35_6    ORD_35_5  -1
    X_35_6    ORD_35_6  1
    X_35_6    PREC_3_35_6  -1
    X_35_6    PREC_9_35_6  -1
    X_35_6    PREC_18_35_6  -1
    X_35_6    PREC_26_35_6  -1
    X_35_6    PREC_34_35_6  -1
    X_35_6    PREC_35_36_6  1
    X_35_6    PREC_39_35_6  -1
    X_35_6    PREC_52_35_6  -1
    X_35_6    PREC_60_35_6  -1
    X_35_6    PREC_65_35_6  -1
    X_35_6    PREC_80_35_6  -1
    X_36_6    OBJ       50794.3311986357
    X_36_6    R4115     5880
    X_36_6    R4106     18164
    X_36_6    ORD_36_5  -1
    X_36_6    ORD_36_6  1
    X_36_6    PREC_4_36_6  -1
    X_36_6    PREC_10_36_6  -1
    X_36_6    PREC_13_36_6  -1
    X_36_6    PREC_19_36_6  -1
    X_36_6    PREC_27_36_6  -1
    X_36_6    PREC_35_36_6  -1
    X_36_6    PREC_40_36_6  -1
    X_36_6    PREC_45_36_6  -1
    X_36_6    PREC_53_36_6  -1
    X_36_6    PREC_61_36_6  -1
    X_36_6    PREC_66_36_6  -1
    X_36_6    PREC_75_36_6  -1
    X_36_6    PREC_81_36_6  -1
    X_37_6    OBJ       -79601.8364843201
    X_37_6    R4115     1028
    X_37_6    R4106     2042
    X_37_6    ORD_37_5  -1
    X_37_6    ORD_37_6  1
    X_37_6    PREC_37_38_6  1
    X_37_6    PREC_37_13_6  1
    X_37_6    PREC_37_33_6  1
    X_37_6    PREC_37_66_6  1
    X_37_6    PREC_37_10_6  1
    X_37_6    PREC_37_27_6  1
    X_37_6    PREC_37_61_6  1
    X_37_6    PREC_37_86_6  1
    X_37_6    PREC_37_6_6  1
    X_37_6    PREC_37_55_6  1
    X_37_6    PREC_37_83_6  1
    X_37_6    PREC_37_2_6  1
    X_37_6    PREC_37_49_6  1
    X_37_6    PREC_37_79_6  1
    X_38_6    OBJ       -201178.161839441
    X_38_6    R4115     2571
    X_38_6    R4106     9758
    X_38_6    ORD_38_5  -1
    X_38_6    ORD_38_6  1
    X_38_6    PREC_37_38_6  -1
    X_38_6    PREC_38_39_6  1
    X_38_6    PREC_38_14_6  1
    X_38_6    PREC_38_34_6  1
    X_38_6    PREC_38_67_6  1
    X_38_6    PREC_38_11_6  1
    X_38_6    PREC_38_28_6  1
    X_38_6    PREC_38_62_6  1
    X_38_6    PREC_38_70_6  1
    X_38_6    PREC_38_87_6  1
    X_38_6    PREC_38_7_6  1
    X_38_6    PREC_38_56_6  1
    X_38_6    PREC_38_84_6  1
    X_38_6    PREC_38_89_6  1
    X_39_6    OBJ       -476752.569792582
    X_39_6    R4115     5244
    X_39_6    R4106     22279
    X_39_6    ORD_39_5  -1
    X_39_6    ORD_39_6  1
    X_39_6    PREC_38_39_6  -1
    X_39_6    PREC_39_40_6  1
    X_39_6    PREC_39_15_6  1
    X_39_6    PREC_39_35_6  1
    X_39_6    PREC_39_43_6  1
    X_39_6    PREC_39_68_6  1
    X_39_6    PREC_39_12_6  1
    X_39_6    PREC_39_17_6  1
    X_39_6    PREC_39_29_6  1
    X_39_6    PREC_39_63_6  1
    X_39_6    PREC_39_71_6  1
    X_39_6    PREC_39_88_6  1
    X_39_6    PREC_64_39_6  -1
    X_40_6    OBJ       349656.313801093
    X_40_6    R4115     3.1210000000000005e+03
    X_40_6    R4106     33093
    X_40_6    ORD_40_5  -1
    X_40_6    ORD_40_6  1
    X_40_6    PREC_32_40_6  -1
    X_40_6    PREC_39_40_6  -1
    X_40_6    PREC_40_41_6  1
    X_40_6    PREC_40_16_6  1
    X_40_6    PREC_40_36_6  1
    X_40_6    PREC_40_44_6  1
    X_40_6    PREC_40_69_6  1
    X_40_6    PREC_65_40_6  -1
    X_41_6    OBJ       303651.52142334
    X_41_6    R4115     7125
    X_41_6    R4106     42369
    X_41_6    ORD_41_5  -1
    X_41_6    ORD_41_6  1
    X_41_6    PREC_8_41_6  -1
    X_41_6    PREC_13_41_6  -1
    X_41_6    PREC_25_41_6  -1
    X_41_6    PREC_33_41_6  -1
    X_41_6    PREC_40_41_6  -1
    X_41_6    PREC_41_42_6  1
    X_41_6    PREC_59_41_6  -1
    X_41_6    PREC_66_41_6  -1
    X_42_6    OBJ       247276.340552571
    X_42_6    R4115     10976
    X_42_6    R4106     41057
    X_42_6    ORD_42_5  -1
    X_42_6    ORD_42_6  1
    X_42_6    PREC_3_42_6  -1
    X_42_6    PREC_9_42_6  -1
    X_42_6    PREC_14_42_6  -1
    X_42_6    PREC_26_42_6  -1
    X_42_6    PREC_34_42_6  -1
    X_42_6    PREC_41_42_6  -1
    X_42_6    PREC_52_42_6  -1
    X_42_6    PREC_60_42_6  -1
    X_42_6    PREC_67_42_6  -1
    X_42_6    PREC_80_42_6  -1
    X_42_6    PREC_85_42_6  -1
    X_43_6    OBJ       19527.9788832973
    X_43_6    R4106     1383
    X_43_6    ORD_43_5  -1
    X_43_6    ORD_43_6  1
    X_43_6    PREC_32_43_6  -1
    X_43_6    PREC_39_43_6  -1
    X_43_6    PREC_43_44_6  1
    X_43_6    PREC_65_43_6  -1
    X_44_6    OBJ       137552.83218784
    X_44_6    R4106     9951
    X_44_6    ORD_44_5  -1
    X_44_6    ORD_44_6  1
    X_44_6    PREC_8_44_6  -1
    X_44_6    PREC_13_44_6  -1
    X_44_6    PREC_33_44_6  -1
    X_44_6    PREC_40_44_6  -1
    X_44_6    PREC_43_44_6  -1
    X_44_6    PREC_59_44_6  -1
    X_44_6    PREC_66_44_6  -1
    X_45_6    OBJ       8446.49286747537
    X_45_6    R4106     553
    X_45_6    ORD_45_5  -1
    X_45_6    ORD_45_6  1
    X_45_6    PREC_45_46_6  1
    X_45_6    PREC_45_20_6  1
    X_45_6    PREC_45_54_6  1
    X_45_6    PREC_45_72_6  1
    X_45_6    PREC_45_1_6  1
    X_45_6    PREC_45_28_6  1
    X_45_6    PREC_45_62_6  1
    X_45_6    PREC_45_78_6  1
    X_45_6    PREC_45_7_6  1
    X_45_6    PREC_45_36_6  1
    X_45_6    PREC_45_84_6  1
    X_46_6    OBJ       121571.330385951
    X_46_6    R4106     8.1089999999999991e+03
    X_46_6    ORD_46_5  -1
    X_46_6    ORD_46_6  1
    X_46_6    PREC_45_46_6  -1
    X_46_6    PREC_46_47_6  1
    X_46_6    PREC_46_21_6  1
    X_46_6    PREC_46_55_6  1
    X_46_6    PREC_46_73_6  1
    X_46_6    PREC_46_2_6  1
    X_46_6    PREC_46_29_6  1
    X_46_6    PREC_46_63_6  1
    X_46_6    PREC_46_79_6  1
    X_47_6    OBJ       282512.469101382
    X_47_6    R4115     553
    X_47_6    R4106     20455
    X_47_6    ORD_47_5  -1
    X_47_6    ORD_47_6  1
    X_47_6    PREC_18_47_6  -1
    X_47_6    PREC_46_47_6  -1
    X_47_6    PREC_47_48_6  1
    X_47_6    PREC_47_22_6  1
    X_47_6    PREC_47_56_6  1
    X_47_6    PREC_47_74_6  1
    X_47_6    PREC_52_47_6  -1
    X_48_6    OBJ       370316.436726106
    X_48_6    R4115     3266
    X_48_6    R4106     3.2284999999999996e+04
    X_48_6    ORD_48_5  -1
    X_48_6    ORD_48_6  1
    X_48_6    PREC_19_48_6  -1
    X_48_6    PREC_25_48_6  -1
    X_48_6    PREC_47_48_6  -1
    X_48_6    PREC_48_49_6  1
    X_48_6    PREC_53_48_6  -1
    X_48_6    PREC_59_48_6  -1
    X_48_6    PREC_75_48_6  -1
    X_49_6    OBJ       308980.761766077
    X_49_6    R4115     8207
    X_49_6    R4106     43721
    X_49_6    ORD_49_5  -1
    X_49_6    ORD_49_6  1
    X_49_6    PREC_3_49_6  -1
    X_49_6    PREC_20_49_6  -1
    X_49_6    PREC_26_49_6  -1
    X_49_6    PREC_32_49_6  -1
    X_49_6    PREC_37_49_6  -1
    X_49_6    PREC_48_49_6  -1
    X_49_6    PREC_54_49_6  -1
    X_49_6    PREC_60_49_6  -1
    X_49_6    PREC_72_49_6  -1
    X_49_6    PREC_76_49_6  -1
    X_49_6    PREC_80_49_6  -1
    X_52_6    OBJ       -6477796.72682992
    X_52_6    R4115     32298
    X_52_6    R4106     38471
    X_52_6    ORD_52_5  -1
    X_52_6    ORD_52_6  1
    X_52_6    PREC_52_53_6  1
    X_52_6    PREC_52_27_6  1
    X_52_6    PREC_52_47_6  1
    X_52_6    PREC_52_61_6  1
    X_52_6    PREC_52_77_6  1
    X_52_6    PREC_52_6_6  1
    X_52_6    PREC_52_21_6  1
    X_52_6    PREC_52_35_6  1
    X_52_6    PREC_52_68_6  1
    X_52_6    PREC_52_73_6  1
    X_52_6    PREC_52_83_6  1
    X_52_6    PREC_52_2_6  1
    X_52_6    PREC_52_12_6  1
    X_52_6    PREC_52_42_6  1
    X_52_6    PREC_52_88_6  1
    X_53_6    OBJ       -13010531.2586964
    X_53_6    R4115     37735
    X_53_6    R4106     43079
    X_53_6    ORD_53_5  -1
    X_53_6    ORD_53_6  1
    X_53_6    PREC_52_53_6  -1
    X_53_6    PREC_53_54_6  1
    X_53_6    PREC_53_28_6  1
    X_53_6    PREC_53_48_6  1
    X_53_6    PREC_53_62_6  1
    X_53_6    PREC_53_78_6  1
    X_53_6    PREC_53_7_6  1
    X_53_6    PREC_53_22_6  1
    X_53_6    PREC_53_36_6  1
    X_53_6    PREC_53_69_6  1
    X_53_6    PREC_53_74_6  1
    X_53_6    PREC_53_84_6  1
    X_54_6    OBJ       -6639195.10110562
    X_54_6    R4115     38023
    X_54_6    R4106     41064
    X_54_6    ORD_54_5  -1
    X_54_6    ORD_54_6  1
    X_54_6    PREC_25_54_6  -1
    X_54_6    PREC_45_54_6  -1
    X_54_6    PREC_53_54_6  -1
    X_54_6    PREC_54_55_6  1
    X_54_6    PREC_54_29_6  1
    X_54_6    PREC_54_49_6  1
    X_54_6    PREC_54_63_6  1
    X_54_6    PREC_54_79_6  1
    X_54_6    PREC_59_54_6  -1
    X_54_6    PREC_64_54_6  -1
    X_54_6    PREC_75_54_6  -1
    X_55_6    OBJ       -901783.262199663
    X_55_6    R4115     31303
    X_55_6    R4106     34218
    X_55_6    ORD_55_5  -1
    X_55_6    ORD_55_6  1
    X_55_6    PREC_3_55_6  -1
    X_55_6    PREC_18_55_6  -1
    X_55_6    PREC_26_55_6  -1
    X_55_6    PREC_32_55_6  -1
    X_55_6    PREC_37_55_6  -1
    X_55_6    PREC_46_55_6  -1
    X_55_6    PREC_54_55_6  -1
    X_55_6    PREC_55_56_6  1
    X_55_6    PREC_60_55_6  -1
    X_55_6    PREC_65_55_6  -1
    X_55_6    PREC_76_55_6  -1
    X_55_6    PREC_80_55_6  -1
    X_56_6    OBJ       -410169.385897127
    X_56_6    R4115     18643
    X_56_6    R4106     22893
    X_56_6    ORD_56_5  -1
    X_56_6    ORD_56_6  1
    X_56_6    PREC_4_56_6  -1
    X_56_6    PREC_8_56_6  -1
    X_56_6    PREC_19_56_6  -1
    X_56_6    PREC_27_56_6  -1
    X_56_6    PREC_33_56_6  -1
    X_56_6    PREC_38_56_6  -1
    X_56_6    PREC_47_56_6  -1
    X_56_6    PREC_55_56_6  -1
    X_56_6    PREC_61_56_6  -1
    X_56_6    PREC_66_56_6  -1
    X_56_6    PREC_77_56_6  -1
    X_56_6    PREC_81_56_6  -1
    X_59_6    OBJ       -4702737.27501176
    X_59_6    R4115     38803
    X_59_6    R4106     40277
    X_59_6    ORD_59_5  -1
    X_59_6    ORD_59_6  1
    X_59_6    PREC_59_60_6  1
    X_59_6    PREC_59_34_6  1
    X_59_6    PREC_59_54_6  1
    X_59_6    PREC_59_67_6  1
    X_59_6    PREC_59_82_6  1
    X_59_6    PREC_59_11_6  1
    X_59_6    PREC_59_28_6  1
    X_59_6    PREC_59_41_6  1
    X_59_6    PREC_59_48_6  1
    X_59_6    PREC_59_70_6  1
    X_59_6    PREC_59_78_6  1
    X_59_6    PREC_59_87_6  1
    X_59_6    PREC_59_7_6  1
    X_59_6    PREC_59_16_6  1
    X_59_6    PREC_59_22_6  1
    X_59_6    PREC_59_44_6  1
    X_59_6    PREC_59_74_6  1
    X_59_6    PREC_59_89_6  1
    X_60_6    OBJ       -8616167.80772615
    X_60_6    R4115     41662
    X_60_6    R4106     41662
    X_60_6    ORD_60_5  -1
    X_60_6    ORD_60_6  1
    X_60_6    PREC_59_60_6  -1
    X_60_6    PREC_60_61_6  1
    X_60_6    PREC_60_35_6  1
    X_60_6    PREC_60_55_6  1
    X_60_6    PREC_60_68_6  1
    X_60_6    PREC_60_83_6  1
    X_60_6    PREC_60_12_6  1
    X_60_6    PREC_60_29_6  1
    X_60_6    PREC_60_42_6  1
    X_60_6    PREC_60_49_6  1
    X_60_6    PREC_60_71_6  1
    X_60_6    PREC_60_79_6  1
    X_60_6    PREC_60_88_6  1
    X_60_6    PREC_64_60_6  -1
    X_61_6    OBJ       -854234.24082362
    X_61_6    R4115     31179
    X_61_6    R4106     36027
    X_61_6    ORD_61_5  -1
    X_61_6    ORD_61_6  1
    X_61_6    PREC_32_61_6  -1
    X_61_6    PREC_37_61_6  -1
    X_61_6    PREC_52_61_6  -1
    X_61_6    PREC_60_61_6  -1
    X_61_6    PREC_61_62_6  1
    X_61_6    PREC_61_36_6  1
    X_61_6    PREC_61_56_6  1
    X_61_6    PREC_61_69_6  1
    X_61_6    PREC_61_84_6  1
    X_61_6    PREC_65_61_6  -1
    X_61_6    PREC_80_61_6  -1
    X_62_6    OBJ       -94727.2397465982
    X_62_6    R4115     16429
    X_62_6    R4106     33437
    X_62_6    ORD_62_5  -1
    X_62_6    ORD_62_6  1
    X_62_6    PREC_8_62_6  -1
    X_62_6    PREC_25_62_6  -1
    X_62_6    PREC_33_62_6  -1
    X_62_6    PREC_38_62_6  -1
    X_62_6    PREC_45_62_6  -1
    X_62_6    PREC_53_62_6  -1
    X_62_6    PREC_61_62_6  -1
    X_62_6    PREC_62_63_6  1
    X_62_6    PREC_66_62_6  -1
    X_62_6    PREC_75_62_6  -1
    X_62_6    PREC_81_62_6  -1
    X_63_6    OBJ       59325.3957500093
    X_63_6    R4115     5519
    X_63_6    R4106     15934
    X_63_6    ORD_63_5  -1
    X_63_6    ORD_63_6  1
    X_63_6    PREC_3_63_6  -1
    X_63_6    PREC_9_63_6  -1
    X_63_6    PREC_18_63_6  -1
    X_63_6    PREC_26_63_6  -1
    X_63_6    PREC_34_63_6  -1
    X_63_6    PREC_39_63_6  -1
    X_63_6    PREC_46_63_6  -1
    X_63_6    PREC_54_63_6  -1
    X_63_6    PREC_62_63_6  -1
    X_63_6    PREC_67_63_6  -1
    X_63_6    PREC_76_63_6  -1
    X_63_6    PREC_82_63_6  -1
    X_63_6    PREC_85_63_6  -1
    X_64_6    OBJ       -20326.2435151587
    X_64_6    R4115     452
    X_64_6    R4106     1281
    X_64_6    ORD_64_5  -1
    X_64_6    ORD_64_6  1
    X_64_6    PREC_64_65_6  1
    X_64_6    PREC_64_39_6  1
    X_64_6    PREC_64_60_6  1
    X_64_6    PREC_64_85_6  1
    X_64_6    PREC_64_14_6  1
    X_64_6    PREC_64_34_6  1
    X_64_6    PREC_64_54_6  1
    X_64_6    PREC_64_82_6  1
    X_64_6    PREC_64_11_6  1
    X_64_6    PREC_64_28_6  1
    X_64_6    PREC_64_78_6  1
    X_64_6    PREC_64_7_6  1
    X_64_6    PREC_64_22_6  1
    X_64_6    PREC_64_74_6  1
    X_65_6    OBJ       -423904.620680828
    X_65_6    R4115     3772
    X_65_6    R4106     7.3649999999999991e+03
    X_65_6    ORD_65_5  -1
    X_65_6    ORD_65_6  1
    X_65_6    PREC_64_65_6  -1
    X_65_6    PREC_65_66_6  1
    X_65_6    PREC_65_40_6  1
    X_65_6    PREC_65_61_6  1
    X_65_6    PREC_65_86_6  1
    X_65_6    PREC_65_15_6  1
    X_65_6    PREC_65_35_6  1
    X_65_6    PREC_65_43_6  1
    X_65_6    PREC_65_55_6  1
    X_65_6    PREC_65_83_6  1
    X_65_6    PREC_65_12_6  1
    X_65_6    PREC_65_17_6  1
    X_65_6    PREC_65_29_6  1
    X_65_6    PREC_65_79_6  1
    X_66_6    OBJ       -1926533.50793588
    X_66_6    R4115     16431
    X_66_6    R4106     19563
    X_66_6    ORD_66_5  -1
    X_66_6    ORD_66_6  1
    X_66_6    PREC_37_66_6  -1
    X_66_6    PREC_65_66_6  -1
    X_66_6    PREC_66_67_6  1
    X_66_6    PREC_66_41_6  1
    X_66_6    PREC_66_62_6  1
    X_66_6    PREC_66_70_6  1
    X_66_6    PREC_66_87_6  1
    X_66_6    PREC_66_16_6  1
    X_66_6    PREC_66_36_6  1
    X_66_6    PREC_66_44_6  1
    X_66_6    PREC_66_56_6  1
    X_66_6    PREC_66_84_6  1
    X_66_6    PREC_66_89_6  1
    X_67_6    OBJ       -570202.41962923
    X_67_6    R4115     18823
    X_67_6    R4106     27348
    X_67_6    ORD_67_5  -1
    X_67_6    ORD_67_6  1
    X_67_6    PREC_38_67_6  -1
    X_67_6    PREC_59_67_6  -1
    X_67_6    PREC_66_67_6  -1
    X_67_6    PREC_67_68_6  1
    X_67_6    PREC_67_42_6  1
    X_67_6    PREC_67_63_6  1
    X_67_6    PREC_67_71_6  1
    X_67_6    PREC_67_88_6  1
    X_68_6    OBJ       -311468.550234749
    X_68_6    R4115     19673
    X_68_6    R4106     37161
    X_68_6    ORD_68_5  -1
    X_68_6    ORD_68_6  1
    X_68_6    PREC_32_68_6  -1
    X_68_6    PREC_39_68_6  -1
    X_68_6    PREC_52_68_6  -1
    X_68_6    PREC_60_68_6  -1
    X_68_6    PREC_67_68_6  -1
    X_68_6    PREC_68_69_6  1
    X_68_6    PREC_80_68_6  -1
    X_68_6    PREC_85_68_6  -1
    X_69_6    OBJ       134174.029365649
    X_69_6    R4115     12135
    X_69_6    R4106     34991
    X_69_6    ORD_69_5  -1
    X_69_6    ORD_69_6  1
    X_69_6    PREC_8_69_6  -1
    X_69_6    PREC_13_69_6  -1
    X_69_6    PREC_25_69_6  -1
    X_69_6    PREC_33_69_6  -1
    X_69_6    PREC_40_69_6  -1
    X_69_6    PREC_53_69_6  -1
    X_69_6    PREC_61_69_6  -1
    X_69_6    PREC_68_69_6  -1
    X_69_6    PREC_75_69_6  -1
    X_69_6    PREC_81_69_6  -1
    X_69_6    PREC_86_69_6  -1
    X_70_6    OBJ       13012.6292436886
    X_70_6    R4106     922
    X_70_6    ORD_70_5  -1
    X_70_6    ORD_70_6  1
    X_70_6    PREC_38_70_6  -1
    X_70_6    PREC_59_70_6  -1
    X_70_6    PREC_66_70_6  -1
    X_70_6    PREC_70_71_6  1
    X_71_6    OBJ       131127.78375559
    X_71_6    R4106     9491
    X_71_6    ORD_71_5  -1
    X_71_6    ORD_71_6  1
    X_71_6    PREC_32_71_6  -1
    X_71_6    PREC_39_71_6  -1
    X_71_6    PREC_60_71_6  -1
    X_71_6    PREC_67_71_6  -1
    X_71_6    PREC_70_71_6  -1
    X_71_6    PREC_80_71_6  -1
    X_71_6    PREC_85_71_6  -1
    X_72_6    OBJ       5351.27697143028
    X_72_6    R4106     369
    X_72_6    ORD_72_5  -1
    X_72_6    ORD_72_6  1
    X_72_6    PREC_45_72_6  -1
    X_72_6    PREC_72_73_6  1
    X_72_6    PREC_72_49_6  1
    X_72_6    PREC_72_79_6  1
    X_72_6    PREC_75_72_6  -1
    X_73_6    OBJ       68049.9908716004
    X_73_6    R4106     4792
    X_73_6    ORD_73_5  -1
    X_73_6    ORD_73_6  1
    X_73_6    PREC_18_73_6  -1
    X_73_6    PREC_46_73_6  -1
    X_73_6    PREC_52_73_6  -1
    X_73_6    PREC_72_73_6  -1
    X_73_6    PREC_73_74_6  1
    X_73_6    PREC_76_73_6  -1
    X_73_6    PREC_80_73_6  -1
    X_74_6    OBJ       206478.166921444
    X_74_6    R4106     14927
    X_74_6    ORD_74_5  -1
    X_74_6    ORD_74_6  1
    X_74_6    PREC_19_74_6  -1
    X_74_6    PREC_25_74_6  -1
    X_74_6    PREC_47_74_6  -1
    X_74_6    PREC_53_74_6  -1
    X_74_6    PREC_59_74_6  -1
    X_74_6    PREC_64_74_6  -1
    X_74_6    PREC_73_74_6  -1
    X_74_6    PREC_77_74_6  -1
    X_74_6    PREC_81_74_6  -1
    X_75_6    OBJ       8446.49286747537
    X_75_6    R4106     553
    X_75_6    ORD_75_5  -1
    X_75_6    ORD_75_6  1
    X_75_6    PREC_75_76_6  1
    X_75_6    PREC_75_54_6  1
    X_75_6    PREC_75_72_6  1
    X_75_6    PREC_75_82_6  1
    X_75_6    PREC_75_28_6  1
    X_75_6    PREC_75_48_6  1
    X_75_6    PREC_75_62_6  1
    X_75_6    PREC_75_87_6  1
    X_75_6    PREC_75_22_6  1
    X_75_6    PREC_75_36_6  1
    X_75_6    PREC_75_69_6  1
    X_76_6    OBJ       59694.0930331996
    X_76_6    R4115     185
    X_76_6    R4106     7.4640000000000009e+03
    X_76_6    ORD_76_5  -1
    X_76_6    ORD_76_6  1
    X_76_6    PREC_75_76_6  -1
    X_76_6    PREC_76_77_6  1
    X_76_6    PREC_76_55_6  1
    X_76_6    PREC_76_73_6  1
    X_76_6    PREC_76_83_6  1
    X_76_6    PREC_76_29_6  1
    X_76_6    PREC_76_49_6  1
    X_76_6    PREC_76_63_6  1
    X_76_6    PREC_76_88_6  1
    X_77_6    OBJ       171818.810400978
    X_77_6    R4115     1467
    X_77_6    R4106     19341
    X_77_6    ORD_77_5  -1
    X_77_6    ORD_77_6  1
    X_77_6    PREC_52_77_6  -1
    X_77_6    PREC_76_77_6  -1
    X_77_6    PREC_77_78_6  1
    X_77_6    PREC_77_56_6  1
    X_77_6    PREC_77_74_6  1
    X_77_6    PREC_77_84_6  1
    X_77_6    PREC_80_77_6  -1
    X_78_6    OBJ       281758.62051891
    X_78_6    R4115     4301
    X_78_6    R4106     3.1058999999999996e+04
    X_78_6    ORD_78_5  -1
    X_78_6    ORD_78_6  1
    X_78_6    PREC_25_78_6  -1
    X_78_6    PREC_45_78_6  -1
    X_78_6    PREC_53_78_6  -1
    X_78_6    PREC_59_78_6  -1
    X_78_6    PREC_64_78_6  -1
    X_78_6    PREC_77_78_6  -1
    X_78_6    PREC_78_79_6  1
    X_78_6    PREC_81_78_6  -1
    X_79_6    OBJ       482716.758863416
    X_79_6    R4115     2568
    X_79_6    R4106     41061
    X_79_6    ORD_79_5  -1
    X_79_6    ORD_79_6  1
    X_79_6    PREC_18_79_6  -1
    X_79_6    PREC_26_79_6  -1
    X_79_6    PREC_32_79_6  -1
    X_79_6    PREC_37_79_6  -1
    X_79_6    PREC_46_79_6  -1
    X_79_6    PREC_54_79_6  -1
    X_79_6    PREC_60_79_6  -1
    X_79_6    PREC_65_79_6  -1
    X_79_6    PREC_72_79_6  -1
    X_79_6    PREC_78_79_6  -1
    X_79_6    PREC_82_79_6  -1
    X_79_6    PREC_85_79_6  -1
    X_80_6    OBJ       8446.49286747537
    X_80_6    R4106     553
    X_80_6    ORD_80_5  -1
    X_80_6    ORD_80_6  1
    X_80_6    PREC_80_81_6  1
    X_80_6    PREC_80_61_6  1
    X_80_6    PREC_80_77_6  1
    X_80_6    PREC_80_86_6  1
    X_80_6    PREC_80_35_6  1
    X_80_6    PREC_80_55_6  1
    X_80_6    PREC_80_68_6  1
    X_80_6    PREC_80_73_6  1
    X_80_6    PREC_80_29_6  1
    X_80_6    PREC_80_42_6  1
    X_80_6    PREC_80_49_6  1
    X_80_6    PREC_80_71_6  1
    X_81_6    OBJ       -770383.840267708
    X_81_6    R4115     4008
    X_81_6    R4106     8246
    X_81_6    ORD_81_5  -1
    X_81_6    ORD_81_6  1
    X_81_6    PREC_80_81_6  -1
    X_81_6    PREC_81_82_6  1
    X_81_6    PREC_81_62_6  1
    X_81_6    PREC_81_78_6  1
    X_81_6    PREC_81_87_6  1
    X_81_6    PREC_81_36_6  1
    X_81_6    PREC_81_56_6  1
    X_81_6    PREC_81_69_6  1
    X_81_6    PREC_81_74_6  1
    X_81_6    PREC_81_89_6  1
    X_82_6    OBJ       13428.5338825696
    X_82_6    R4115     5738
    X_82_6    R4106     19228
    X_82_6    ORD_82_5  -1
    X_82_6    ORD_82_6  1
    X_82_6    PREC_59_82_6  -1
    X_82_6    PREC_64_82_6  -1
    X_82_6    PREC_75_82_6  -1
    X_82_6    PREC_81_82_6  -1
    X_82_6    PREC_82_83_6  1
    X_82_6    PREC_82_63_6  1
    X_82_6    PREC_82_79_6  1
    X_82_6    PREC_82_88_6  1
    X_83_6    OBJ       131814.102313687
    X_83_6    R4115     8309
    X_83_6    R4106     29026
    X_83_6    ORD_83_5  -1
    X_83_6    ORD_83_6  1
    X_83_6    PREC_32_83_6  -1
    X_83_6    PREC_37_83_6  -1
    X_83_6    PREC_52_83_6  -1
    X_83_6    PREC_60_83_6  -1
    X_83_6    PREC_65_83_6  -1
    X_83_6    PREC_76_83_6  -1
    X_83_6    PREC_82_83_6  -1
    X_83_6    PREC_83_84_6  1
    X_83_6    PREC_85_83_6  -1
    X_84_6    OBJ       136049.150586347
    X_84_6    R4115     9257
    X_84_6    R4106     36137
    X_84_6    ORD_84_5  -1
    X_84_6    ORD_84_6  1
    X_84_6    PREC_25_84_6  -1
    X_84_6    PREC_33_84_6  -1
    X_84_6    PREC_38_84_6  -1
    X_84_6    PREC_45_84_6  -1
    X_84_6    PREC_53_84_6  -1
    X_84_6    PREC_61_84_6  -1
    X_84_6    PREC_66_84_6  -1
    X_84_6    PREC_77_84_6  -1
    X_84_6    PREC_83_84_6  -1
    X_84_6    PREC_86_84_6  -1
    X_85_6    OBJ       -108414.679531177
    X_85_6    R4115     1068
    X_85_6    R4106     1437
    X_85_6    ORD_85_5  -1
    X_85_6    ORD_85_6  1
    X_85_6    PREC_64_85_6  -1
    X_85_6    PREC_85_86_6  1
    X_85_6    PREC_85_68_6  1
    X_85_6    PREC_85_83_6  1
    X_85_6    PREC_85_42_6  1
    X_85_6    PREC_85_63_6  1
    X_85_6    PREC_85_71_6  1
    X_85_6    PREC_85_79_6  1
    X_86_6    OBJ       21398.1051348251
    X_86_6    R4115     2419
    X_86_6    R4106     6507
    X_86_6    ORD_86_5  -1
    X_86_6    ORD_86_6  1
    X_86_6    PREC_37_86_6  -1
    X_86_6    PREC_65_86_6  -1
    X_86_6    PREC_80_86_6  -1
    X_86_6    PREC_85_86_6  -1
    X_86_6    PREC_86_87_6  1
    X_86_6    PREC_86_69_6  1
    X_86_6    PREC_86_84_6  1
    X_86_6    PREC_86_89_6  1
    X_87_6    OBJ       167612.115923904
    X_87_6    R4115     3.0490000000000005e+03
    X_87_6    R4106     17312
    X_87_6    ORD_87_5  -1
    X_87_6    ORD_87_6  1
    X_87_6    PREC_38_87_6  -1
    X_87_6    PREC_59_87_6  -1
    X_87_6    PREC_66_87_6  -1
    X_87_6    PREC_75_87_6  -1
    X_87_6    PREC_81_87_6  -1
    X_87_6    PREC_86_87_6  -1
    X_87_6    PREC_87_88_6  1
    X_88_6    OBJ       361751.092974543
    X_88_6    R4115     2188
    X_88_6    R4106     30320
    X_88_6    ORD_88_5  -1
    X_88_6    ORD_88_6  1
    X_88_6    PREC_32_88_6  -1
    X_88_6    PREC_39_88_6  -1
    X_88_6    PREC_52_88_6  -1
    X_88_6    PREC_60_88_6  -1
    X_88_6    PREC_67_88_6  -1
    X_88_6    PREC_76_88_6  -1
    X_88_6    PREC_82_88_6  -1
    X_88_6    PREC_87_88_6  -1
    X_89_6    OBJ       10133.9599522746
    X_89_6    R4106     738
    X_89_6    ORD_89_5  -1
    X_89_6    ORD_89_6  1
    X_89_6    PREC_38_89_6  -1
    X_89_6    PREC_59_89_6  -1
    X_89_6    PREC_66_89_6  -1
    X_89_6    PREC_81_89_6  -1
    X_89_6    PREC_86_89_6  -1
    X_0_7     OBJ       1157.64803109728
    X_0_7     R4107     93
    X_0_7     ORD_0_6   -1
    X_0_7     ORD_0_7   1
    X_0_7     PREC_0_1_7  1
    X_0_7     PREC_0_7_7  1
    X_0_7     PREC_0_22_7  1
    X_0_7     PREC_3_0_7  -1
    X_0_7     PREC_18_0_7  -1
    X_0_7     PREC_24_0_7  -1
    X_1_7     OBJ       38538.3079726445
    X_1_7     R4107     3133
    X_1_7     ORD_1_6   -1
    X_1_7     ORD_1_7   1
    X_1_7     PREC_0_1_7  -1
    X_1_7     PREC_1_2_7  1
    X_1_7     PREC_4_1_7  -1
    X_1_7     PREC_8_1_7  -1
    X_1_7     PREC_19_1_7  -1
    X_1_7     PREC_25_1_7  -1
    X_1_7     PREC_31_1_7  -1
    X_1_7     PREC_45_1_7  -1
    X_1_7     PREC_51_1_7  -1
    X_2_7     OBJ       143570.258337786
    X_2_7     R4107     1.1977999999999998e+04
    X_2_7     ORD_2_6   -1
    X_2_7     ORD_2_7   1
    X_2_7     PREC_1_2_7  -1
    X_2_7     PREC_5_2_7  -1
    X_2_7     PREC_9_2_7  -1
    X_2_7     PREC_20_2_7  -1
    X_2_7     PREC_26_2_7  -1
    X_2_7     PREC_32_2_7  -1
    X_2_7     PREC_37_2_7  -1
    X_2_7     PREC_46_2_7  -1
    X_2_7     PREC_52_2_7  -1
    X_2_7     PREC_58_2_7  -1
    X_3_7     OBJ       3660.64326806219
    X_3_7     R4107     277
    X_3_7     ORD_3_6   -1
    X_3_7     ORD_3_7   1
    X_3_7     PREC_3_4_7  1
    X_3_7     PREC_3_0_7  1
    X_3_7     PREC_3_10_7  1
    X_3_7     PREC_3_27_7  1
    X_3_7     PREC_3_15_7  1
    X_3_7     PREC_3_21_7  1
    X_3_7     PREC_3_35_7  1
    X_3_7     PREC_3_55_7  1
    X_3_7     PREC_3_42_7  1
    X_3_7     PREC_3_49_7  1
    X_3_7     PREC_3_63_7  1
    X_4_7     OBJ       75355.8279432105
    X_4_7     R4107     5805
    X_4_7     ORD_4_6   -1
    X_4_7     ORD_4_7   1
    X_4_7     PREC_3_4_7  -1
    X_4_7     PREC_4_5_7  1
    X_4_7     PREC_4_1_7  1
    X_4_7     PREC_4_11_7  1
    X_4_7     PREC_4_28_7  1
    X_4_7     PREC_4_16_7  1
    X_4_7     PREC_4_22_7  1
    X_4_7     PREC_4_36_7  1
    X_4_7     PREC_4_56_7  1
    X_4_7     PREC_24_4_7  -1
    X_5_7     OBJ       216008.514418074
    X_5_7     R4107     17046
    X_5_7     ORD_5_6   -1
    X_5_7     ORD_5_7   1
    X_5_7     PREC_4_5_7  -1
    X_5_7     PREC_5_6_7  1
    X_5_7     PREC_5_2_7  1
    X_5_7     PREC_5_12_7  1
    X_5_7     PREC_5_29_7  1
    X_5_7     PREC_8_5_7  -1
    X_5_7     PREC_25_5_7  -1
    X_5_7     PREC_31_5_7  -1
    X_5_7     PREC_51_5_7  -1
    X_6_7     OBJ       368470.161615538
    X_6_7     R4116     277
    X_6_7     R4107     30590
    X_6_7     ORD_6_6   -1
    X_6_7     ORD_6_7   1
    X_6_7     PREC_5_6_7  -1
    X_6_7     PREC_6_7_7  1
    X_6_7     PREC_9_6_7  -1
    X_6_7     PREC_18_6_7  -1
    X_6_7     PREC_26_6_7  -1
    X_6_7     PREC_32_6_7  -1
    X_6_7     PREC_37_6_7  -1
    X_6_7     PREC_52_6_7  -1
    X_6_7     PREC_58_6_7  -1
    X_7_7     OBJ       425566.068821845
    X_7_7     R4116     2823
    X_7_7     R4107     43176
    X_7_7     ORD_7_6   -1
    X_7_7     ORD_7_7   1
    X_7_7     PREC_0_7_7  -1
    X_7_7     PREC_6_7_7  -1
    X_7_7     PREC_10_7_7  -1
    X_7_7     PREC_13_7_7  -1
    X_7_7     PREC_19_7_7  -1
    X_7_7     PREC_27_7_7  -1
    X_7_7     PREC_33_7_7  -1
    X_7_7     PREC_38_7_7  -1
    X_7_7     PREC_45_7_7  -1
    X_7_7     PREC_53_7_7  -1
    X_7_7     PREC_59_7_7  -1
    X_7_7     PREC_64_7_7  -1
    X_8_7     OBJ       12202.101780204
    X_8_7     R4107     922
    X_8_7     ORD_8_6   -1
    X_8_7     ORD_8_7   1
    X_8_7     PREC_8_9_7  1
    X_8_7     PREC_8_5_7  1
    X_8_7     PREC_8_14_7  1
    X_8_7     PREC_8_34_7  1
    X_8_7     PREC_8_1_7  1
    X_8_7     PREC_8_28_7  1
    X_8_7     PREC_8_41_7  1
    X_8_7     PREC_8_62_7  1
    X_8_7     PREC_8_22_7  1
    X_8_7     PREC_8_44_7  1
    X_8_7     PREC_8_56_7  1
    X_8_7     PREC_8_69_7  1
    X_9_7     OBJ       147316.941005952
    X_9_7     R4107     11333
    X_9_7     ORD_9_6   -1
    X_9_7     ORD_9_7   1
    X_9_7     PREC_8_9_7  -1
    X_9_7     PREC_9_10_7  1
    X_9_7     PREC_9_6_7  1
    X_9_7     PREC_9_15_7  1
    X_9_7     PREC_9_35_7  1
    X_9_7     PREC_9_2_7  1
    X_9_7     PREC_9_17_7  1
    X_9_7     PREC_9_29_7  1
    X_9_7     PREC_9_42_7  1
    X_9_7     PREC_9_63_7  1
    X_9_7     PREC_31_9_7  -1
    X_10_7    OBJ       306045.92392327
    X_10_7    R4107     24141
    X_10_7    ORD_10_6  -1
    X_10_7    ORD_10_7  1
    X_10_7    PREC_3_10_7  -1
    X_10_7    PREC_9_10_7  -1
    X_10_7    PREC_10_11_7  1
    X_10_7    PREC_10_7_7  1
    X_10_7    PREC_10_16_7  1
    X_10_7    PREC_10_36_7  1
    X_10_7    PREC_24_10_7  -1
    X_10_7    PREC_32_10_7  -1
    X_10_7    PREC_37_10_7  -1
    X_10_7    PREC_58_10_7  -1
    X_11_7    OBJ       443070.608619306
    X_11_7    R4116     369
    X_11_7    R4107     36463
    X_11_7    ORD_11_6  -1
    X_11_7    ORD_11_7  1
    X_11_7    PREC_4_11_7  -1
    X_11_7    PREC_10_11_7  -1
    X_11_7    PREC_11_12_7  1
    X_11_7    PREC_13_11_7  -1
    X_11_7    PREC_25_11_7  -1
    X_11_7    PREC_33_11_7  -1
    X_11_7    PREC_38_11_7  -1
    X_11_7    PREC_51_11_7  -1
    X_11_7    PREC_59_11_7  -1
    X_11_7    PREC_64_11_7  -1
    X_12_7    OBJ       465356.978026392
    X_12_7    R4116     4191
    X_12_7    R4107     47497
    X_12_7    ORD_12_6  -1
    X_12_7    ORD_12_7  1
    X_12_7    PREC_5_12_7  -1
    X_12_7    PREC_11_12_7  -1
    X_12_7    PREC_14_12_7  -1
    X_12_7    PREC_18_12_7  -1
    X_12_7    PREC_26_12_7  -1
    X_12_7    PREC_34_12_7  -1
    X_12_7    PREC_39_12_7  -1
    X_12_7    PREC_52_12_7  -1
    X_12_7    PREC_60_12_7  -1
    X_12_7    PREC_65_12_7  -1
    X_13_7    OBJ       4763.53509485061
    X_13_7    R4107     369
    X_13_7    ORD_13_6  -1
    X_13_7    ORD_13_7  1
    X_13_7    PREC_13_14_7  1
    X_13_7    PREC_13_11_7  1
    X_13_7    PREC_13_41_7  1
    X_13_7    PREC_13_7_7  1
    X_13_7    PREC_13_36_7  1
    X_13_7    PREC_13_44_7  1
    X_13_7    PREC_13_69_7  1
    X_13_7    PREC_37_13_7  -1
    X_14_7    OBJ       46665.2323054991
    X_14_7    R4107     3686
    X_14_7    ORD_14_6  -1
    X_14_7    ORD_14_7  1
    X_14_7    PREC_8_14_7  -1
    X_14_7    PREC_13_14_7  -1
    X_14_7    PREC_14_15_7  1
    X_14_7    PREC_14_12_7  1
    X_14_7    PREC_14_17_7  1
    X_14_7    PREC_14_42_7  1
    X_14_7    PREC_31_14_7  -1
    X_14_7    PREC_38_14_7  -1
    X_14_7    PREC_64_14_7  -1
    X_15_7    OBJ       147637.625597854
    X_15_7    R4107     1.1977999999999998e+04
    X_15_7    ORD_15_6  -1
    X_15_7    ORD_15_7  1
    X_15_7    PREC_3_15_7  -1
    X_15_7    PREC_9_15_7  -1
    X_15_7    PREC_14_15_7  -1
    X_15_7    PREC_15_16_7  1
    X_15_7    PREC_24_15_7  -1
    X_15_7    PREC_32_15_7  -1
    X_15_7    PREC_39_15_7  -1
    X_15_7    PREC_58_15_7  -1
    X_15_7    PREC_65_15_7  -1
    X_16_7    OBJ       292470.205454974
    X_16_7    R4116     607
    X_16_7    R4107     25760
    X_16_7    ORD_16_6  -1
    X_16_7    ORD_16_7  1
    X_16_7    PREC_4_16_7  -1
    X_16_7    PREC_10_16_7  -1
    X_16_7    PREC_15_16_7  -1
    X_16_7    PREC_25_16_7  -1
    X_16_7    PREC_33_16_7  -1
    X_16_7    PREC_40_16_7  -1
    X_16_7    PREC_51_16_7  -1
    X_16_7    PREC_59_16_7  -1
    X_16_7    PREC_66_16_7  -1
    X_17_7    OBJ       1095.08163950715
    X_17_7    R4107     93
    X_17_7    ORD_17_6  -1
    X_17_7    ORD_17_7  1
    X_17_7    PREC_9_17_7  -1
    X_17_7    PREC_14_17_7  -1
    X_17_7    PREC_24_17_7  -1
    X_17_7    PREC_32_17_7  -1
    X_17_7    PREC_39_17_7  -1
    X_17_7    PREC_58_17_7  -1
    X_17_7    PREC_65_17_7  -1
    X_18_7    OBJ       6101.07211343699
    X_18_7    R4107     461
    X_18_7    ORD_18_6  -1
    X_18_7    ORD_18_7  1
    X_18_7    PREC_18_19_7  1
    X_18_7    PREC_18_0_7  1
    X_18_7    PREC_18_27_7  1
    X_18_7    PREC_18_47_7  1
    X_18_7    PREC_18_6_7  1
    X_18_7    PREC_18_35_7  1
    X_18_7    PREC_18_55_7  1
    X_18_7    PREC_18_73_7  1
    X_18_7    PREC_18_12_7  1
    X_18_7    PREC_18_63_7  1
    X_18_7    PREC_18_79_7  1
    X_19_7    OBJ       89771.5235642726
    X_19_7    R4107     6911
    X_19_7    ORD_19_6  -1
    X_19_7    ORD_19_7  1
    X_19_7    PREC_18_19_7  -1
    X_19_7    PREC_19_20_7  1
    X_19_7    PREC_19_1_7  1
    X_19_7    PREC_19_28_7  1
    X_19_7    PREC_19_48_7  1
    X_19_7    PREC_19_7_7  1
    X_19_7    PREC_19_36_7  1
    X_19_7    PREC_19_56_7  1
    X_19_7    PREC_19_74_7  1
    X_19_7    PREC_24_19_7  -1
    X_20_7    OBJ       213646.102552172
    X_20_7    R4116     553
    X_20_7    R4107     18152
    X_20_7    ORD_20_6  -1
    X_20_7    ORD_20_7  1
    X_20_7    PREC_19_20_7  -1
    X_20_7    PREC_20_21_7  1
    X_20_7    PREC_20_2_7  1
    X_20_7    PREC_20_29_7  1
    X_20_7    PREC_20_49_7  1
    X_20_7    PREC_25_20_7  -1
    X_20_7    PREC_31_20_7  -1
    X_20_7    PREC_45_20_7  -1
    X_20_7    PREC_51_20_7  -1
    X_21_7    OBJ       321022.594735143
    X_21_7    R4116     2380
    X_21_7    R4107     30813
    X_21_7    ORD_21_6  -1
    X_21_7    ORD_21_7  1
    X_21_7    PREC_3_21_7  -1
    X_21_7    PREC_20_21_7  -1
    X_21_7    PREC_21_22_7  1
    X_21_7    PREC_26_21_7  -1
    X_21_7    PREC_32_21_7  -1
    X_21_7    PREC_46_21_7  -1
    X_21_7    PREC_52_21_7  -1
    X_21_7    PREC_58_21_7  -1
    X_22_7    OBJ       345716.878838377
    X_22_7    R4116     5698
    X_22_7    R4107     41723
    X_22_7    ORD_22_6  -1
    X_22_7    ORD_22_7  1
    X_22_7    PREC_0_22_7  -1
    X_22_7    PREC_4_22_7  -1
    X_22_7    PREC_8_22_7  -1
    X_22_7    PREC_21_22_7  -1
    X_22_7    PREC_27_22_7  -1
    X_22_7    PREC_33_22_7  -1
    X_22_7    PREC_47_22_7  -1
    X_22_7    PREC_53_22_7  -1
    X_22_7    PREC_59_22_7  -1
    X_22_7    PREC_64_22_7  -1
    X_22_7    PREC_75_22_7  -1
    X_24_7    OBJ       -1663805.59726767
    X_24_7    R4116     20094
    X_24_7    R4107     21753
    X_24_7    ORD_24_7  1
    X_24_7    PREC_24_25_7  1
    X_24_7    PREC_24_4_7  1
    X_24_7    PREC_24_19_7  1
    X_24_7    PREC_24_33_7  1
    X_24_7    PREC_24_53_7  1
    X_24_7    PREC_24_0_7  1
    X_24_7    PREC_24_10_7  1
    X_24_7    PREC_24_40_7  1
    X_24_7    PREC_24_47_7  1
    X_24_7    PREC_24_61_7  1
    X_24_7    PREC_24_77_7  1
    X_24_7    PREC_24_15_7  1
    X_24_7    PREC_24_68_7  1
    X_24_7    PREC_24_73_7  1
    X_24_7    PREC_24_83_7  1
    X_24_7    PREC_24_17_7  1
    X_24_7    PREC_24_71_7  1
    X_24_7    PREC_24_88_7  1
    X_25_7    OBJ       -4930994.72108829
    X_25_7    R4116     27389
    X_25_7    R4107     36695
    X_25_7    ORD_25_6  -1
    X_25_7    ORD_25_7  1
    X_25_7    PREC_24_25_7  -1
    X_25_7    PREC_25_26_7  1
    X_25_7    PREC_25_5_7  1
    X_25_7    PREC_25_20_7  1
    X_25_7    PREC_25_34_7  1
    X_25_7    PREC_25_54_7  1
    X_25_7    PREC_25_1_7  1
    X_25_7    PREC_25_11_7  1
    X_25_7    PREC_25_41_7  1
    X_25_7    PREC_25_48_7  1
    X_25_7    PREC_25_62_7  1
    X_25_7    PREC_25_78_7  1
    X_25_7    PREC_25_16_7  1
    X_25_7    PREC_25_69_7  1
    X_25_7    PREC_25_74_7  1
    X_25_7    PREC_25_84_7  1
    X_26_7    OBJ       -7098743.31441208
    X_26_7    R4116     32478
    X_26_7    R4107     43534
    X_26_7    ORD_26_6  -1
    X_26_7    ORD_26_7  1
    X_26_7    PREC_25_26_7  -1
    X_26_7    PREC_26_27_7  1
    X_26_7    PREC_26_6_7  1
    X_26_7    PREC_26_21_7  1
    X_26_7    PREC_26_35_7  1
    X_26_7    PREC_26_55_7  1
    X_26_7    PREC_26_2_7  1
    X_26_7    PREC_26_12_7  1
    X_26_7    PREC_26_42_7  1
    X_26_7    PREC_26_49_7  1
    X_26_7    PREC_26_63_7  1
    X_26_7    PREC_26_79_7  1
    X_26_7    PREC_31_26_7  -1
    X_26_7    PREC_51_26_7  -1
    X_27_7    OBJ       -2437710.81530757
    X_27_7    R4116     23762
    X_27_7    R4107     42198
    X_27_7    ORD_27_6  -1
    X_27_7    ORD_27_7  1
    X_27_7    PREC_3_27_7  -1
    X_27_7    PREC_18_27_7  -1
    X_27_7    PREC_26_27_7  -1
    X_27_7    PREC_27_28_7  1
    X_27_7    PREC_27_7_7  1
    X_27_7    PREC_27_22_7  1
    X_27_7    PREC_27_36_7  1
    X_27_7    PREC_27_56_7  1
    X_27_7    PREC_32_27_7  -1
    X_27_7    PREC_37_27_7  -1
    X_27_7    PREC_52_27_7  -1
    X_27_7    PREC_58_27_7  -1
    X_28_7    OBJ       -1352910.69310282
    X_28_7    R4116     30935
    X_28_7    R4107     36014
    X_28_7    ORD_28_6  -1
    X_28_7    ORD_28_7  1
    X_28_7    PREC_4_28_7  -1
    X_28_7    PREC_8_28_7  -1
    X_28_7    PREC_19_28_7  -1
    X_28_7    PREC_27_28_7  -1
    X_28_7    PREC_28_29_7  1
    X_28_7    PREC_33_28_7  -1
    X_28_7    PREC_38_28_7  -1
    X_28_7    PREC_45_28_7  -1
    X_28_7    PREC_53_28_7  -1
    X_28_7    PREC_59_28_7  -1
    X_28_7    PREC_64_28_7  -1
    X_28_7    PREC_75_28_7  -1
    X_29_7    OBJ       -868302.961721557
    X_29_7    R4116     19875
    X_29_7    R4107     21258
    X_29_7    ORD_29_6  -1
    X_29_7    ORD_29_7  1
    X_29_7    PREC_5_29_7  -1
    X_29_7    PREC_9_29_7  -1
    X_29_7    PREC_20_29_7  -1
    X_29_7    PREC_28_29_7  -1
    X_29_7    PREC_34_29_7  -1
    X_29_7    PREC_39_29_7  -1
    X_29_7    PREC_46_29_7  -1
    X_29_7    PREC_54_29_7  -1
    X_29_7    PREC_60_29_7  -1
    X_29_7    PREC_65_29_7  -1
    X_29_7    PREC_76_29_7  -1
    X_29_7    PREC_80_29_7  -1
    X_31_7    OBJ       -2622296.82395962
    X_31_7    R4116     30283
    X_31_7    R4107     32310
    X_31_7    ORD_31_7  1
    X_31_7    PREC_31_32_7  1
    X_31_7    PREC_31_9_7  1
    X_31_7    PREC_31_26_7  1
    X_31_7    PREC_31_39_7  1
    X_31_7    PREC_31_60_7  1
    X_31_7    PREC_31_5_7  1
    X_31_7    PREC_31_14_7  1
    X_31_7    PREC_31_20_7  1
    X_31_7    PREC_31_54_7  1
    X_31_7    PREC_31_67_7  1
    X_31_7    PREC_31_82_7  1
    X_31_7    PREC_31_1_7  1
    X_31_7    PREC_31_48_7  1
    X_31_7    PREC_31_70_7  1
    X_31_7    PREC_31_78_7  1
    X_31_7    PREC_31_87_7  1
    X_31_7    PREC_31_74_7  1
    X_31_7    PREC_31_89_7  1
    X_32_7    OBJ       -4175384.56962805
    X_32_7    R4116     34635
    X_32_7    R4107     43849
    X_32_7    ORD_32_6  -1
    X_32_7    ORD_32_7  1
    X_32_7    PREC_31_32_7  -1
    X_32_7    PREC_32_33_7  1
    X_32_7    PREC_32_10_7  1
    X_32_7    PREC_32_27_7  1
    X_32_7    PREC_32_40_7  1
    X_32_7    PREC_32_61_7  1
    X_32_7    PREC_32_6_7  1
    X_32_7    PREC_32_15_7  1
    X_32_7    PREC_32_21_7  1
    X_32_7    PREC_32_43_7  1
    X_32_7    PREC_32_55_7  1
    X_32_7    PREC_32_68_7  1
    X_32_7    PREC_32_83_7  1
    X_32_7    PREC_32_2_7  1
    X_32_7    PREC_32_17_7  1
    X_32_7    PREC_32_49_7  1
    X_32_7    PREC_32_71_7  1
    X_32_7    PREC_32_79_7  1
    X_32_7    PREC_32_88_7  1
    X_33_7    OBJ       -8891597.65484814
    X_33_7    R4116     37283
    X_33_7    R4107     44009
    X_33_7    ORD_33_6  -1
    X_33_7    ORD_33_7  1
    X_33_7    PREC_24_33_7  -1
    X_33_7    PREC_32_33_7  -1
    X_33_7    PREC_33_34_7  1
    X_33_7    PREC_33_11_7  1
    X_33_7    PREC_33_28_7  1
    X_33_7    PREC_33_41_7  1
    X_33_7    PREC_33_62_7  1
    X_33_7    PREC_33_7_7  1
    X_33_7    PREC_33_16_7  1
    X_33_7    PREC_33_22_7  1
    X_33_7    PREC_33_44_7  1
    X_33_7    PREC_33_56_7  1
    X_33_7    PREC_33_69_7  1
    X_33_7    PREC_33_84_7  1
    X_33_7    PREC_37_33_7  -1
    X_33_7    PREC_58_33_7  -1
    X_34_7    OBJ       -892449.259315004
    X_34_7    R4116     15678
    X_34_7    R4107     38248
    X_34_7    ORD_34_6  -1
    X_34_7    ORD_34_7  1
    X_34_7    PREC_8_34_7  -1
    X_34_7    PREC_25_34_7  -1
    X_34_7    PREC_33_34_7  -1
    X_34_7    PREC_34_35_7  1
    X_34_7    PREC_34_12_7  1
    X_34_7    PREC_34_29_7  1
    X_34_7    PREC_34_42_7  1
    X_34_7    PREC_34_63_7  1
    X_34_7    PREC_38_34_7  -1
    X_34_7    PREC_51_34_7  -1
    X_34_7    PREC_59_34_7  -1
    X_34_7    PREC_64_34_7  -1
    X_35_7    OBJ       57246.974904861
    X_35_7    R4116     11088
    X_35_7    R4107     33782
    X_35_7    ORD_35_6  -1
    X_35_7    ORD_35_7  1
    X_35_7    PREC_3_35_7  -1
    X_35_7    PREC_9_35_7  -1
    X_35_7    PREC_18_35_7  -1
    X_35_7    PREC_26_35_7  -1
    X_35_7    PREC_34_35_7  -1
    X_35_7    PREC_35_36_7  1
    X_35_7    PREC_39_35_7  -1
    X_35_7    PREC_52_35_7  -1
    X_35_7    PREC_60_35_7  -1
    X_35_7    PREC_65_35_7  -1
    X_35_7    PREC_80_35_7  -1
    X_36_7    OBJ       44027.7235712825
    X_36_7    R4116     5880
    X_36_7    R4107     18164
    X_36_7    ORD_36_6  -1
    X_36_7    ORD_36_7  1
    X_36_7    PREC_4_36_7  -1
    X_36_7    PREC_10_36_7  -1
    X_36_7    PREC_13_36_7  -1
    X_36_7    PREC_19_36_7  -1
    X_36_7    PREC_27_36_7  -1
    X_36_7    PREC_35_36_7  -1
    X_36_7    PREC_40_36_7  -1
    X_36_7    PREC_45_36_7  -1
    X_36_7    PREC_53_36_7  -1
    X_36_7    PREC_61_36_7  -1
    X_36_7    PREC_66_36_7  -1
    X_36_7    PREC_75_36_7  -1
    X_36_7    PREC_81_36_7  -1
    X_37_7    OBJ       -68997.6139028719
    X_37_7    R4116     1028
    X_37_7    R4107     2042
    X_37_7    ORD_37_6  -1
    X_37_7    ORD_37_7  1
    X_37_7    PREC_37_38_7  1
    X_37_7    PREC_37_13_7  1
    X_37_7    PREC_37_33_7  1
    X_37_7    PREC_37_66_7  1
    X_37_7    PREC_37_10_7  1
    X_37_7    PREC_37_27_7  1
    X_37_7    PREC_37_61_7  1
    X_37_7    PREC_37_86_7  1
    X_37_7    PREC_37_6_7  1
    X_37_7    PREC_37_55_7  1
    X_37_7    PREC_37_83_7  1
    X_37_7    PREC_37_2_7  1
    X_37_7    PREC_37_49_7  1
    X_37_7    PREC_37_79_7  1
    X_38_7    OBJ       -174378.05142877
    X_38_7    R4116     2571
    X_38_7    R4107     9758
    X_38_7    ORD_38_6  -1
    X_38_7    ORD_38_7  1
    X_38_7    PREC_37_38_7  -1
    X_38_7    PREC_38_39_7  1
    X_38_7    PREC_38_14_7  1
    X_38_7    PREC_38_34_7  1
    X_38_7    PREC_38_67_7  1
    X_38_7    PREC_38_11_7  1
    X_38_7    PREC_38_28_7  1
    X_38_7    PREC_38_62_7  1
    X_38_7    PREC_38_70_7  1
    X_38_7    PREC_38_87_7  1
    X_38_7    PREC_38_7_7  1
    X_38_7    PREC_38_56_7  1
    X_38_7    PREC_38_84_7  1
    X_38_7    PREC_38_89_7  1
    X_39_7    OBJ       -413241.593292011
    X_39_7    R4116     5244
    X_39_7    R4107     22279
    X_39_7    ORD_39_6  -1
    X_39_7    ORD_39_7  1
    X_39_7    PREC_31_39_7  -1
    X_39_7    PREC_38_39_7  -1
    X_39_7    PREC_39_40_7  1
    X_39_7    PREC_39_15_7  1
    X_39_7    PREC_39_35_7  1
    X_39_7    PREC_39_43_7  1
    X_39_7    PREC_39_68_7  1
    X_39_7    PREC_39_12_7  1
    X_39_7    PREC_39_17_7  1
    X_39_7    PREC_39_29_7  1
    X_39_7    PREC_39_63_7  1
    X_39_7    PREC_39_71_7  1
    X_39_7    PREC_39_88_7  1
    X_39_7    PREC_64_39_7  -1
    X_40_7    OBJ       303076.56712294
    X_40_7    R4116     3.1210000000000005e+03
    X_40_7    R4107     33093
    X_40_7    ORD_40_6  -1
    X_40_7    ORD_40_7  1
    X_40_7    PREC_24_40_7  -1
    X_40_7    PREC_32_40_7  -1
    X_40_7    PREC_39_40_7  -1
    X_40_7    PREC_40_41_7  1
    X_40_7    PREC_40_16_7  1
    X_40_7    PREC_40_36_7  1
    X_40_7    PREC_40_44_7  1
    X_40_7    PREC_40_69_7  1
    X_40_7    PREC_58_40_7  -1
    X_40_7    PREC_65_40_7  -1
    X_41_7    OBJ       263200.340111678
    X_41_7    R4116     7125
    X_41_7    R4107     42369
    X_41_7    ORD_41_6  -1
    X_41_7    ORD_41_7  1
    X_41_7    PREC_8_41_7  -1
    X_41_7    PREC_13_41_7  -1
    X_41_7    PREC_25_41_7  -1
    X_41_7    PREC_33_41_7  -1
    X_41_7    PREC_40_41_7  -1
    X_41_7    PREC_41_42_7  1
    X_41_7    PREC_51_41_7  -1
    X_41_7    PREC_59_41_7  -1
    X_41_7    PREC_66_41_7  -1
    X_42_7    OBJ       214335.224239734
    X_42_7    R4116     10976
    X_42_7    R4107     41057
    X_42_7    ORD_42_6  -1
    X_42_7    ORD_42_7  1
    X_42_7    PREC_3_42_7  -1
    X_42_7    PREC_9_42_7  -1
    X_42_7    PREC_14_42_7  -1
    X_42_7    PREC_26_42_7  -1
    X_42_7    PREC_34_42_7  -1
    X_42_7    PREC_41_42_7  -1
    X_42_7    PREC_52_42_7  -1
    X_42_7    PREC_60_42_7  -1
    X_42_7    PREC_67_42_7  -1
    X_42_7    PREC_80_42_7  -1
    X_42_7    PREC_85_42_7  -1
    X_43_7    OBJ       16926.5434919782
    X_43_7    R4107     1383
    X_43_7    ORD_43_6  -1
    X_43_7    ORD_43_7  1
    X_43_7    PREC_32_43_7  -1
    X_43_7    PREC_39_43_7  -1
    X_43_7    PREC_43_44_7  1
    X_43_7    PREC_58_43_7  -1
    X_43_7    PREC_65_43_7  -1
    X_44_7    OBJ       119228.621168968
    X_44_7    R4107     9951
    X_44_7    ORD_44_6  -1
    X_44_7    ORD_44_7  1
    X_44_7    PREC_8_44_7  -1
    X_44_7    PREC_13_44_7  -1
    X_44_7    PREC_33_44_7  -1
    X_44_7    PREC_40_44_7  -1
    X_44_7    PREC_43_44_7  -1
    X_44_7    PREC_51_44_7  -1
    X_44_7    PREC_59_44_7  -1
    X_44_7    PREC_66_44_7  -1
    X_45_7    OBJ       7321.28653612438
    X_45_7    R4107     553
    X_45_7    ORD_45_6  -1
    X_45_7    ORD_45_7  1
    X_45_7    PREC_45_46_7  1
    X_45_7    PREC_45_20_7  1
    X_45_7    PREC_45_54_7  1
    X_45_7    PREC_45_72_7  1
    X_45_7    PREC_45_1_7  1
    X_45_7    PREC_45_28_7  1
    X_45_7    PREC_45_62_7  1
    X_45_7    PREC_45_78_7  1
    X_45_7    PREC_45_7_7  1
    X_45_7    PREC_45_36_7  1
    X_45_7    PREC_45_84_7  1
    X_46_7    OBJ       105376.107965557
    X_46_7    R4107     8.1089999999999991e+03
    X_46_7    ORD_46_6  -1
    X_46_7    ORD_46_7  1
    X_46_7    PREC_45_46_7  -1
    X_46_7    PREC_46_47_7  1
    X_46_7    PREC_46_21_7  1
    X_46_7    PREC_46_55_7  1
    X_46_7    PREC_46_73_7  1
    X_46_7    PREC_46_2_7  1
    X_46_7    PREC_46_29_7  1
    X_46_7    PREC_46_63_7  1
    X_46_7    PREC_46_79_7  1
    X_46_7    PREC_51_46_7  -1
    X_47_7    OBJ       244877.343623144
    X_47_7    R4116     553
    X_47_7    R4107     20455
    X_47_7    ORD_47_6  -1
    X_47_7    ORD_47_7  1
    X_47_7    PREC_18_47_7  -1
    X_47_7    PREC_24_47_7  -1
    X_47_7    PREC_46_47_7  -1
    X_47_7    PREC_47_48_7  1
    X_47_7    PREC_47_22_7  1
    X_47_7    PREC_47_56_7  1
    X_47_7    PREC_47_74_7  1
    X_47_7    PREC_52_47_7  -1
    X_47_7    PREC_58_47_7  -1
    X_48_7    OBJ       320984.435178807
    X_48_7    R4116     3266
    X_48_7    R4107     3.2284999999999996e+04
    X_48_7    ORD_48_6  -1
    X_48_7    ORD_48_7  1
    X_48_7    PREC_19_48_7  -1
    X_48_7    PREC_25_48_7  -1
    X_48_7    PREC_31_48_7  -1
    X_48_7    PREC_47_48_7  -1
    X_48_7    PREC_48_49_7  1
    X_48_7    PREC_53_48_7  -1
    X_48_7    PREC_59_48_7  -1
    X_48_7    PREC_75_48_7  -1
    X_49_7    OBJ       267819.641421846
    X_49_7    R4116     8207
    X_49_7    R4107     43721
    X_49_7    ORD_49_6  -1
    X_49_7    ORD_49_7  1
    X_49_7    PREC_3_49_7  -1
    X_49_7    PREC_20_49_7  -1
    X_49_7    PREC_26_49_7  -1
    X_49_7    PREC_32_49_7  -1
    X_49_7    PREC_37_49_7  -1
    X_49_7    PREC_48_49_7  -1
    X_49_7    PREC_54_49_7  -1
    X_49_7    PREC_60_49_7  -1
    X_49_7    PREC_72_49_7  -1
    X_49_7    PREC_76_49_7  -1
    X_49_7    PREC_80_49_7  -1
    X_51_7    OBJ       -1851005.00494537
    X_51_7    R4116     22370
    X_51_7    R4107     23475
    X_51_7    ORD_51_7  1
    X_51_7    PREC_51_52_7  1
    X_51_7    PREC_51_26_7  1
    X_51_7    PREC_51_46_7  1
    X_51_7    PREC_51_60_7  1
    X_51_7    PREC_51_76_7  1
    X_51_7    PREC_51_5_7  1
    X_51_7    PREC_51_20_7  1
    X_51_7    PREC_51_34_7  1
    X_51_7    PREC_51_67_7  1
    X_51_7    PREC_51_72_7  1
    X_51_7    PREC_51_82_7  1
    X_51_7    PREC_51_1_7  1
    X_51_7    PREC_51_11_7  1
    X_51_7    PREC_51_41_7  1
    X_51_7    PREC_51_87_7  1
    X_51_7    PREC_51_16_7  1
    X_51_7    PREC_51_44_7  1
    X_51_7    PREC_51_89_7  1
    X_52_7    OBJ       -5614851.83306216
    X_52_7    R4116     32298
    X_52_7    R4107     38471
    X_52_7    ORD_52_6  -1
    X_52_7    ORD_52_7  1
    X_52_7    PREC_51_52_7  -1
    X_52_7    PREC_52_53_7  1
    X_52_7    PREC_52_27_7  1
    X_52_7    PREC_52_47_7  1
    X_52_7    PREC_52_61_7  1
    X_52_7    PREC_52_77_7  1
    X_52_7    PREC_52_6_7  1
    X_52_7    PREC_52_21_7  1
    X_52_7    PREC_52_35_7  1
    X_52_7    PREC_52_68_7  1
    X_52_7    PREC_52_73_7  1
    X_52_7    PREC_52_83_7  1
    X_52_7    PREC_52_2_7  1
    X_52_7    PREC_52_12_7  1
    X_52_7    PREC_52_42_7  1
    X_52_7    PREC_52_88_7  1
    X_53_7    OBJ       -11277322.8873382
    X_53_7    R4116     37735
    X_53_7    R4107     43079
    X_53_7    ORD_53_6  -1
    X_53_7    ORD_53_7  1
    X_53_7    PREC_24_53_7  -1
    X_53_7    PREC_52_53_7  -1
    X_53_7    PREC_53_54_7  1
    X_53_7    PREC_53_28_7  1
    X_53_7    PREC_53_48_7  1
    X_53_7    PREC_53_62_7  1
    X_53_7    PREC_53_78_7  1
    X_53_7    PREC_53_7_7  1
    X_53_7    PREC_53_22_7  1
    X_53_7    PREC_53_36_7  1
    X_53_7    PREC_53_69_7  1
    X_53_7    PREC_53_74_7  1
    X_53_7    PREC_53_84_7  1
    X_53_7    PREC_58_53_7  -1
    X_54_7    OBJ       -5754749.3932776
    X_54_7    R4116     38023
    X_54_7    R4107     41064
    X_54_7    ORD_54_6  -1
    X_54_7    ORD_54_7  1
    X_54_7    PREC_25_54_7  -1
    X_54_7    PREC_31_54_7  -1
    X_54_7    PREC_45_54_7  -1
    X_54_7    PREC_53_54_7  -1
    X_54_7    PREC_54_55_7  1
    X_54_7    PREC_54_29_7  1
    X_54_7    PREC_54_49_7  1
    X_54_7    PREC_54_63_7  1
    X_54_7    PREC_54_79_7  1
    X_54_7    PREC_59_54_7  -1
    X_54_7    PREC_64_54_7  -1
    X_54_7    PREC_75_54_7  -1
    X_55_7    OBJ       -781651.480636139
    X_55_7    R4116     31303
    X_55_7    R4107     34218
    X_55_7    ORD_55_6  -1
    X_55_7    ORD_55_7  1
    X_55_7    PREC_3_55_7  -1
    X_55_7    PREC_18_55_7  -1
    X_55_7    PREC_26_55_7  -1
    X_55_7    PREC_32_55_7  -1
    X_55_7    PREC_37_55_7  -1
    X_55_7    PREC_46_55_7  -1
    X_55_7    PREC_54_55_7  -1
    X_55_7    PREC_55_56_7  1
    X_55_7    PREC_60_55_7  -1
    X_55_7    PREC_65_55_7  -1
    X_55_7    PREC_76_55_7  -1
    X_55_7    PREC_80_55_7  -1
    X_56_7    OBJ       -355528.341717124
    X_56_7    R4116     18643
    X_56_7    R4107     22893
    X_56_7    ORD_56_6  -1
    X_56_7    ORD_56_7  1
    X_56_7    PREC_4_56_7  -1
    X_56_7    PREC_8_56_7  -1
    X_56_7    PREC_19_56_7  -1
    X_56_7    PREC_27_56_7  -1
    X_56_7    PREC_33_56_7  -1
    X_56_7    PREC_38_56_7  -1
    X_56_7    PREC_47_56_7  -1
    X_56_7    PREC_55_56_7  -1
    X_56_7    PREC_61_56_7  -1
    X_56_7    PREC_66_56_7  -1
    X_56_7    PREC_77_56_7  -1
    X_56_7    PREC_81_56_7  -1
    X_58_7    OBJ       -1736129.67180564
    X_58_7    R4116     25454
    X_58_7    R4107     28863
    X_58_7    ORD_58_7  1
    X_58_7    PREC_58_59_7  1
    X_58_7    PREC_58_33_7  1
    X_58_7    PREC_58_53_7  1
    X_58_7    PREC_58_66_7  1
    X_58_7    PREC_58_81_7  1
    X_58_7    PREC_58_10_7  1
    X_58_7    PREC_58_27_7  1
    X_58_7    PREC_58_40_7  1
    X_58_7    PREC_58_47_7  1
    X_58_7    PREC_58_77_7  1
    X_58_7    PREC_58_86_7  1
    X_58_7    PREC_58_6_7  1
    X_58_7    PREC_58_15_7  1
    X_58_7    PREC_58_21_7  1
    X_58_7    PREC_58_43_7  1
    X_58_7    PREC_58_73_7  1
    X_58_7    PREC_58_2_7  1
    X_58_7    PREC_58_17_7  1
    X_59_7    OBJ       -4076258.35180097
    X_59_7    R4116     38803
    X_59_7    R4107     40277
    X_59_7    ORD_59_6  -1
    X_59_7    ORD_59_7  1
    X_59_7    PREC_58_59_7  -1
    X_59_7    PREC_59_60_7  1
    X_59_7    PREC_59_34_7  1
    X_59_7    PREC_59_54_7  1
    X_59_7    PREC_59_67_7  1
    X_59_7    PREC_59_82_7  1
    X_59_7    PREC_59_11_7  1
    X_59_7    PREC_59_28_7  1
    X_59_7    PREC_59_41_7  1
    X_59_7    PREC_59_48_7  1
    X_59_7    PREC_59_70_7  1
    X_59_7    PREC_59_78_7  1
    X_59_7    PREC_59_87_7  1
    X_59_7    PREC_59_7_7  1
    X_59_7    PREC_59_16_7  1
    X_59_7    PREC_59_22_7  1
    X_59_7    PREC_59_44_7  1
    X_59_7    PREC_59_74_7  1
    X_59_7    PREC_59_89_7  1
    X_60_7    OBJ       -7468358.09293102
    X_60_7    R4116     41662
    X_60_7    R4107     41662
    X_60_7    ORD_60_6  -1
    X_60_7    ORD_60_7  1
    X_60_7    PREC_31_60_7  -1
    X_60_7    PREC_51_60_7  -1
    X_60_7    PREC_59_60_7  -1
    X_60_7    PREC_60_61_7  1
    X_60_7    PREC_60_35_7  1
    X_60_7    PREC_60_55_7  1
    X_60_7    PREC_60_68_7  1
    X_60_7    PREC_60_83_7  1
    X_60_7    PREC_60_12_7  1
    X_60_7    PREC_60_29_7  1
    X_60_7    PREC_60_42_7  1
    X_60_7    PREC_60_49_7  1
    X_60_7    PREC_60_71_7  1
    X_60_7    PREC_60_79_7  1
    X_60_7    PREC_60_88_7  1
    X_60_7    PREC_64_60_7  -1
    X_61_7    OBJ       -740436.740332883
    X_61_7    R4116     31179
    X_61_7    R4107     36027
    X_61_7    ORD_61_6  -1
    X_61_7    ORD_61_7  1
    X_61_7    PREC_24_61_7  -1
    X_61_7    PREC_32_61_7  -1
    X_61_7    PREC_37_61_7  -1
    X_61_7    PREC_52_61_7  -1
    X_61_7    PREC_60_61_7  -1
    X_61_7    PREC_61_62_7  1
    X_61_7    PREC_61_36_7  1
    X_61_7    PREC_61_56_7  1
    X_61_7    PREC_61_69_7  1
    X_61_7    PREC_61_84_7  1
    X_61_7    PREC_65_61_7  -1
    X_61_7    PREC_80_61_7  -1
    X_62_7    OBJ       -82108.0744212228
    X_62_7    R4116     16429
    X_62_7    R4107     33437
    X_62_7    ORD_62_6  -1
    X_62_7    ORD_62_7  1
    X_62_7    PREC_8_62_7  -1
    X_62_7    PREC_25_62_7  -1
    X_62_7    PREC_33_62_7  -1
    X_62_7    PREC_38_62_7  -1
    X_62_7    PREC_45_62_7  -1
    X_62_7    PREC_53_62_7  -1
    X_62_7    PREC_61_62_7  -1
    X_62_7    PREC_62_63_7  1
    X_62_7    PREC_66_62_7  -1
    X_62_7    PREC_75_62_7  -1
    X_62_7    PREC_81_62_7  -1
    X_63_7    OBJ       51422.3155065087
    X_63_7    R4116     5519
    X_63_7    R4107     15934
    X_63_7    ORD_63_6  -1
    X_63_7    ORD_63_7  1
    X_63_7    PREC_3_63_7  -1
    X_63_7    PREC_9_63_7  -1
    X_63_7    PREC_18_63_7  -1
    X_63_7    PREC_26_63_7  -1
    X_63_7    PREC_34_63_7  -1
    X_63_7    PREC_39_63_7  -1
    X_63_7    PREC_46_63_7  -1
    X_63_7    PREC_54_63_7  -1
    X_63_7    PREC_62_63_7  -1
    X_63_7    PREC_67_63_7  -1
    X_63_7    PREC_76_63_7  -1
    X_63_7    PREC_82_63_7  -1
    X_63_7    PREC_85_63_7  -1
    X_64_7    OBJ       -17618.4666597602
    X_64_7    R4116     452
    X_64_7    R4107     1281
    X_64_7    ORD_64_6  -1
    X_64_7    ORD_64_7  1
    X_64_7    PREC_64_65_7  1
    X_64_7    PREC_64_39_7  1
    X_64_7    PREC_64_60_7  1
    X_64_7    PREC_64_85_7  1
    X_64_7    PREC_64_14_7  1
    X_64_7    PREC_64_34_7  1
    X_64_7    PREC_64_54_7  1
    X_64_7    PREC_64_82_7  1
    X_64_7    PREC_64_11_7  1
    X_64_7    PREC_64_28_7  1
    X_64_7    PREC_64_78_7  1
    X_64_7    PREC_64_7_7  1
    X_64_7    PREC_64_22_7  1
    X_64_7    PREC_64_74_7  1
    X_65_7    OBJ       -367433.82616732
    X_65_7    R4116     3772
    X_65_7    R4107     7.3649999999999991e+03
    X_65_7    ORD_65_6  -1
    X_65_7    ORD_65_7  1
    X_65_7    PREC_64_65_7  -1
    X_65_7    PREC_65_66_7  1
    X_65_7    PREC_65_40_7  1
    X_65_7    PREC_65_61_7  1
    X_65_7    PREC_65_86_7  1
    X_65_7    PREC_65_15_7  1
    X_65_7    PREC_65_35_7  1
    X_65_7    PREC_65_43_7  1
    X_65_7    PREC_65_55_7  1
    X_65_7    PREC_65_83_7  1
    X_65_7    PREC_65_12_7  1
    X_65_7    PREC_65_17_7  1
    X_65_7    PREC_65_29_7  1
    X_65_7    PREC_65_79_7  1
    X_66_7    OBJ       -1669888.79933303
    X_66_7    R4116     16431
    X_66_7    R4107     19563
    X_66_7    ORD_66_6  -1
    X_66_7    ORD_66_7  1
    X_66_7    PREC_37_66_7  -1
    X_66_7    PREC_58_66_7  -1
    X_66_7    PREC_65_66_7  -1
    X_66_7    PREC_66_67_7  1
    X_66_7    PREC_66_41_7  1
    X_66_7    PREC_66_62_7  1
    X_66_7    PREC_66_70_7  1
    X_66_7    PREC_66_87_7  1
    X_66_7    PREC_66_16_7  1
    X_66_7    PREC_66_36_7  1
    X_66_7    PREC_66_44_7  1
    X_66_7    PREC_66_56_7  1
    X_66_7    PREC_66_84_7  1
    X_66_7    PREC_66_89_7  1
    X_67_7    OBJ       -494242.446326104
    X_67_7    R4116     18823
    X_67_7    R4107     27348
    X_67_7    ORD_67_6  -1
    X_67_7    ORD_67_7  1
    X_67_7    PREC_31_67_7  -1
    X_67_7    PREC_38_67_7  -1
    X_67_7    PREC_51_67_7  -1
    X_67_7    PREC_59_67_7  -1
    X_67_7    PREC_66_67_7  -1
    X_67_7    PREC_67_68_7  1
    X_67_7    PREC_67_42_7  1
    X_67_7    PREC_67_63_7  1
    X_67_7    PREC_67_71_7  1
    X_67_7    PREC_67_88_7  1
    X_68_7    OBJ       -269976.017151535
    X_68_7    R4116     19673
    X_68_7    R4107     37161
    X_68_7    ORD_68_6  -1
    X_68_7    ORD_68_7  1
    X_68_7    PREC_24_68_7  -1
    X_68_7    PREC_32_68_7  -1
    X_68_7    PREC_39_68_7  -1
    X_68_7    PREC_52_68_7  -1
    X_68_7    PREC_60_68_7  -1
    X_68_7    PREC_67_68_7  -1
    X_68_7    PREC_68_69_7  1
    X_68_7    PREC_80_68_7  -1
    X_68_7    PREC_85_68_7  -1
    X_69_7    OBJ       116299.928278504
    X_69_7    R4116     12135
    X_69_7    R4107     34991
    X_69_7    ORD_69_6  -1
    X_69_7    ORD_69_7  1
    X_69_7    PREC_8_69_7  -1
    X_69_7    PREC_13_69_7  -1
    X_69_7    PREC_25_69_7  -1
    X_69_7    PREC_33_69_7  -1
    X_69_7    PREC_40_69_7  -1
    X_69_7    PREC_53_69_7  -1
    X_69_7    PREC_61_69_7  -1
    X_69_7    PREC_68_69_7  -1
    X_69_7    PREC_75_69_7  -1
    X_69_7    PREC_81_69_7  -1
    X_69_7    PREC_86_69_7  -1
    X_70_7    OBJ       11279.1413875747
    X_70_7    R4107     922
    X_70_7    ORD_70_6  -1
    X_70_7    ORD_70_7  1
    X_70_7    PREC_31_70_7  -1
    X_70_7    PREC_38_70_7  -1
    X_70_7    PREC_59_70_7  -1
    X_70_7    PREC_66_70_7  -1
    X_70_7    PREC_70_71_7  1
    X_71_7    OBJ       113659.490724057
    X_71_7    R4107     9491
    X_71_7    ORD_71_6  -1
    X_71_7    ORD_71_7  1
    X_71_7    PREC_24_71_7  -1
    X_71_7    PREC_32_71_7  -1
    X_71_7    PREC_39_71_7  -1
    X_71_7    PREC_60_71_7  -1
    X_71_7    PREC_67_71_7  -1
    X_71_7    PREC_70_71_7  -1
    X_71_7    PREC_80_71_7  -1
    X_71_7    PREC_85_71_7  -1
    X_72_7    OBJ       4638.40231167036
    X_72_7    R4107     369
    X_72_7    ORD_72_6  -1
    X_72_7    ORD_72_7  1
    X_72_7    PREC_45_72_7  -1
    X_72_7    PREC_51_72_7  -1
    X_72_7    PREC_72_73_7  1
    X_72_7    PREC_72_49_7  1
    X_72_7    PREC_72_79_7  1
    X_72_7    PREC_75_72_7  -1
    X_73_7    OBJ       58984.6566816021
    X_73_7    R4107     4792
    X_73_7    ORD_73_6  -1
    X_73_7    ORD_73_7  1
    X_73_7    PREC_18_73_7  -1
    X_73_7    PREC_24_73_7  -1
    X_73_7    PREC_46_73_7  -1
    X_73_7    PREC_52_73_7  -1
    X_73_7    PREC_58_73_7  -1
    X_73_7    PREC_72_73_7  -1
    X_73_7    PREC_73_74_7  1
    X_73_7    PREC_76_73_7  -1
    X_73_7    PREC_80_73_7  -1
    X_74_7    OBJ       178972.012076943
    X_74_7    R4107     14927
    X_74_7    ORD_74_6  -1
    X_74_7    ORD_74_7  1
    X_74_7    PREC_19_74_7  -1
    X_74_7    PREC_25_74_7  -1
    X_74_7    PREC_31_74_7  -1
    X_74_7    PREC_47_74_7  -1
    X_74_7    PREC_53_74_7  -1
    X_74_7    PREC_59_74_7  -1
    X_74_7    PREC_64_74_7  -1
    X_74_7    PREC_73_74_7  -1
    X_74_7    PREC_77_74_7  -1
    X_74_7    PREC_81_74_7  -1
    X_75_7    OBJ       7321.28653612438
    X_75_7    R4107     553
    X_75_7    ORD_75_6  -1
    X_75_7    ORD_75_7  1
    X_75_7    PREC_75_76_7  1
    X_75_7    PREC_75_54_7  1
    X_75_7    PREC_75_72_7  1
    X_75_7    PREC_75_82_7  1
    X_75_7    PREC_75_28_7  1
    X_75_7    PREC_75_48_7  1
    X_75_7    PREC_75_62_7  1
    X_75_7    PREC_75_87_7  1
    X_75_7    PREC_75_22_7  1
    X_75_7    PREC_75_36_7  1
    X_75_7    PREC_75_69_7  1
    X_76_7    OBJ       51741.8964849904
    X_76_7    R4116     185
    X_76_7    R4107     7.4640000000000009e+03
    X_76_7    ORD_76_6  -1
    X_76_7    ORD_76_7  1
    X_76_7    PREC_51_76_7  -1
    X_76_7    PREC_75_76_7  -1
    X_76_7    PREC_76_77_7  1
    X_76_7    PREC_76_55_7  1
    X_76_7    PREC_76_73_7  1
    X_76_7    PREC_76_83_7  1
    X_76_7    PREC_76_29_7  1
    X_76_7    PREC_76_49_7  1
    X_76_7    PREC_76_63_7  1
    X_76_7    PREC_76_88_7  1
    X_77_7    OBJ       148929.829572873
    X_77_7    R4116     1467
    X_77_7    R4107     19341
    X_77_7    ORD_77_6  -1
    X_77_7    ORD_77_7  1
    X_77_7    PREC_24_77_7  -1
    X_77_7    PREC_52_77_7  -1
    X_77_7    PREC_58_77_7  -1
    X_77_7    PREC_76_77_7  -1
    X_77_7    PREC_77_78_7  1
    X_77_7    PREC_77_56_7  1
    X_77_7    PREC_77_74_7  1
    X_77_7    PREC_77_84_7  1
    X_77_7    PREC_80_77_7  -1
    X_78_7    OBJ       244223.919585059
    X_78_7    R4116     4301
    X_78_7    R4107     3.1058999999999996e+04
    X_78_7    ORD_78_6  -1
    X_78_7    ORD_78_7  1
    X_78_7    PREC_25_78_7  -1
    X_78_7    PREC_31_78_7  -1
    X_78_7    PREC_45_78_7  -1
    X_78_7    PREC_53_78_7  -1
    X_78_7    PREC_59_78_7  -1
    X_78_7    PREC_64_78_7  -1
    X_78_7    PREC_77_78_7  -1
    X_78_7    PREC_78_79_7  1
    X_78_7    PREC_81_78_7  -1
    X_79_7    OBJ       418411.258125488
    X_79_7    R4116     2568
    X_79_7    R4107     41061
    X_79_7    ORD_79_6  -1
    X_79_7    ORD_79_7  1
    X_79_7    PREC_18_79_7  -1
    X_79_7    PREC_26_79_7  -1
    X_79_7    PREC_32_79_7  -1
    X_79_7    PREC_37_79_7  -1
    X_79_7    PREC_46_79_7  -1
    X_79_7    PREC_54_79_7  -1
    X_79_7    PREC_60_79_7  -1
    X_79_7    PREC_65_79_7  -1
    X_79_7    PREC_72_79_7  -1
    X_79_7    PREC_78_79_7  -1
    X_79_7    PREC_82_79_7  -1
    X_79_7    PREC_85_79_7  -1
    X_80_7    OBJ       7321.28653612438
    X_80_7    R4107     553
    X_80_7    ORD_80_6  -1
    X_80_7    ORD_80_7  1
    X_80_7    PREC_80_81_7  1
    X_80_7    PREC_80_61_7  1
    X_80_7    PREC_80_77_7  1
    X_80_7    PREC_80_86_7  1
    X_80_7    PREC_80_35_7  1
    X_80_7    PREC_80_55_7  1
    X_80_7    PREC_80_68_7  1
    X_80_7    PREC_80_73_7  1
    X_80_7    PREC_80_29_7  1
    X_80_7    PREC_80_42_7  1
    X_80_7    PREC_80_49_7  1
    X_80_7    PREC_80_71_7  1
    X_81_7    OBJ       -667756.538233555
    X_81_7    R4116     4008
    X_81_7    R4107     8246
    X_81_7    ORD_81_6  -1
    X_81_7    ORD_81_7  1
    X_81_7    PREC_58_81_7  -1
    X_81_7    PREC_80_81_7  -1
    X_81_7    PREC_81_82_7  1
    X_81_7    PREC_81_62_7  1
    X_81_7    PREC_81_78_7  1
    X_81_7    PREC_81_87_7  1
    X_81_7    PREC_81_36_7  1
    X_81_7    PREC_81_56_7  1
    X_81_7    PREC_81_69_7  1
    X_81_7    PREC_81_74_7  1
    X_81_7    PREC_81_89_7  1
    X_82_7    OBJ       11639.640955943
    X_82_7    R4116     5738
    X_82_7    R4107     19228
    X_82_7    ORD_82_6  -1
    X_82_7    ORD_82_7  1
    X_82_7    PREC_31_82_7  -1
    X_82_7    PREC_51_82_7  -1
    X_82_7    PREC_59_82_7  -1
    X_82_7    PREC_64_82_7  -1
    X_82_7    PREC_75_82_7  -1
    X_82_7    PREC_81_82_7  -1
    X_82_7    PREC_82_83_7  1
    X_82_7    PREC_82_63_7  1
    X_82_7    PREC_82_79_7  1
    X_82_7    PREC_82_88_7  1
    X_83_7    OBJ       114254.380804203
    X_83_7    R4116     8309
    X_83_7    R4107     29026
    X_83_7    ORD_83_6  -1
    X_83_7    ORD_83_7  1
    X_83_7    PREC_24_83_7  -1
    X_83_7    PREC_32_83_7  -1
    X_83_7    PREC_37_83_7  -1
    X_83_7    PREC_52_83_7  -1
    X_83_7    PREC_60_83_7  -1
    X_83_7    PREC_65_83_7  -1
    X_83_7    PREC_76_83_7  -1
    X_83_7    PREC_82_83_7  -1
    X_83_7    PREC_83_84_7  1
    X_83_7    PREC_85_83_7  -1
    X_84_7    OBJ       117925.253719737
    X_84_7    R4116     9257
    X_84_7    R4107     36137
    X_84_7    ORD_84_6  -1
    X_84_7    ORD_84_7  1
    X_84_7    PREC_25_84_7  -1
    X_84_7    PREC_33_84_7  -1
    X_84_7    PREC_38_84_7  -1
    X_84_7    PREC_45_84_7  -1
    X_84_7    PREC_53_84_7  -1
    X_84_7    PREC_61_84_7  -1
    X_84_7    PREC_66_84_7  -1
    X_84_7    PREC_77_84_7  -1
    X_84_7    PREC_83_84_7  -1
    X_84_7    PREC_86_84_7  -1
    X_85_7    OBJ       -93972.130921492
    X_85_7    R4116     1068
    X_85_7    R4107     1437
    X_85_7    ORD_85_6  -1
    X_85_7    ORD_85_7  1
    X_85_7    PREC_64_85_7  -1
    X_85_7    PREC_85_86_7  1
    X_85_7    PREC_85_68_7  1
    X_85_7    PREC_85_83_7  1
    X_85_7    PREC_85_42_7  1
    X_85_7    PREC_85_63_7  1
    X_85_7    PREC_85_71_7  1
    X_85_7    PREC_85_79_7  1
    X_86_7    OBJ       18547.5393728705
    X_86_7    R4116     2419
    X_86_7    R4107     6507
    X_86_7    ORD_86_6  -1
    X_86_7    ORD_86_7  1
    X_86_7    PREC_37_86_7  -1
    X_86_7    PREC_58_86_7  -1
    X_86_7    PREC_65_86_7  -1
    X_86_7    PREC_80_86_7  -1
    X_86_7    PREC_85_86_7  -1
    X_86_7    PREC_86_87_7  1
    X_86_7    PREC_86_69_7  1
    X_86_7    PREC_86_84_7  1
    X_86_7    PREC_86_89_7  1
    X_87_7    OBJ       145283.533279273
    X_87_7    R4116     3.0490000000000005e+03
    X_87_7    R4107     17312
    X_87_7    ORD_87_6  -1
    X_87_7    ORD_87_7  1
    X_87_7    PREC_31_87_7  -1
    X_87_7    PREC_38_87_7  -1
    X_87_7    PREC_51_87_7  -1
    X_87_7    PREC_59_87_7  -1
    X_87_7    PREC_66_87_7  -1
    X_87_7    PREC_75_87_7  -1
    X_87_7    PREC_81_87_7  -1
    X_87_7    PREC_86_87_7  -1
    X_87_7    PREC_87_88_7  1
    X_88_7    OBJ       313560.130574575
    X_88_7    R4116     2188
    X_88_7    R4107     30320
    X_88_7    ORD_88_6  -1
    X_88_7    ORD_88_7  1
    X_88_7    PREC_24_88_7  -1
    X_88_7    PREC_32_88_7  -1
    X_88_7    PREC_39_88_7  -1
    X_88_7    PREC_52_88_7  -1
    X_88_7    PREC_60_88_7  -1
    X_88_7    PREC_67_88_7  -1
    X_88_7    PREC_76_88_7  -1
    X_88_7    PREC_82_88_7  -1
    X_88_7    PREC_87_88_7  -1
    X_89_7    OBJ       8783.956337891
    X_89_7    R4107     738
    X_89_7    ORD_89_6  -1
    X_89_7    ORD_89_7  1
    X_89_7    PREC_31_89_7  -1
    X_89_7    PREC_38_89_7  -1
    X_89_7    PREC_51_89_7  -1
    X_89_7    PREC_59_89_7  -1
    X_89_7    PREC_66_89_7  -1
    X_89_7    PREC_81_89_7  -1
    X_89_7    PREC_86_89_7  -1
    X_0_8     OBJ       1003.43101884092
    X_0_8     R4108     93
    X_0_8     ORD_0_7   -1
    X_0_8     ORD_0_8   1
    X_0_8     PREC_0_1_8  1
    X_0_8     PREC_0_7_8  1
    X_0_8     PREC_0_22_8  1
    X_0_8     PREC_3_0_8  -1
    X_0_8     PREC_18_0_8  -1
    X_0_8     PREC_24_0_8  -1
    X_0_8     PREC_30_0_8  -1
    X_0_8     PREC_50_0_8  -1
    X_1_8     OBJ       33404.3963230706
    X_1_8     R4108     3133
    X_1_8     ORD_1_7   -1
    X_1_8     ORD_1_8   1
    X_1_8     PREC_0_1_8  -1
    X_1_8     PREC_1_2_8  1
    X_1_8     PREC_4_1_8  -1
    X_1_8     PREC_8_1_8  -1
    X_1_8     PREC_19_1_8  -1
    X_1_8     PREC_25_1_8  -1
    X_1_8     PREC_31_1_8  -1
    X_1_8     PREC_45_1_8  -1
    X_1_8     PREC_51_1_8  -1
    X_1_8     PREC_57_1_8  -1
    X_2_8     OBJ       124444.431061303
    X_2_8     R4108     1.1977999999999998e+04
    X_2_8     ORD_2_7   -1
    X_2_8     ORD_2_8   1
    X_2_8     PREC_1_2_8  -1
    X_2_8     PREC_5_2_8  -1
    X_2_8     PREC_9_2_8  -1
    X_2_8     PREC_20_2_8  -1
    X_2_8     PREC_26_2_8  -1
    X_2_8     PREC_32_2_8  -1
    X_2_8     PREC_37_2_8  -1
    X_2_8     PREC_46_2_8  -1
    X_2_8     PREC_52_2_8  -1
    X_2_8     PREC_58_2_8  -1
    X_3_8     OBJ       3172.98773497084
    X_3_8     R4108     277
    X_3_8     ORD_3_7   -1
    X_3_8     ORD_3_8   1
    X_3_8     PREC_3_4_8  1
    X_3_8     PREC_3_0_8  1
    X_3_8     PREC_3_10_8  1
    X_3_8     PREC_3_27_8  1
    X_3_8     PREC_3_15_8  1
    X_3_8     PREC_3_21_8  1
    X_3_8     PREC_3_35_8  1
    X_3_8     PREC_3_55_8  1
    X_3_8     PREC_3_42_8  1
    X_3_8     PREC_3_49_8  1
    X_3_8     PREC_3_63_8  1
    X_3_8     PREC_23_3_8  -1
    X_4_8     OBJ       65317.2407998533
    X_4_8     R4108     5805
    X_4_8     ORD_4_7   -1
    X_4_8     ORD_4_8   1
    X_4_8     PREC_3_4_8  -1
    X_4_8     PREC_4_5_8  1
    X_4_8     PREC_4_1_8  1
    X_4_8     PREC_4_11_8  1
    X_4_8     PREC_4_28_8  1
    X_4_8     PREC_4_16_8  1
    X_4_8     PREC_4_22_8  1
    X_4_8     PREC_4_36_8  1
    X_4_8     PREC_4_56_8  1
    X_4_8     PREC_24_4_8  -1
    X_4_8     PREC_30_4_8  -1
    X_4_8     PREC_50_4_8  -1
    X_5_8     OBJ       187232.766677274
    X_5_8     R4108     17046
    X_5_8     ORD_5_7   -1
    X_5_8     ORD_5_8   1
    X_5_8     PREC_4_5_8  -1
    X_5_8     PREC_5_6_8  1
    X_5_8     PREC_5_2_8  1
    X_5_8     PREC_5_12_8  1
    X_5_8     PREC_5_29_8  1
    X_5_8     PREC_8_5_8  -1
    X_5_8     PREC_25_5_8  -1
    X_5_8     PREC_31_5_8  -1
    X_5_8     PREC_51_5_8  -1
    X_5_8     PREC_57_5_8  -1
    X_6_8     OBJ       319384.113089974
    X_6_8     R4117     277
    X_6_8     R4108     30590
    X_6_8     ORD_6_7   -1
    X_6_8     ORD_6_8   1
    X_6_8     PREC_5_6_8  -1
    X_6_8     PREC_6_7_8  1
    X_6_8     PREC_9_6_8  -1
    X_6_8     PREC_18_6_8  -1
    X_6_8     PREC_26_6_8  -1
    X_6_8     PREC_32_6_8  -1
    X_6_8     PREC_37_6_8  -1
    X_6_8     PREC_52_6_8  -1
    X_6_8     PREC_58_6_8  -1
    X_7_8     OBJ       368873.943159798
    X_7_8     R4117     2823
    X_7_8     R4108     43176
    X_7_8     ORD_7_7   -1
    X_7_8     ORD_7_8   1
    X_7_8     PREC_0_7_8  -1
    X_7_8     PREC_6_7_8  -1
    X_7_8     PREC_10_7_8  -1
    X_7_8     PREC_13_7_8  -1
    X_7_8     PREC_19_7_8  -1
    X_7_8     PREC_27_7_8  -1
    X_7_8     PREC_33_7_8  -1
    X_7_8     PREC_38_7_8  -1
    X_7_8     PREC_45_7_8  -1
    X_7_8     PREC_53_7_8  -1
    X_7_8     PREC_59_7_8  -1
    X_7_8     PREC_64_7_8  -1
    X_8_8     OBJ       10576.5889911334
    X_8_8     R4108     922
    X_8_8     ORD_8_7   -1
    X_8_8     ORD_8_8   1
    X_8_8     PREC_8_9_8  1
    X_8_8     PREC_8_5_8  1
    X_8_8     PREC_8_14_8  1
    X_8_8     PREC_8_34_8  1
    X_8_8     PREC_8_1_8  1
    X_8_8     PREC_8_28_8  1
    X_8_8     PREC_8_41_8  1
    X_8_8     PREC_8_62_8  1
    X_8_8     PREC_8_22_8  1
    X_8_8     PREC_8_44_8  1
    X_8_8     PREC_8_56_8  1
    X_8_8     PREC_8_69_8  1
    X_8_8     PREC_30_8_8  -1
    X_9_8     OBJ       127691.996388589
    X_9_8     R4108     11333
    X_9_8     ORD_9_7   -1
    X_9_8     ORD_9_8   1
    X_9_8     PREC_8_9_8  -1
    X_9_8     PREC_9_10_8  1
    X_9_8     PREC_9_6_8  1
    X_9_8     PREC_9_15_8  1
    X_9_8     PREC_9_35_8  1
    X_9_8     PREC_9_2_8  1
    X_9_8     PREC_9_17_8  1
    X_9_8     PREC_9_29_8  1
    X_9_8     PREC_9_42_8  1
    X_9_8     PREC_9_63_8  1
    X_9_8     PREC_23_9_8  -1
    X_9_8     PREC_31_9_8  -1
    X_9_8     PREC_57_9_8  -1
    X_10_8    OBJ       265275.770359456
    X_10_8    R4108     24141
    X_10_8    ORD_10_7  -1
    X_10_8    ORD_10_8  1
    X_10_8    PREC_3_10_8  -1
    X_10_8    PREC_9_10_8  -1
    X_10_8    PREC_10_11_8  1
    X_10_8    PREC_10_7_8  1
    X_10_8    PREC_10_16_8  1
    X_10_8    PREC_10_36_8  1
    X_10_8    PREC_24_10_8  -1
    X_10_8    PREC_32_10_8  -1
    X_10_8    PREC_37_10_8  -1
    X_10_8    PREC_50_10_8  -1
    X_10_8    PREC_58_10_8  -1
    X_11_8    OBJ       384046.601628936
    X_11_8    R4117     369
    X_11_8    R4108     36463
    X_11_8    ORD_11_7  -1
    X_11_8    ORD_11_8  1
    X_11_8    PREC_4_11_8  -1
    X_11_8    PREC_10_11_8  -1
    X_11_8    PREC_11_12_8  1
    X_11_8    PREC_13_11_8  -1
    X_11_8    PREC_25_11_8  -1
    X_11_8    PREC_33_11_8  -1
    X_11_8    PREC_38_11_8  -1
    X_11_8    PREC_51_11_8  -1
    X_11_8    PREC_59_11_8  -1
    X_11_8    PREC_64_11_8  -1
    X_12_8    OBJ       403364.074435606
    X_12_8    R4117     4191
    X_12_8    R4108     47497
    X_12_8    ORD_12_7  -1
    X_12_8    ORD_12_8  1
    X_12_8    PREC_5_12_8  -1
    X_12_8    PREC_11_12_8  -1
    X_12_8    PREC_14_12_8  -1
    X_12_8    PREC_18_12_8  -1
    X_12_8    PREC_26_12_8  -1
    X_12_8    PREC_34_12_8  -1
    X_12_8    PREC_39_12_8  -1
    X_12_8    PREC_52_12_8  -1
    X_12_8    PREC_60_12_8  -1
    X_12_8    PREC_65_12_8  -1
    X_13_8    OBJ       4128.95694123871
    X_13_8    R4108     369
    X_13_8    ORD_13_7  -1
    X_13_8    ORD_13_8  1
    X_13_8    PREC_13_14_8  1
    X_13_8    PREC_13_11_8  1
    X_13_8    PREC_13_41_8  1
    X_13_8    PREC_13_7_8  1
    X_13_8    PREC_13_36_8  1
    X_13_8    PREC_13_44_8  1
    X_13_8    PREC_13_69_8  1
    X_13_8    PREC_30_13_8  -1
    X_13_8    PREC_37_13_8  -1
    X_14_8    OBJ       40448.6859035832
    X_14_8    R4108     3686
    X_14_8    ORD_14_7  -1
    X_14_8    ORD_14_8  1
    X_14_8    PREC_8_14_8  -1
    X_14_8    PREC_13_14_8  -1
    X_14_8    PREC_14_15_8  1
    X_14_8    PREC_14_12_8  1
    X_14_8    PREC_14_17_8  1
    X_14_8    PREC_14_42_8  1
    X_14_8    PREC_23_14_8  -1
    X_14_8    PREC_31_14_8  -1
    X_14_8    PREC_38_14_8  -1
    X_14_8    PREC_57_14_8  -1
    X_14_8    PREC_64_14_8  -1
    X_15_8    OBJ       127969.960725014
    X_15_8    R4108     1.1977999999999998e+04
    X_15_8    ORD_15_7  -1
    X_15_8    ORD_15_8  1
    X_15_8    PREC_3_15_8  -1
    X_15_8    PREC_9_15_8  -1
    X_15_8    PREC_14_15_8  -1
    X_15_8    PREC_15_16_8  1
    X_15_8    PREC_24_15_8  -1
    X_15_8    PREC_32_15_8  -1
    X_15_8    PREC_39_15_8  -1
    X_15_8    PREC_50_15_8  -1
    X_15_8    PREC_58_15_8  -1
    X_15_8    PREC_65_15_8  -1
    X_16_8    OBJ       253508.552130589
    X_16_8    R4117     607
    X_16_8    R4108     25760
    X_16_8    ORD_16_7  -1
    X_16_8    ORD_16_8  1
    X_16_8    PREC_4_16_8  -1
    X_16_8    PREC_10_16_8  -1
    X_16_8    PREC_15_16_8  -1
    X_16_8    PREC_25_16_8  -1
    X_16_8    PREC_33_16_8  -1
    X_16_8    PREC_40_16_8  -1
    X_16_8    PREC_51_16_8  -1
    X_16_8    PREC_59_16_8  -1
    X_16_8    PREC_66_16_8  -1
    X_17_8    OBJ       949.199459358226
    X_17_8    R4108     93
    X_17_8    ORD_17_7  -1
    X_17_8    ORD_17_8  1
    X_17_8    PREC_9_17_8  -1
    X_17_8    PREC_14_17_8  -1
    X_17_8    PREC_24_17_8  -1
    X_17_8    PREC_32_17_8  -1
    X_17_8    PREC_39_17_8  -1
    X_17_8    PREC_50_17_8  -1
    X_17_8    PREC_58_17_8  -1
    X_17_8    PREC_65_17_8  -1
    X_18_8    OBJ       5288.31289161807
    X_18_8    R4108     461
    X_18_8    ORD_18_7  -1
    X_18_8    ORD_18_8  1
    X_18_8    PREC_18_19_8  1
    X_18_8    PREC_18_0_8  1
    X_18_8    PREC_18_27_8  1
    X_18_8    PREC_18_47_8  1
    X_18_8    PREC_18_6_8  1
    X_18_8    PREC_18_35_8  1
    X_18_8    PREC_18_55_8  1
    X_18_8    PREC_18_73_8  1
    X_18_8    PREC_18_12_8  1
    X_18_8    PREC_18_63_8  1
    X_18_8    PREC_18_79_8  1
    X_18_8    PREC_23_18_8  -1
    X_19_8    OBJ       77812.537950432
    X_19_8    R4108     6911
    X_19_8    ORD_19_7  -1
    X_19_8    ORD_19_8  1
    X_19_8    PREC_18_19_8  -1
    X_19_8    PREC_19_20_8  1
    X_19_8    PREC_19_1_8  1
    X_19_8    PREC_19_28_8  1
    X_19_8    PREC_19_48_8  1
    X_19_8    PREC_19_7_8  1
    X_19_8    PREC_19_36_8  1
    X_19_8    PREC_19_56_8  1
    X_19_8    PREC_19_74_8  1
    X_19_8    PREC_24_19_8  -1
    X_19_8    PREC_30_19_8  -1
    X_19_8    PREC_50_19_8  -1
    X_20_8    OBJ       185185.065405518
    X_20_8    R4117     553
    X_20_8    R4108     18152
    X_20_8    ORD_20_7  -1
    X_20_8    ORD_20_8  1
    X_20_8    PREC_19_20_8  -1
    X_20_8    PREC_20_21_8  1
    X_20_8    PREC_20_2_8  1
    X_20_8    PREC_20_29_8  1
    X_20_8    PREC_20_49_8  1
    X_20_8    PREC_25_20_8  -1
    X_20_8    PREC_31_20_8  -1
    X_20_8    PREC_45_20_8  -1
    X_20_8    PREC_51_20_8  -1
    X_20_8    PREC_57_20_8  -1
    X_21_8    OBJ       278257.311940241
    X_21_8    R4117     2380
    X_21_8    R4108     30813
    X_21_8    ORD_21_7  -1
    X_21_8    ORD_21_8  1
    X_21_8    PREC_3_21_8  -1
    X_21_8    PREC_20_21_8  -1
    X_21_8    PREC_21_22_8  1
    X_21_8    PREC_26_21_8  -1
    X_21_8    PREC_32_21_8  -1
    X_21_8    PREC_46_21_8  -1
    X_21_8    PREC_52_21_8  -1
    X_21_8    PREC_58_21_8  -1
    X_22_8    OBJ       299661.927152836
    X_22_8    R4117     5698
    X_22_8    R4108     41723
    X_22_8    ORD_22_7  -1
    X_22_8    ORD_22_8  1
    X_22_8    PREC_0_22_8  -1
    X_22_8    PREC_4_22_8  -1
    X_22_8    PREC_8_22_8  -1
    X_22_8    PREC_21_22_8  -1
    X_22_8    PREC_27_22_8  -1
    X_22_8    PREC_33_22_8  -1
    X_22_8    PREC_47_22_8  -1
    X_22_8    PREC_53_22_8  -1
    X_22_8    PREC_59_22_8  -1
    X_22_8    PREC_64_22_8  -1
    X_22_8    PREC_75_22_8  -1
    X_23_8    OBJ       -426474.077195788
    X_23_8    R4117     4763
    X_23_8    R4108     4763
    X_23_8    ORD_23_8  1
    X_23_8    PREC_23_24_8  1
    X_23_8    PREC_23_3_8  1
    X_23_8    PREC_23_18_8  1
    X_23_8    PREC_23_32_8  1
    X_23_8    PREC_23_52_8  1
    X_23_8    PREC_23_9_8  1
    X_23_8    PREC_23_39_8  1
    X_23_8    PREC_23_46_8  1
    X_23_8    PREC_23_60_8  1
    X_23_8    PREC_23_76_8  1
    X_23_8    PREC_23_14_8  1
    X_23_8    PREC_23_67_8  1
    X_23_8    PREC_23_72_8  1
    X_23_8    PREC_23_82_8  1
    X_23_8    PREC_23_70_8  1
    X_23_8    PREC_23_87_8  1
    X_23_8    PREC_23_89_8  1
    X_24_8    OBJ       -1442160.39830092
    X_24_8    R4117     20094
    X_24_8    R4108     21753
    X_24_8    ORD_24_7  -1
    X_24_8    ORD_24_8  1
    X_24_8    PREC_23_24_8  -1
    X_24_8    PREC_24_25_8  1
    X_24_8    PREC_24_4_8  1
    X_24_8    PREC_24_19_8  1
    X_24_8    PREC_24_33_8  1
    X_24_8    PREC_24_53_8  1
    X_24_8    PREC_24_0_8  1
    X_24_8    PREC_24_10_8  1
    X_24_8    PREC_24_40_8  1
    X_24_8    PREC_24_47_8  1
    X_24_8    PREC_24_61_8  1
    X_24_8    PREC_24_77_8  1
    X_24_8    PREC_24_15_8  1
    X_24_8    PREC_24_68_8  1
    X_24_8    PREC_24_73_8  1
    X_24_8    PREC_24_83_8  1
    X_24_8    PREC_24_17_8  1
    X_24_8    PREC_24_71_8  1
    X_24_8    PREC_24_88_8  1
    X_25_8    OBJ       -4274108.29886779
    X_25_8    R4117     27389
    X_25_8    R4108     36695
    X_25_8    ORD_25_7  -1
    X_25_8    ORD_25_8  1
    X_25_8    PREC_24_25_8  -1
    X_25_8    PREC_25_26_8  1
    X_25_8    PREC_25_5_8  1
    X_25_8    PREC_25_20_8  1
    X_25_8    PREC_25_34_8  1
    X_25_8    PREC_25_54_8  1
    X_25_8    PREC_25_1_8  1
    X_25_8    PREC_25_11_8  1
    X_25_8    PREC_25_41_8  1
    X_25_8    PREC_25_48_8  1
    X_25_8    PREC_25_62_8  1
    X_25_8    PREC_25_78_8  1
    X_25_8    PREC_25_16_8  1
    X_25_8    PREC_25_69_8  1
    X_25_8    PREC_25_74_8  1
    X_25_8    PREC_25_84_8  1
    X_25_8    PREC_30_25_8  -1
    X_25_8    PREC_50_25_8  -1
    X_26_8    OBJ       -6153078.5222509
    X_26_8    R4117     32478
    X_26_8    R4108     43534
    X_26_8    ORD_26_7  -1
    X_26_8    ORD_26_8  1
    X_26_8    PREC_25_26_8  -1
    X_26_8    PREC_26_27_8  1
    X_26_8    PREC_26_6_8  1
    X_26_8    PREC_26_21_8  1
    X_26_8    PREC_26_35_8  1
    X_26_8    PREC_26_55_8  1
    X_26_8    PREC_26_2_8  1
    X_26_8    PREC_26_12_8  1
    X_26_8    PREC_26_42_8  1
    X_26_8    PREC_26_49_8  1
    X_26_8    PREC_26_63_8  1
    X_26_8    PREC_26_79_8  1
    X_26_8    PREC_31_26_8  -1
    X_26_8    PREC_51_26_8  -1
    X_26_8    PREC_57_26_8  -1
    X_27_8    OBJ       -2112969.21113847
    X_27_8    R4117     23762
    X_27_8    R4108     42198
    X_27_8    ORD_27_7  -1
    X_27_8    ORD_27_8  1
    X_27_8    PREC_3_27_8  -1
    X_27_8    PREC_18_27_8  -1
    X_27_8    PREC_26_27_8  -1
    X_27_8    PREC_27_28_8  1
    X_27_8    PREC_27_7_8  1
    X_27_8    PREC_27_22_8  1
    X_27_8    PREC_27_36_8  1
    X_27_8    PREC_27_56_8  1
    X_27_8    PREC_32_27_8  -1
    X_27_8    PREC_37_27_8  -1
    X_27_8    PREC_52_27_8  -1
    X_27_8    PREC_58_27_8  -1
    X_28_8    OBJ       -1172681.60849735
    X_28_8    R4117     30935
    X_28_8    R4108     36014
    X_28_8    ORD_28_7  -1
    X_28_8    ORD_28_8  1
    X_28_8    PREC_4_28_8  -1
    X_28_8    PREC_8_28_8  -1
    X_28_8    PREC_19_28_8  -1
    X_28_8    PREC_27_28_8  -1
    X_28_8    PREC_28_29_8  1
    X_28_8    PREC_33_28_8  -1
    X_28_8    PREC_38_28_8  -1
    X_28_8    PREC_45_28_8  -1
    X_28_8    PREC_53_28_8  -1
    X_28_8    PREC_59_28_8  -1
    X_28_8    PREC_64_28_8  -1
    X_28_8    PREC_75_28_8  -1
    X_29_8    OBJ       -752631.285276758
    X_29_8    R4117     19875
    X_29_8    R4108     21258
    X_29_8    ORD_29_7  -1
    X_29_8    ORD_29_8  1
    X_29_8    PREC_5_29_8  -1
    X_29_8    PREC_9_29_8  -1
    X_29_8    PREC_20_29_8  -1
    X_29_8    PREC_28_29_8  -1
    X_29_8    PREC_34_29_8  -1
    X_29_8    PREC_39_29_8  -1
    X_29_8    PREC_46_29_8  -1
    X_29_8    PREC_54_29_8  -1
    X_29_8    PREC_60_29_8  -1
    X_29_8    PREC_65_29_8  -1
    X_29_8    PREC_76_29_8  -1
    X_29_8    PREC_80_29_8  -1
    X_30_8    OBJ       -924805.816924509
    X_30_8    R4117     8921
    X_30_8    R4108     8921
    X_30_8    ORD_30_8  1
    X_30_8    PREC_30_31_8  1
    X_30_8    PREC_30_8_8  1
    X_30_8    PREC_30_25_8  1
    X_30_8    PREC_30_38_8  1
    X_30_8    PREC_30_59_8  1
    X_30_8    PREC_30_4_8  1
    X_30_8    PREC_30_13_8  1
    X_30_8    PREC_30_19_8  1
    X_30_8    PREC_30_53_8  1
    X_30_8    PREC_30_66_8  1
    X_30_8    PREC_30_81_8  1
    X_30_8    PREC_30_0_8  1
    X_30_8    PREC_30_47_8  1
    X_30_8    PREC_30_77_8  1
    X_30_8    PREC_30_86_8  1
    X_30_8    PREC_30_73_8  1
    X_31_8    OBJ       -2272965.4463931
    X_31_8    R4117     30283
    X_31_8    R4108     32310
    X_31_8    ORD_31_7  -1
    X_31_8    ORD_31_8  1
    X_31_8    PREC_30_31_8  -1
    X_31_8    PREC_31_32_8  1
    X_31_8    PREC_31_9_8  1
    X_31_8    PREC_31_26_8  1
    X_31_8    PREC_31_39_8  1
    X_31_8    PREC_31_60_8  1
    X_31_8    PREC_31_5_8  1
    X_31_8    PREC_31_14_8  1
    X_31_8    PREC_31_20_8  1
    X_31_8    PREC_31_54_8  1
    X_31_8    PREC_31_67_8  1
    X_31_8    PREC_31_82_8  1
    X_31_8    PREC_31_1_8  1
    X_31_8    PREC_31_48_8  1
    X_31_8    PREC_31_70_8  1
    X_31_8    PREC_31_78_8  1
    X_31_8    PREC_31_87_8  1
    X_31_8    PREC_31_74_8  1
    X_31_8    PREC_31_89_8  1
    X_32_8    OBJ       -3619157.36062136
    X_32_8    R4117     34635
    X_32_8    R4108     43849
    X_32_8    ORD_32_7  -1
    X_32_8    ORD_32_8  1
    X_32_8    PREC_23_32_8  -1
    X_32_8    PREC_31_32_8  -1
    X_32_8    PREC_32_33_8  1
    X_32_8    PREC_32_10_8  1
    X_32_8    PREC_32_27_8  1
    X_32_8    PREC_32_40_8  1
    X_32_8    PREC_32_61_8  1
    X_32_8    PREC_32_6_8  1
    X_32_8    PREC_32_15_8  1
    X_32_8    PREC_32_21_8  1
    X_32_8    PREC_32_43_8  1
    X_32_8    PREC_32_55_8  1
    X_32_8    PREC_32_68_8  1
    X_32_8    PREC_32_83_8  1
    X_32_8    PREC_32_2_8  1
    X_32_8    PREC_32_17_8  1
    X_32_8    PREC_32_49_8  1
    X_32_8    PREC_32_71_8  1
    X_32_8    PREC_32_79_8  1
    X_32_8    PREC_32_88_8  1
    X_32_8    PREC_57_32_8  -1
    X_33_8    OBJ       -7707096.33175034
    X_33_8    R4117     37283
    X_33_8    R4108     44009
    X_33_8    ORD_33_7  -1
    X_33_8    ORD_33_8  1
    X_33_8    PREC_24_33_8  -1
    X_33_8    PREC_32_33_8  -1
    X_33_8    PREC_33_34_8  1
    X_33_8    PREC_33_11_8  1
    X_33_8    PREC_33_28_8  1
    X_33_8    PREC_33_41_8  1
    X_33_8    PREC_33_62_8  1
    X_33_8    PREC_33_7_8  1
    X_33_8    PREC_33_16_8  1
    X_33_8    PREC_33_22_8  1
    X_33_8    PREC_33_44_8  1
    X_33_8    PREC_33_56_8  1
    X_33_8    PREC_33_69_8  1
    X_33_8    PREC_33_84_8  1
    X_33_8    PREC_37_33_8  -1
    X_33_8    PREC_50_33_8  -1
    X_33_8    PREC_58_33_8  -1
    X_34_8    OBJ       -773560.914442596
    X_34_8    R4117     15678
    X_34_8    R4108     38248
    X_34_8    ORD_34_7  -1
    X_34_8    ORD_34_8  1
    X_34_8    PREC_8_34_8  -1
    X_34_8    PREC_25_34_8  -1
    X_34_8    PREC_33_34_8  -1
    X_34_8    PREC_34_35_8  1
    X_34_8    PREC_34_12_8  1
    X_34_8    PREC_34_29_8  1
    X_34_8    PREC_34_42_8  1
    X_34_8    PREC_34_63_8  1
    X_34_8    PREC_38_34_8  -1
    X_34_8    PREC_51_34_8  -1
    X_34_8    PREC_59_34_8  -1
    X_34_8    PREC_64_34_8  -1
    X_35_8    OBJ       49620.773163582
    X_35_8    R4117     11088
    X_35_8    R4108     33782
    X_35_8    ORD_35_7  -1
    X_35_8    ORD_35_8  1
    X_35_8    PREC_3_35_8  -1
    X_35_8    PREC_9_35_8  -1
    X_35_8    PREC_18_35_8  -1
    X_35_8    PREC_26_35_8  -1
    X_35_8    PREC_34_35_8  -1
    X_35_8    PREC_35_36_8  1
    X_35_8    PREC_39_35_8  -1
    X_35_8    PREC_52_35_8  -1
    X_35_8    PREC_60_35_8  -1
    X_35_8    PREC_65_35_8  -1
    X_35_8    PREC_80_35_8  -1
    X_36_8    OBJ       38162.5350137758
    X_36_8    R4117     5880
    X_36_8    R4108     18164
    X_36_8    ORD_36_7  -1
    X_36_8    ORD_36_8  1
    X_36_8    PREC_4_36_8  -1
    X_36_8    PREC_10_36_8  -1
    X_36_8    PREC_13_36_8  -1
    X_36_8    PREC_19_36_8  -1
    X_36_8    PREC_27_36_8  -1
    X_36_8    PREC_35_36_8  -1
    X_36_8    PREC_40_36_8  -1
    X_36_8    PREC_45_36_8  -1
    X_36_8    PREC_53_36_8  -1
    X_36_8    PREC_61_36_8  -1
    X_36_8    PREC_66_36_8  -1
    X_36_8    PREC_75_36_8  -1
    X_36_8    PREC_81_36_8  -1
    X_37_8    OBJ       -59806.0413496557
    X_37_8    R4117     1028
    X_37_8    R4108     2042
    X_37_8    ORD_37_7  -1
    X_37_8    ORD_37_8  1
    X_37_8    PREC_37_38_8  1
    X_37_8    PREC_37_13_8  1
    X_37_8    PREC_37_33_8  1
    X_37_8    PREC_37_66_8  1
    X_37_8    PREC_37_10_8  1
    X_37_8    PREC_37_27_8  1
    X_37_8    PREC_37_61_8  1
    X_37_8    PREC_37_86_8  1
    X_37_8    PREC_37_6_8  1
    X_37_8    PREC_37_55_8  1
    X_37_8    PREC_37_83_8  1
    X_37_8    PREC_37_2_8  1
    X_37_8    PREC_37_49_8  1
    X_37_8    PREC_37_79_8  1
    X_38_8    OBJ       -151148.139251628
    X_38_8    R4117     2571
    X_38_8    R4108     9758
    X_38_8    ORD_38_7  -1
    X_38_8    ORD_38_8  1
    X_38_8    PREC_30_38_8  -1
    X_38_8    PREC_37_38_8  -1
    X_38_8    PREC_38_39_8  1
    X_38_8    PREC_38_14_8  1
    X_38_8    PREC_38_34_8  1
    X_38_8    PREC_38_67_8  1
    X_38_8    PREC_38_11_8  1
    X_38_8    PREC_38_28_8  1
    X_38_8    PREC_38_62_8  1
    X_38_8    PREC_38_70_8  1
    X_38_8    PREC_38_87_8  1
    X_38_8    PREC_38_7_8  1
    X_38_8    PREC_38_56_8  1
    X_38_8    PREC_38_84_8  1
    X_38_8    PREC_38_89_8  1
    X_39_8    OBJ       -358191.28253638
    X_39_8    R4117     5244
    X_39_8    R4108     22279
    X_39_8    ORD_39_7  -1
    X_39_8    ORD_39_8  1
    X_39_8    PREC_23_39_8  -1
    X_39_8    PREC_31_39_8  -1
    X_39_8    PREC_38_39_8  -1
    X_39_8    PREC_39_40_8  1
    X_39_8    PREC_39_15_8  1
    X_39_8    PREC_39_35_8  1
    X_39_8    PREC_39_43_8  1
    X_39_8    PREC_39_68_8  1
    X_39_8    PREC_39_12_8  1
    X_39_8    PREC_39_17_8  1
    X_39_8    PREC_39_29_8  1
    X_39_8    PREC_39_63_8  1
    X_39_8    PREC_39_71_8  1
    X_39_8    PREC_39_88_8  1
    X_39_8    PREC_57_39_8  -1
    X_39_8    PREC_64_39_8  -1
    X_40_8    OBJ       262701.978810194
    X_40_8    R4117     3.1210000000000005e+03
    X_40_8    R4108     33093
    X_40_8    ORD_40_7  -1
    X_40_8    ORD_40_8  1
    X_40_8    PREC_24_40_8  -1
    X_40_8    PREC_32_40_8  -1
    X_40_8    PREC_39_40_8  -1
    X_40_8    PREC_40_41_8  1
    X_40_8    PREC_40_16_8  1
    X_40_8    PREC_40_36_8  1
    X_40_8    PREC_40_44_8  1
    X_40_8    PREC_40_69_8  1
    X_40_8    PREC_50_40_8  -1
    X_40_8    PREC_58_40_8  -1
    X_40_8    PREC_65_40_8  -1
    X_41_8    OBJ       228137.895407819
    X_41_8    R4117     7125
    X_41_8    R4108     42369
    X_41_8    ORD_41_7  -1
    X_41_8    ORD_41_8  1
    X_41_8    PREC_8_41_8  -1
    X_41_8    PREC_13_41_8  -1
    X_41_8    PREC_25_41_8  -1
    X_41_8    PREC_33_41_8  -1
    X_41_8    PREC_40_41_8  -1
    X_41_8    PREC_41_42_8  1
    X_41_8    PREC_51_41_8  -1
    X_41_8    PREC_59_41_8  -1
    X_41_8    PREC_66_41_8  -1
    X_42_8    OBJ       185782.385193985
    X_42_8    R4117     10976
    X_42_8    R4108     41057
    X_42_8    ORD_42_7  -1
    X_42_8    ORD_42_8  1
    X_42_8    PREC_3_42_8  -1
    X_42_8    PREC_9_42_8  -1
    X_42_8    PREC_14_42_8  -1
    X_42_8    PREC_26_42_8  -1
    X_42_8    PREC_34_42_8  -1
    X_42_8    PREC_41_42_8  -1
    X_42_8    PREC_52_42_8  -1
    X_42_8    PREC_60_42_8  -1
    X_42_8    PREC_67_42_8  -1
    X_42_8    PREC_80_42_8  -1
    X_42_8    PREC_85_42_8  -1
    X_43_8    OBJ       14671.6604057211
    X_43_8    R4108     1383
    X_43_8    ORD_43_7  -1
    X_43_8    ORD_43_8  1
    X_43_8    PREC_32_43_8  -1
    X_43_8    PREC_39_43_8  -1
    X_43_8    PREC_43_44_8  1
    X_43_8    PREC_50_43_8  -1
    X_43_8    PREC_58_43_8  -1
    X_43_8    PREC_65_43_8  -1
    X_44_8    OBJ       103345.484638519
    X_44_8    R4108     9951
    X_44_8    ORD_44_7  -1
    X_44_8    ORD_44_8  1
    X_44_8    PREC_8_44_8  -1
    X_44_8    PREC_13_44_8  -1
    X_44_8    PREC_33_44_8  -1
    X_44_8    PREC_40_44_8  -1
    X_44_8    PREC_43_44_8  -1
    X_44_8    PREC_51_44_8  -1
    X_44_8    PREC_59_44_8  -1
    X_44_8    PREC_66_44_8  -1
    X_45_8    OBJ       6345.97546994169
    X_45_8    R4108     553
    X_45_8    ORD_45_7  -1
    X_45_8    ORD_45_8  1
    X_45_8    PREC_45_46_8  1
    X_45_8    PREC_45_20_8  1
    X_45_8    PREC_45_54_8  1
    X_45_8    PREC_45_72_8  1
    X_45_8    PREC_45_1_8  1
    X_45_8    PREC_45_28_8  1
    X_45_8    PREC_45_62_8  1
    X_45_8    PREC_45_78_8  1
    X_45_8    PREC_45_7_8  1
    X_45_8    PREC_45_36_8  1
    X_45_8    PREC_45_84_8  1
    X_45_8    PREC_50_45_8  -1
    X_46_8    OBJ       91338.3451074903
    X_46_8    R4108     8.1089999999999991e+03
    X_46_8    ORD_46_7  -1
    X_46_8    ORD_46_8  1
    X_46_8    PREC_23_46_8  -1
    X_46_8    PREC_45_46_8  -1
    X_46_8    PREC_46_47_8  1
    X_46_8    PREC_46_21_8  1
    X_46_8    PREC_46_55_8  1
    X_46_8    PREC_46_73_8  1
    X_46_8    PREC_46_2_8  1
    X_46_8    PREC_46_29_8  1
    X_46_8    PREC_46_63_8  1
    X_46_8    PREC_46_79_8  1
    X_46_8    PREC_51_46_8  -1
    X_46_8    PREC_57_46_8  -1
    X_47_8    OBJ       212255.811613075
    X_47_8    R4117     553
    X_47_8    R4108     20455
    X_47_8    ORD_47_7  -1
    X_47_8    ORD_47_8  1
    X_47_8    PREC_18_47_8  -1
    X_47_8    PREC_24_47_8  -1
    X_47_8    PREC_30_47_8  -1
    X_47_8    PREC_46_47_8  -1
    X_47_8    PREC_47_48_8  1
    X_47_8    PREC_47_22_8  1
    X_47_8    PREC_47_56_8  1
    X_47_8    PREC_47_74_8  1
    X_47_8    PREC_52_47_8  -1
    X_47_8    PREC_58_47_8  -1
    X_48_8    OBJ       278224.235839851
    X_48_8    R4117     3266
    X_48_8    R4108     3.2284999999999996e+04
    X_48_8    ORD_48_7  -1
    X_48_8    ORD_48_8  1
    X_48_8    PREC_19_48_8  -1
    X_48_8    PREC_25_48_8  -1
    X_48_8    PREC_31_48_8  -1
    X_48_8    PREC_47_48_8  -1
    X_48_8    PREC_48_49_8  1
    X_48_8    PREC_53_48_8  -1
    X_48_8    PREC_59_48_8  -1
    X_48_8    PREC_75_48_8  -1
    X_49_8    OBJ       232141.832783846
    X_49_8    R4117     8207
    X_49_8    R4108     43721
    X_49_8    ORD_49_7  -1
    X_49_8    ORD_49_8  1
    X_49_8    PREC_3_49_8  -1
    X_49_8    PREC_20_49_8  -1
    X_49_8    PREC_26_49_8  -1
    X_49_8    PREC_32_49_8  -1
    X_49_8    PREC_37_49_8  -1
    X_49_8    PREC_48_49_8  -1
    X_49_8    PREC_54_49_8  -1
    X_49_8    PREC_60_49_8  -1
    X_49_8    PREC_72_49_8  -1
    X_49_8    PREC_76_49_8  -1
    X_49_8    PREC_80_49_8  -1
    X_50_8    OBJ       -467083.176667447
    X_50_8    R4117     5444
    X_50_8    R4108     5444
    X_50_8    ORD_50_8  1
    X_50_8    PREC_50_51_8  1
    X_50_8    PREC_50_25_8  1
    X_50_8    PREC_50_45_8  1
    X_50_8    PREC_50_59_8  1
    X_50_8    PREC_50_75_8  1
    X_50_8    PREC_50_4_8  1
    X_50_8    PREC_50_19_8  1
    X_50_8    PREC_50_33_8  1
    X_50_8    PREC_50_66_8  1
    X_50_8    PREC_50_81_8  1
    X_50_8    PREC_50_0_8  1
    X_50_8    PREC_50_10_8  1
    X_50_8    PREC_50_40_8  1
    X_50_8    PREC_50_86_8  1
    X_50_8    PREC_50_15_8  1
    X_50_8    PREC_50_43_8  1
    X_50_8    PREC_50_17_8  1
    X_51_8    OBJ       -1604421.88653099
    X_51_8    R4117     22370
    X_51_8    R4108     23475
    X_51_8    ORD_51_7  -1
    X_51_8    ORD_51_8  1
    X_51_8    PREC_50_51_8  -1
    X_51_8    PREC_51_52_8  1
    X_51_8    PREC_51_26_8  1
    X_51_8    PREC_51_46_8  1
    X_51_8    PREC_51_60_8  1
    X_51_8    PREC_51_76_8  1
    X_51_8    PREC_51_5_8  1
    X_51_8    PREC_51_20_8  1
    X_51_8    PREC_51_34_8  1
    X_51_8    PREC_51_67_8  1
    X_51_8    PREC_51_72_8  1
    X_51_8    PREC_51_82_8  1
    X_51_8    PREC_51_1_8  1
    X_51_8    PREC_51_11_8  1
    X_51_8    PREC_51_41_8  1
    X_51_8    PREC_51_87_8  1
    X_51_8    PREC_51_16_8  1
    X_51_8    PREC_51_44_8  1
    X_51_8    PREC_51_89_8  1
    X_52_8    OBJ       -4866864.83641326
    X_52_8    R4117     32298
    X_52_8    R4108     38471
    X_52_8    ORD_52_7  -1
    X_52_8    ORD_52_8  1
    X_52_8    PREC_23_52_8  -1
    X_52_8    PREC_51_52_8  -1
    X_52_8    PREC_52_53_8  1
    X_52_8    PREC_52_27_8  1
    X_52_8    PREC_52_47_8  1
    X_52_8    PREC_52_61_8  1
    X_52_8    PREC_52_77_8  1
    X_52_8    PREC_52_6_8  1
    X_52_8    PREC_52_21_8  1
    X_52_8    PREC_52_35_8  1
    X_52_8    PREC_52_68_8  1
    X_52_8    PREC_52_73_8  1
    X_52_8    PREC_52_83_8  1
    X_52_8    PREC_52_2_8  1
    X_52_8    PREC_52_12_8  1
    X_52_8    PREC_52_42_8  1
    X_52_8    PREC_52_88_8  1
    X_52_8    PREC_57_52_8  -1
    X_53_8    OBJ       -9775005.26123984
    X_53_8    R4117     37735
    X_53_8    R4108     43079
    X_53_8    ORD_53_7  -1
    X_53_8    ORD_53_8  1
    X_53_8    PREC_24_53_8  -1
    X_53_8    PREC_30_53_8  -1
    X_53_8    PREC_52_53_8  -1
    X_53_8    PREC_53_54_8  1
    X_53_8    PREC_53_28_8  1
    X_53_8    PREC_53_48_8  1
    X_53_8    PREC_53_62_8  1
    X_53_8    PREC_53_78_8  1
    X_53_8    PREC_53_7_8  1
    X_53_8    PREC_53_22_8  1
    X_53_8    PREC_53_36_8  1
    X_53_8    PREC_53_69_8  1
    X_53_8    PREC_53_74_8  1
    X_53_8    PREC_53_84_8  1
    X_53_8    PREC_58_53_8  -1
    X_54_8    OBJ       -4988125.8307824
    X_54_8    R4117     38023
    X_54_8    R4108     41064
    X_54_8    ORD_54_7  -1
    X_54_8    ORD_54_8  1
    X_54_8    PREC_25_54_8  -1
    X_54_8    PREC_31_54_8  -1
    X_54_8    PREC_45_54_8  -1
    X_54_8    PREC_53_54_8  -1
    X_54_8    PREC_54_55_8  1
    X_54_8    PREC_54_29_8  1
    X_54_8    PREC_54_49_8  1
    X_54_8    PREC_54_63_8  1
    X_54_8    PREC_54_79_8  1
    X_54_8    PREC_59_54_8  -1
    X_54_8    PREC_64_54_8  -1
    X_54_8    PREC_75_54_8  -1
    X_55_8    OBJ       -677523.15084042
    X_55_8    R4117     31303
    X_55_8    R4108     34218
    X_55_8    ORD_55_7  -1
    X_55_8    ORD_55_8  1
    X_55_8    PREC_3_55_8  -1
    X_55_8    PREC_18_55_8  -1
    X_55_8    PREC_26_55_8  -1
    X_55_8    PREC_32_55_8  -1
    X_55_8    PREC_37_55_8  -1
    X_55_8    PREC_46_55_8  -1
    X_55_8    PREC_54_55_8  -1
    X_55_8    PREC_55_56_8  1
    X_55_8    PREC_60_55_8  -1
    X_55_8    PREC_65_55_8  -1
    X_55_8    PREC_76_55_8  -1
    X_55_8    PREC_80_55_8  -1
    X_56_8    OBJ       -308166.348123871
    X_56_8    R4117     18643
    X_56_8    R4108     22893
    X_56_8    ORD_56_7  -1
    X_56_8    ORD_56_8  1
    X_56_8    PREC_4_56_8  -1
    X_56_8    PREC_8_56_8  -1
    X_56_8    PREC_19_56_8  -1
    X_56_8    PREC_27_56_8  -1
    X_56_8    PREC_33_56_8  -1
    X_56_8    PREC_38_56_8  -1
    X_56_8    PREC_47_56_8  -1
    X_56_8    PREC_55_56_8  -1
    X_56_8    PREC_61_56_8  -1
    X_56_8    PREC_66_56_8  -1
    X_56_8    PREC_77_56_8  -1
    X_56_8    PREC_81_56_8  -1
    X_57_8    OBJ       -837663.795098429
    X_57_8    R4117     9607
    X_57_8    R4108     9607
    X_57_8    ORD_57_8  1
    X_57_8    PREC_57_58_8  1
    X_57_8    PREC_57_32_8  1
    X_57_8    PREC_57_52_8  1
    X_57_8    PREC_57_65_8  1
    X_57_8    PREC_57_80_8  1
    X_57_8    PREC_57_9_8  1
    X_57_8    PREC_57_26_8  1
    X_57_8    PREC_57_39_8  1
    X_57_8    PREC_57_46_8  1
    X_57_8    PREC_57_76_8  1
    X_57_8    PREC_57_85_8  1
    X_57_8    PREC_57_5_8  1
    X_57_8    PREC_57_14_8  1
    X_57_8    PREC_57_20_8  1
    X_57_8    PREC_57_72_8  1
    X_57_8    PREC_57_1_8  1
    X_58_8    OBJ       -1504849.76316044
    X_58_8    R4117     25454
    X_58_8    R4108     28863
    X_58_8    ORD_58_7  -1
    X_58_8    ORD_58_8  1
    X_58_8    PREC_57_58_8  -1
    X_58_8    PREC_58_59_8  1
    X_58_8    PREC_58_33_8  1
    X_58_8    PREC_58_53_8  1
    X_58_8    PREC_58_66_8  1
    X_58_8    PREC_58_81_8  1
    X_58_8    PREC_58_10_8  1
    X_58_8    PREC_58_27_8  1
    X_58_8    PREC_58_40_8  1
    X_58_8    PREC_58_47_8  1
    X_58_8    PREC_58_77_8  1
    X_58_8    PREC_58_86_8  1
    X_58_8    PREC_58_6_8  1
    X_58_8    PREC_58_15_8  1
    X_58_8    PREC_58_21_8  1
    X_58_8    PREC_58_43_8  1
    X_58_8    PREC_58_73_8  1
    X_58_8    PREC_58_2_8  1
    X_58_8    PREC_58_17_8  1
    X_59_8    OBJ       -3533236.3215178
    X_59_8    R4117     38803
    X_59_8    R4108     40277
    X_59_8    ORD_59_7  -1
    X_59_8    ORD_59_8  1
    X_59_8    PREC_30_59_8  -1
    X_59_8    PREC_50_59_8  -1
    X_59_8    PREC_58_59_8  -1
    X_59_8    PREC_59_60_8  1
    X_59_8    PREC_59_34_8  1
    X_59_8    PREC_59_54_8  1
    X_59_8    PREC_59_67_8  1
    X_59_8    PREC_59_82_8  1
    X_59_8    PREC_59_11_8  1
    X_59_8    PREC_59_28_8  1
    X_59_8    PREC_59_41_8  1
    X_59_8    PREC_59_48_8  1
    X_59_8    PREC_59_70_8  1
    X_59_8    PREC_59_78_8  1
    X_59_8    PREC_59_87_8  1
    X_59_8    PREC_59_7_8  1
    X_59_8    PREC_59_16_8  1
    X_59_8    PREC_59_22_8  1
    X_59_8    PREC_59_44_8  1
    X_59_8    PREC_59_74_8  1
    X_59_8    PREC_59_89_8  1
    X_60_8    OBJ       -6473454.77118416
    X_60_8    R4117     41662
    X_60_8    R4108     41662
    X_60_8    ORD_60_7  -1
    X_60_8    ORD_60_8  1
    X_60_8    PREC_23_60_8  -1
    X_60_8    PREC_31_60_8  -1
    X_60_8    PREC_51_60_8  -1
    X_60_8    PREC_59_60_8  -1
    X_60_8    PREC_60_61_8  1
    X_60_8    PREC_60_35_8  1
    X_60_8    PREC_60_55_8  1
    X_60_8    PREC_60_68_8  1
    X_60_8    PREC_60_83_8  1
    X_60_8    PREC_60_12_8  1
    X_60_8    PREC_60_29_8  1
    X_60_8    PREC_60_42_8  1
    X_60_8    PREC_60_49_8  1
    X_60_8    PREC_60_71_8  1
    X_60_8    PREC_60_79_8  1
    X_60_8    PREC_60_88_8  1
    X_60_8    PREC_64_60_8  -1
    X_61_8    OBJ       -641798.865269302
    X_61_8    R4117     31179
    X_61_8    R4108     36027
    X_61_8    ORD_61_7  -1
    X_61_8    ORD_61_8  1
    X_61_8    PREC_24_61_8  -1
    X_61_8    PREC_32_61_8  -1
    X_61_8    PREC_37_61_8  -1
    X_61_8    PREC_52_61_8  -1
    X_61_8    PREC_60_61_8  -1
    X_61_8    PREC_61_62_8  1
    X_61_8    PREC_61_36_8  1
    X_61_8    PREC_61_56_8  1
    X_61_8    PREC_61_69_8  1
    X_61_8    PREC_61_84_8  1
    X_61_8    PREC_65_61_8  -1
    X_61_8    PREC_80_61_8  -1
    X_62_8    OBJ       -71169.9813400629
    X_62_8    R4117     16429
    X_62_8    R4108     33437
    X_62_8    ORD_62_7  -1
    X_62_8    ORD_62_8  1
    X_62_8    PREC_8_62_8  -1
    X_62_8    PREC_25_62_8  -1
    X_62_8    PREC_33_62_8  -1
    X_62_8    PREC_38_62_8  -1
    X_62_8    PREC_45_62_8  -1
    X_62_8    PREC_53_62_8  -1
    X_62_8    PREC_61_62_8  -1
    X_62_8    PREC_62_63_8  1
    X_62_8    PREC_66_62_8  -1
    X_62_8    PREC_75_62_8  -1
    X_62_8    PREC_81_62_8  -1
    X_63_8    OBJ       44572.0504452009
    X_63_8    R4117     5519
    X_63_8    R4108     15934
    X_63_8    ORD_63_7  -1
    X_63_8    ORD_63_8  1
    X_63_8    PREC_3_63_8  -1
    X_63_8    PREC_9_63_8  -1
    X_63_8    PREC_18_63_8  -1
    X_63_8    PREC_26_63_8  -1
    X_63_8    PREC_34_63_8  -1
    X_63_8    PREC_39_63_8  -1
    X_63_8    PREC_46_63_8  -1
    X_63_8    PREC_54_63_8  -1
    X_63_8    PREC_62_63_8  -1
    X_63_8    PREC_67_63_8  -1
    X_63_8    PREC_76_63_8  -1
    X_63_8    PREC_82_63_8  -1
    X_63_8    PREC_85_63_8  -1
    X_64_8    OBJ       -15271.4084729717
    X_64_8    R4117     452
    X_64_8    R4108     1281
    X_64_8    ORD_64_7  -1
    X_64_8    ORD_64_8  1
    X_64_8    PREC_64_65_8  1
    X_64_8    PREC_64_39_8  1
    X_64_8    PREC_64_60_8  1
    X_64_8    PREC_64_85_8  1
    X_64_8    PREC_64_14_8  1
    X_64_8    PREC_64_34_8  1
    X_64_8    PREC_64_54_8  1
    X_64_8    PREC_64_82_8  1
    X_64_8    PREC_64_11_8  1
    X_64_8    PREC_64_28_8  1
    X_64_8    PREC_64_78_8  1
    X_64_8    PREC_64_7_8  1
    X_64_8    PREC_64_22_8  1
    X_64_8    PREC_64_74_8  1
    X_65_8    OBJ       -318485.83390085
    X_65_8    R4117     3772
    X_65_8    R4108     7.3649999999999991e+03
    X_65_8    ORD_65_7  -1
    X_65_8    ORD_65_8  1
    X_65_8    PREC_57_65_8  -1
    X_65_8    PREC_64_65_8  -1
    X_65_8    PREC_65_66_8  1
    X_65_8    PREC_65_40_8  1
    X_65_8    PREC_65_61_8  1
    X_65_8    PREC_65_86_8  1
    X_65_8    PREC_65_15_8  1
    X_65_8    PREC_65_35_8  1
    X_65_8    PREC_65_43_8  1
    X_65_8    PREC_65_55_8  1
    X_65_8    PREC_65_83_8  1
    X_65_8    PREC_65_12_8  1
    X_65_8    PREC_65_17_8  1
    X_65_8    PREC_65_29_8  1
    X_65_8    PREC_65_79_8  1
    X_66_8    OBJ       -1447433.22171727
    X_66_8    R4117     16431
    X_66_8    R4108     19563
    X_66_8    ORD_66_7  -1
    X_66_8    ORD_66_8  1
    X_66_8    PREC_30_66_8  -1
    X_66_8    PREC_37_66_8  -1
    X_66_8    PREC_50_66_8  -1
    X_66_8    PREC_58_66_8  -1
    X_66_8    PREC_65_66_8  -1
    X_66_8    PREC_66_67_8  1
    X_66_8    PREC_66_41_8  1
    X_66_8    PREC_66_62_8  1
    X_66_8    PREC_66_70_8  1
    X_66_8    PREC_66_87_8  1
    X_66_8    PREC_66_16_8  1
    X_66_8    PREC_66_36_8  1
    X_66_8    PREC_66_44_8  1
    X_66_8    PREC_66_56_8  1
    X_66_8    PREC_66_84_8  1
    X_66_8    PREC_66_89_8  1
    X_67_8    OBJ       -428401.541875693
    X_67_8    R4117     18823
    X_67_8    R4108     27348
    X_67_8    ORD_67_7  -1
    X_67_8    ORD_67_8  1
    X_67_8    PREC_23_67_8  -1
    X_67_8    PREC_31_67_8  -1
    X_67_8    PREC_38_67_8  -1
    X_67_8    PREC_51_67_8  -1
    X_67_8    PREC_59_67_8  -1
    X_67_8    PREC_66_67_8  -1
    X_67_8    PREC_67_68_8  1
    X_67_8    PREC_67_42_8  1
    X_67_8    PREC_67_63_8  1
    X_67_8    PREC_67_71_8  1
    X_67_8    PREC_67_88_8  1
    X_68_8    OBJ       -234010.945188758
    X_68_8    R4117     19673
    X_68_8    R4108     37161
    X_68_8    ORD_68_7  -1
    X_68_8    ORD_68_8  1
    X_68_8    PREC_24_68_8  -1
    X_68_8    PREC_32_68_8  -1
    X_68_8    PREC_39_68_8  -1
    X_68_8    PREC_52_68_8  -1
    X_68_8    PREC_60_68_8  -1
    X_68_8    PREC_67_68_8  -1
    X_68_8    PREC_68_69_8  1
    X_68_8    PREC_80_68_8  -1
    X_68_8    PREC_85_68_8  -1
    X_69_8    OBJ       100806.939923711
    X_69_8    R4117     12135
    X_69_8    R4108     34991
    X_69_8    ORD_69_7  -1
    X_69_8    ORD_69_8  1
    X_69_8    PREC_8_69_8  -1
    X_69_8    PREC_13_69_8  -1
    X_69_8    PREC_25_69_8  -1
    X_69_8    PREC_33_69_8  -1
    X_69_8    PREC_40_69_8  -1
    X_69_8    PREC_53_69_8  -1
    X_69_8    PREC_61_69_8  -1
    X_69_8    PREC_68_69_8  -1
    X_69_8    PREC_75_69_8  -1
    X_69_8    PREC_81_69_8  -1
    X_69_8    PREC_86_69_8  -1
    X_70_8    OBJ       9776.58150850671
    X_70_8    R4108     922
    X_70_8    ORD_70_7  -1
    X_70_8    ORD_70_8  1
    X_70_8    PREC_23_70_8  -1
    X_70_8    PREC_31_70_8  -1
    X_70_8    PREC_38_70_8  -1
    X_70_8    PREC_59_70_8  -1
    X_70_8    PREC_66_70_8  -1
    X_70_8    PREC_70_71_8  1
    X_71_8    OBJ       98518.2503788123
    X_71_8    R4108     9491
    X_71_8    ORD_71_7  -1
    X_71_8    ORD_71_8  1
    X_71_8    PREC_24_71_8  -1
    X_71_8    PREC_32_71_8  -1
    X_71_8    PREC_39_71_8  -1
    X_71_8    PREC_60_71_8  -1
    X_71_8    PREC_67_71_8  -1
    X_71_8    PREC_70_71_8  -1
    X_71_8    PREC_80_71_8  -1
    X_71_8    PREC_85_71_8  -1
    X_72_8    OBJ       4020.49382227333
    X_72_8    R4108     369
    X_72_8    ORD_72_7  -1
    X_72_8    ORD_72_8  1
    X_72_8    PREC_23_72_8  -1
    X_72_8    PREC_45_72_8  -1
    X_72_8    PREC_51_72_8  -1
    X_72_8    PREC_57_72_8  -1
    X_72_8    PREC_72_73_8  1
    X_72_8    PREC_72_49_8  1
    X_72_8    PREC_72_79_8  1
    X_72_8    PREC_75_72_8  -1
    X_73_8    OBJ       51126.9682667723
    X_73_8    R4108     4792
    X_73_8    ORD_73_7  -1
    X_73_8    ORD_73_8  1
    X_73_8    PREC_18_73_8  -1
    X_73_8    PREC_24_73_8  -1
    X_73_8    PREC_30_73_8  -1
    X_73_8    PREC_46_73_8  -1
    X_73_8    PREC_52_73_8  -1
    X_73_8    PREC_58_73_8  -1
    X_73_8    PREC_72_73_8  -1
    X_73_8    PREC_73_74_8  1
    X_73_8    PREC_76_73_8  -1
    X_73_8    PREC_80_73_8  -1
    X_74_8    OBJ       155130.111742302
    X_74_8    R4108     14927
    X_74_8    ORD_74_7  -1
    X_74_8    ORD_74_8  1
    X_74_8    PREC_19_74_8  -1
    X_74_8    PREC_25_74_8  -1
    X_74_8    PREC_31_74_8  -1
    X_74_8    PREC_47_74_8  -1
    X_74_8    PREC_53_74_8  -1
    X_74_8    PREC_59_74_8  -1
    X_74_8    PREC_64_74_8  -1
    X_74_8    PREC_73_74_8  -1
    X_74_8    PREC_77_74_8  -1
    X_74_8    PREC_81_74_8  -1
    X_75_8    OBJ       6345.97546994169
    X_75_8    R4108     553
    X_75_8    ORD_75_7  -1
    X_75_8    ORD_75_8  1
    X_75_8    PREC_50_75_8  -1
    X_75_8    PREC_75_76_8  1
    X_75_8    PREC_75_54_8  1
    X_75_8    PREC_75_72_8  1
    X_75_8    PREC_75_82_8  1
    X_75_8    PREC_75_28_8  1
    X_75_8    PREC_75_48_8  1
    X_75_8    PREC_75_62_8  1
    X_75_8    PREC_75_87_8  1
    X_75_8    PREC_75_22_8  1
    X_75_8    PREC_75_36_8  1
    X_75_8    PREC_75_69_8  1
    X_76_8    OBJ       44849.0581869548
    X_76_8    R4117     185
    X_76_8    R4108     7.4640000000000009e+03
    X_76_8    ORD_76_7  -1
    X_76_8    ORD_76_8  1
    X_76_8    PREC_23_76_8  -1
    X_76_8    PREC_51_76_8  -1
    X_76_8    PREC_57_76_8  -1
    X_76_8    PREC_75_76_8  -1
    X_76_8    PREC_76_77_8  1
    X_76_8    PREC_76_55_8  1
    X_76_8    PREC_76_73_8  1
    X_76_8    PREC_76_83_8  1
    X_76_8    PREC_76_29_8  1
    X_76_8    PREC_76_49_8  1
    X_76_8    PREC_76_63_8  1
    X_76_8    PREC_76_88_8  1
    X_77_8    OBJ       129090.022709636
    X_77_8    R4117     1467
    X_77_8    R4108     19341
    X_77_8    ORD_77_7  -1
    X_77_8    ORD_77_8  1
    X_77_8    PREC_24_77_8  -1
    X_77_8    PREC_30_77_8  -1
    X_77_8    PREC_52_77_8  -1
    X_77_8    PREC_58_77_8  -1
    X_77_8    PREC_76_77_8  -1
    X_77_8    PREC_77_78_8  1
    X_77_8    PREC_77_56_8  1
    X_77_8    PREC_77_74_8  1
    X_77_8    PREC_77_84_8  1
    X_77_8    PREC_80_77_8  -1
    X_78_8    OBJ       211689.433983036
    X_78_8    R4117     4301
    X_78_8    R4108     3.1058999999999996e+04
    X_78_8    ORD_78_7  -1
    X_78_8    ORD_78_8  1
    X_78_8    PREC_25_78_8  -1
    X_78_8    PREC_31_78_8  -1
    X_78_8    PREC_45_78_8  -1
    X_78_8    PREC_53_78_8  -1
    X_78_8    PREC_59_78_8  -1
    X_78_8    PREC_64_78_8  -1
    X_78_8    PREC_77_78_8  -1
    X_78_8    PREC_78_79_8  1
    X_78_8    PREC_81_78_8  -1
    X_79_8    OBJ       362672.26631692
    X_79_8    R4117     2568
    X_79_8    R4108     41061
    X_79_8    ORD_79_7  -1
    X_79_8    ORD_79_8  1
    X_79_8    PREC_18_79_8  -1
    X_79_8    PREC_26_79_8  -1
    X_79_8    PREC_32_79_8  -1
    X_79_8    PREC_37_79_8  -1
    X_79_8    PREC_46_79_8  -1
    X_79_8    PREC_54_79_8  -1
    X_79_8    PREC_60_79_8  -1
    X_79_8    PREC_65_79_8  -1
    X_79_8    PREC_72_79_8  -1
    X_79_8    PREC_78_79_8  -1
    X_79_8    PREC_82_79_8  -1
    X_79_8    PREC_85_79_8  -1
    X_80_8    OBJ       6345.97546994169
    X_80_8    R4108     553
    X_80_8    ORD_80_7  -1
    X_80_8    ORD_80_8  1
    X_80_8    PREC_57_80_8  -1
    X_80_8    PREC_80_81_8  1
    X_80_8    PREC_80_61_8  1
    X_80_8    PREC_80_77_8  1
    X_80_8    PREC_80_86_8  1
    X_80_8    PREC_80_35_8  1
    X_80_8    PREC_80_55_8  1
    X_80_8    PREC_80_68_8  1
    X_80_8    PREC_80_73_8  1
    X_80_8    PREC_80_29_8  1
    X_80_8    PREC_80_42_8  1
    X_80_8    PREC_80_49_8  1
    X_80_8    PREC_80_71_8  1
    X_81_8    OBJ       -578800.814667544
    X_81_8    R4117     4008
    X_81_8    R4108     8246
    X_81_8    ORD_81_7  -1
    X_81_8    ORD_81_8  1
    X_81_8    PREC_30_81_8  -1
    X_81_8    PREC_50_81_8  -1
    X_81_8    PREC_58_81_8  -1
    X_81_8    PREC_80_81_8  -1
    X_81_8    PREC_81_82_8  1
    X_81_8    PREC_81_62_8  1
    X_81_8    PREC_81_78_8  1
    X_81_8    PREC_81_87_8  1
    X_81_8    PREC_81_36_8  1
    X_81_8    PREC_81_56_8  1
    X_81_8    PREC_81_69_8  1
    X_81_8    PREC_81_74_8  1
    X_81_8    PREC_81_89_8  1
    X_82_8    OBJ       10089.0568373307
    X_82_8    R4117     5738
    X_82_8    R4108     19228
    X_82_8    ORD_82_7  -1
    X_82_8    ORD_82_8  1
    X_82_8    PREC_23_82_8  -1
    X_82_8    PREC_31_82_8  -1
    X_82_8    PREC_51_82_8  -1
    X_82_8    PREC_59_82_8  -1
    X_82_8    PREC_64_82_8  -1
    X_82_8    PREC_75_82_8  -1
    X_82_8    PREC_81_82_8  -1
    X_82_8    PREC_82_83_8  1
    X_82_8    PREC_82_63_8  1
    X_82_8    PREC_82_79_8  1
    X_82_8    PREC_82_88_8  1
    X_83_8    OBJ       99033.8916991312
    X_83_8    R4117     8309
    X_83_8    R4108     29026
    X_83_8    ORD_83_7  -1
    X_83_8    ORD_83_8  1
    X_83_8    PREC_24_83_8  -1
    X_83_8    PREC_32_83_8  -1
    X_83_8    PREC_37_83_8  -1
    X_83_8    PREC_52_83_8  -1
    X_83_8    PREC_60_83_8  -1
    X_83_8    PREC_65_83_8  -1
    X_83_8    PREC_76_83_8  -1
    X_83_8    PREC_82_83_8  -1
    X_83_8    PREC_83_84_8  1
    X_83_8    PREC_85_83_8  -1
    X_84_8    OBJ       102215.74633087
    X_84_8    R4117     9257
    X_84_8    R4108     36137
    X_84_8    ORD_84_7  -1
    X_84_8    ORD_84_8  1
    X_84_8    PREC_25_84_8  -1
    X_84_8    PREC_33_84_8  -1
    X_84_8    PREC_38_84_8  -1
    X_84_8    PREC_45_84_8  -1
    X_84_8    PREC_53_84_8  -1
    X_84_8    PREC_61_84_8  -1
    X_84_8    PREC_66_84_8  -1
    X_84_8    PREC_77_84_8  -1
    X_84_8    PREC_83_84_8  -1
    X_84_8    PREC_86_84_8  -1
    X_85_8    OBJ       -81453.5580247376
    X_85_8    R4117     1068
    X_85_8    R4108     1437
    X_85_8    ORD_85_7  -1
    X_85_8    ORD_85_8  1
    X_85_8    PREC_57_85_8  -1
    X_85_8    PREC_64_85_8  -1
    X_85_8    PREC_85_86_8  1
    X_85_8    PREC_85_68_8  1
    X_85_8    PREC_85_83_8  1
    X_85_8    PREC_85_42_8  1
    X_85_8    PREC_85_63_8  1
    X_85_8    PREC_85_71_8  1
    X_85_8    PREC_85_79_8  1
    X_86_8    OBJ       16076.7140183972
    X_86_8    R4117     2419
    X_86_8    R4108     6507
    X_86_8    ORD_86_7  -1
    X_86_8    ORD_86_8  1
    X_86_8    PREC_30_86_8  -1
    X_86_8    PREC_37_86_8  -1
    X_86_8    PREC_50_86_8  -1
    X_86_8    PREC_58_86_8  -1
    X_86_8    PREC_65_86_8  -1
    X_86_8    PREC_80_86_8  -1
    X_86_8    PREC_85_86_8  -1
    X_86_8    PREC_86_87_8  1
    X_86_8    PREC_86_69_8  1
    X_86_8    PREC_86_84_8  1
    X_86_8    PREC_86_89_8  1
    X_87_8    OBJ       125929.470705401
    X_87_8    R4117     3.0490000000000005e+03
    X_87_8    R4108     17312
    X_87_8    ORD_87_7  -1
    X_87_8    ORD_87_8  1
    X_87_8    PREC_23_87_8  -1
    X_87_8    PREC_31_87_8  -1
    X_87_8    PREC_38_87_8  -1
    X_87_8    PREC_51_87_8  -1
    X_87_8    PREC_59_87_8  -1
    X_87_8    PREC_66_87_8  -1
    X_87_8    PREC_75_87_8  -1
    X_87_8    PREC_81_87_8  -1
    X_87_8    PREC_86_87_8  -1
    X_87_8    PREC_87_88_8  1
    X_88_8    OBJ       271788.965936487
    X_88_8    R4117     2188
    X_88_8    R4108     30320
    X_88_8    ORD_88_7  -1
    X_88_8    ORD_88_8  1
    X_88_8    PREC_24_88_8  -1
    X_88_8    PREC_32_88_8  -1
    X_88_8    PREC_39_88_8  -1
    X_88_8    PREC_52_88_8  -1
    X_88_8    PREC_60_88_8  -1
    X_88_8    PREC_67_88_8  -1
    X_88_8    PREC_76_88_8  -1
    X_88_8    PREC_82_88_8  -1
    X_88_8    PREC_87_88_8  -1
    X_89_8    OBJ       7613.79453928643
    X_89_8    R4108     738
    X_89_8    ORD_89_7  -1
    X_89_8    ORD_89_8  1
    X_89_8    PREC_23_89_8  -1
    X_89_8    PREC_31_89_8  -1
    X_89_8    PREC_38_89_8  -1
    X_89_8    PREC_51_89_8  -1
    X_89_8    PREC_59_89_8  -1
    X_89_8    PREC_66_89_8  -1
    X_89_8    PREC_81_89_8  -1
    X_89_8    PREC_86_89_8  -1
    X_0_9     OBJ       6528.94122924907
    X_0_9     ORD_0_8   -1
    X_0_9     PREC_0_1_9  1
    X_0_9     PREC_0_7_9  1
    X_0_9     PREC_0_22_9  1
    X_0_9     PREC_3_0_9  -1
    X_0_9     PREC_18_0_9  -1
    X_0_9     PREC_24_0_9  -1
    X_0_9     PREC_30_0_9  -1
    X_0_9     PREC_50_0_9  -1
    X_0_9     CAP_0_9   93
    X_1_9     OBJ       217349.609785631
    X_1_9     ORD_1_8   -1
    X_1_9     PREC_0_1_9  -1
    X_1_9     PREC_1_2_9  1
    X_1_9     PREC_4_1_9  -1
    X_1_9     PREC_8_1_9  -1
    X_1_9     PREC_19_1_9  -1
    X_1_9     PREC_25_1_9  -1
    X_1_9     PREC_31_1_9  -1
    X_1_9     PREC_45_1_9  -1
    X_1_9     PREC_51_1_9  -1
    X_1_9     PREC_57_1_9  -1
    X_1_9     CAP_0_9   3133
    X_2_9     OBJ       809712.238759678
    X_2_9     ORD_2_8   -1
    X_2_9     PREC_1_2_9  -1
    X_2_9     PREC_5_2_9  -1
    X_2_9     PREC_9_2_9  -1
    X_2_9     PREC_20_2_9  -1
    X_2_9     PREC_26_2_9  -1
    X_2_9     PREC_32_2_9  -1
    X_2_9     PREC_37_2_9  -1
    X_2_9     PREC_46_2_9  -1
    X_2_9     PREC_52_2_9  -1
    X_2_9     PREC_58_2_9  -1
    X_2_9     CAP_0_9   11978
    X_3_9     OBJ       20645.4156327382
    X_3_9     ORD_3_8   -1
    X_3_9     PREC_3_4_9  1
    X_3_9     PREC_3_0_9  1
    X_3_9     PREC_3_10_9  1
    X_3_9     PREC_3_27_9  1
    X_3_9     PREC_3_15_9  1
    X_3_9     PREC_3_21_9  1
    X_3_9     PREC_3_35_9  1
    X_3_9     PREC_3_55_9  1
    X_3_9     PREC_3_42_9  1
    X_3_9     PREC_3_49_9  1
    X_3_9     PREC_3_63_9  1
    X_3_9     PREC_23_3_9  -1
    X_3_9     CAP_0_9   277
    X_4_9     OBJ       424994.263114921
    X_4_9     ORD_4_8   -1
    X_4_9     PREC_3_4_9  -1
    X_4_9     PREC_4_5_9  1
    X_4_9     PREC_4_1_9  1
    X_4_9     PREC_4_11_9  1
    X_4_9     PREC_4_28_9  1
    X_4_9     PREC_4_16_9  1
    X_4_9     PREC_4_22_9  1
    X_4_9     PREC_4_36_9  1
    X_4_9     PREC_4_56_9  1
    X_4_9     PREC_24_4_9  -1
    X_4_9     PREC_30_4_9  -1
    X_4_9     PREC_50_4_9  -1
    X_4_9     CAP_0_9   5805
    X_5_9     OBJ       1218251.88465638
    X_5_9     ORD_5_8   -1
    X_5_9     PREC_4_5_9  -1
    X_5_9     PREC_5_6_9  1
    X_5_9     PREC_5_2_9  1
    X_5_9     PREC_5_12_9  1
    X_5_9     PREC_5_29_9  1
    X_5_9     PREC_8_5_9  -1
    X_5_9     PREC_25_5_9  -1
    X_5_9     PREC_31_5_9  -1
    X_5_9     PREC_51_5_9  -1
    X_5_9     PREC_57_5_9  -1
    X_5_9     CAP_0_9   17046
    X_6_9     OBJ       2078110.06911962
    X_6_9     ORD_6_8   -1
    X_6_9     PREC_5_6_9  -1
    X_6_9     PREC_6_7_9  1
    X_6_9     PREC_9_6_9  -1
    X_6_9     PREC_18_6_9  -1
    X_6_9     PREC_26_6_9  -1
    X_6_9     PREC_32_6_9  -1
    X_6_9     PREC_37_6_9  -1
    X_6_9     PREC_52_6_9  -1
    X_6_9     PREC_58_6_9  -1
    X_6_9     CAP_0_9   30590
    X_6_9     CAP_1_9   277
    X_7_9     OBJ       2400121.43403103
    X_7_9     ORD_7_8   -1
    X_7_9     PREC_0_7_9  -1
    X_7_9     PREC_6_7_9  -1
    X_7_9     PREC_10_7_9  -1
    X_7_9     PREC_13_7_9  -1
    X_7_9     PREC_19_7_9  -1
    X_7_9     PREC_27_7_9  -1
    X_7_9     PREC_33_7_9  -1
    X_7_9     PREC_38_7_9  -1
    X_7_9     PREC_45_7_9  -1
    X_7_9     PREC_53_7_9  -1
    X_7_9     PREC_59_7_9  -1
    X_7_9     PREC_64_7_9  -1
    X_7_9     CAP_0_9   43176
    X_7_9     CAP_1_9   2823
    X_8_9     OBJ       68817.8127170095
    X_8_9     ORD_8_8   -1
    X_8_9     PREC_8_9_9  1
    X_8_9     PREC_8_5_9  1
    X_8_9     PREC_8_14_9  1
    X_8_9     PREC_8_34_9  1
    X_8_9     PREC_8_1_9  1
    X_8_9     PREC_8_28_9  1
    X_8_9     PREC_8_41_9  1
    X_8_9     PREC_8_62_9  1
    X_8_9     PREC_8_22_9  1
    X_8_9     PREC_8_44_9  1
    X_8_9     PREC_8_56_9  1
    X_8_9     PREC_8_69_9  1
    X_8_9     PREC_30_8_9  -1
    X_8_9     CAP_0_9   922
    X_9_9     OBJ       830842.902215234
    X_9_9     ORD_9_8   -1
    X_9_9     PREC_8_9_9  -1
    X_9_9     PREC_9_10_9  1
    X_9_9     PREC_9_6_9  1
    X_9_9     PREC_9_15_9  1
    X_9_9     PREC_9_35_9  1
    X_9_9     PREC_9_2_9  1
    X_9_9     PREC_9_17_9  1
    X_9_9     PREC_9_29_9  1
    X_9_9     PREC_9_42_9  1
    X_9_9     PREC_9_63_9  1
    X_9_9     PREC_23_9_9  -1
    X_9_9     PREC_31_9_9  -1
    X_9_9     PREC_57_9_9  -1
    X_9_9     CAP_0_9   11333
    X_10_9    OBJ       1726047.81165853
    X_10_9    ORD_10_8  -1
    X_10_9    PREC_3_10_9  -1
    X_10_9    PREC_9_10_9  -1
    X_10_9    PREC_10_11_9  1
    X_10_9    PREC_10_7_9  1
    X_10_9    PREC_10_16_9  1
    X_10_9    PREC_10_36_9  1
    X_10_9    PREC_24_10_9  -1
    X_10_9    PREC_32_10_9  -1
    X_10_9    PREC_37_10_9  -1
    X_10_9    PREC_50_10_9  -1
    X_10_9    PREC_58_10_9  -1
    X_10_9    CAP_0_9   24141
    X_11_9    OBJ       2498844.11010586
    X_11_9    ORD_11_8  -1
    X_11_9    PREC_4_11_9  -1
    X_11_9    PREC_10_11_9  -1
    X_11_9    PREC_11_12_9  1
    X_11_9    PREC_13_11_9  -1
    X_11_9    PREC_25_11_9  -1
    X_11_9    PREC_33_11_9  -1
    X_11_9    PREC_38_11_9  -1
    X_11_9    PREC_51_11_9  -1
    X_11_9    PREC_59_11_9  -1
    X_11_9    PREC_64_11_9  -1
    X_11_9    CAP_0_9   36463
    X_11_9    CAP_1_9   369
    X_12_9    OBJ       2624535.50521347
    X_12_9    ORD_12_8  -1
    X_12_9    PREC_5_12_9  -1
    X_12_9    PREC_11_12_9  -1
    X_12_9    PREC_14_12_9  -1
    X_12_9    PREC_18_12_9  -1
    X_12_9    PREC_26_12_9  -1
    X_12_9    PREC_34_12_9  -1
    X_12_9    PREC_39_12_9  -1
    X_12_9    PREC_52_12_9  -1
    X_12_9    PREC_60_12_9  -1
    X_12_9    PREC_65_12_9  -1
    X_12_9    CAP_0_9   47497
    X_12_9    CAP_1_9   4191
    X_13_9    OBJ       26865.5410300021
    X_13_9    ORD_13_8  -1
    X_13_9    PREC_13_14_9  1
    X_13_9    PREC_13_11_9  1
    X_13_9    PREC_13_41_9  1
    X_13_9    PREC_13_7_9  1
    X_13_9    PREC_13_36_9  1
    X_13_9    PREC_13_44_9  1
    X_13_9    PREC_13_69_9  1
    X_13_9    PREC_30_13_9  -1
    X_13_9    PREC_37_13_9  -1
    X_13_9    CAP_0_9   369
    X_14_9    OBJ       263184.103447292
    X_14_9    ORD_14_8  -1
    X_14_9    PREC_8_14_9  -1
    X_14_9    PREC_13_14_9  -1
    X_14_9    PREC_14_15_9  1
    X_14_9    PREC_14_12_9  1
    X_14_9    PREC_14_17_9  1
    X_14_9    PREC_14_42_9  1
    X_14_9    PREC_23_14_9  -1
    X_14_9    PREC_31_14_9  -1
    X_14_9    PREC_38_14_9  -1
    X_14_9    PREC_57_14_9  -1
    X_14_9    PREC_64_14_9  -1
    X_14_9    CAP_0_9   3686
    X_15_9    OBJ       832651.509665348
    X_15_9    ORD_15_8  -1
    X_15_9    PREC_3_15_9  -1
    X_15_9    PREC_9_15_9  -1
    X_15_9    PREC_14_15_9  -1
    X_15_9    PREC_15_16_9  1
    X_15_9    PREC_24_15_9  -1
    X_15_9    PREC_32_15_9  -1
    X_15_9    PREC_39_15_9  -1
    X_15_9    PREC_50_15_9  -1
    X_15_9    PREC_58_15_9  -1
    X_15_9    PREC_65_15_9  -1
    X_15_9    CAP_0_9   11978
    X_16_9    OBJ       1649483.03061681
    X_16_9    ORD_16_8  -1
    X_16_9    PREC_4_16_9  -1
    X_16_9    PREC_10_16_9  -1
    X_16_9    PREC_15_16_9  -1
    X_16_9    PREC_25_16_9  -1
    X_16_9    PREC_33_16_9  -1
    X_16_9    PREC_40_16_9  -1
    X_16_9    PREC_51_16_9  -1
    X_16_9    PREC_59_16_9  -1
    X_16_9    PREC_66_16_9  -1
    X_16_9    CAP_0_9   25760
    X_16_9    CAP_1_9   607
    X_17_9    OBJ       6176.0772475854
    X_17_9    ORD_17_8  -1
    X_17_9    PREC_9_17_9  -1
    X_17_9    PREC_14_17_9  -1
    X_17_9    PREC_24_17_9  -1
    X_17_9    PREC_32_17_9  -1
    X_17_9    PREC_39_17_9  -1
    X_17_9    PREC_50_17_9  -1
    X_17_9    PREC_58_17_9  -1
    X_17_9    PREC_65_17_9  -1
    X_17_9    CAP_0_9   93
    X_18_9    OBJ       34409.0260545637
    X_18_9    ORD_18_8  -1
    X_18_9    PREC_18_19_9  1
    X_18_9    PREC_18_0_9  1
    X_18_9    PREC_18_27_9  1
    X_18_9    PREC_18_47_9  1
    X_18_9    PREC_18_6_9  1
    X_18_9    PREC_18_35_9  1
    X_18_9    PREC_18_55_9  1
    X_18_9    PREC_18_73_9  1
    X_18_9    PREC_18_12_9  1
    X_18_9    PREC_18_63_9  1
    X_18_9    PREC_18_79_9  1
    X_18_9    PREC_23_18_9  -1
    X_18_9    CAP_0_9   461
    X_19_9    OBJ       506296.374776137
    X_19_9    ORD_19_8  -1
    X_19_9    PREC_18_19_9  -1
    X_19_9    PREC_19_20_9  1
    X_19_9    PREC_19_1_9  1
    X_19_9    PREC_19_28_9  1
    X_19_9    PREC_19_48_9  1
    X_19_9    PREC_19_7_9  1
    X_19_9    PREC_19_36_9  1
    X_19_9    PREC_19_56_9  1
    X_19_9    PREC_19_74_9  1
    X_19_9    PREC_24_19_9  -1
    X_19_9    PREC_30_19_9  -1
    X_19_9    PREC_50_19_9  -1
    X_19_9    CAP_0_9   6911
    X_20_9    OBJ       1204928.27694711
    X_20_9    ORD_20_8  -1
    X_20_9    PREC_19_20_9  -1
    X_20_9    PREC_20_21_9  1
    X_20_9    PREC_20_2_9  1
    X_20_9    PREC_20_29_9  1
    X_20_9    PREC_20_49_9  1
    X_20_9    PREC_25_20_9  -1
    X_20_9    PREC_31_20_9  -1
    X_20_9    PREC_45_20_9  -1
    X_20_9    PREC_51_20_9  -1
    X_20_9    PREC_57_20_9  -1
    X_20_9    CAP_0_9   18152
    X_20_9    CAP_1_9   553
    X_21_9    OBJ       1810513.72954883
    X_21_9    ORD_21_8  -1
    X_21_9    PREC_3_21_9  -1
    X_21_9    PREC_20_21_9  -1
    X_21_9    PREC_21_22_9  1
    X_21_9    PREC_26_21_9  -1
    X_21_9    PREC_32_21_9  -1
    X_21_9    PREC_46_21_9  -1
    X_21_9    PREC_52_21_9  -1
    X_21_9    PREC_58_21_9  -1
    X_21_9    CAP_0_9   30813
    X_21_9    CAP_1_9   2380
    X_22_9    OBJ       1949785.36071602
    X_22_9    ORD_22_8  -1
    X_22_9    PREC_0_22_9  -1
    X_22_9    PREC_4_22_9  -1
    X_22_9    PREC_8_22_9  -1
    X_22_9    PREC_21_22_9  -1
    X_22_9    PREC_27_22_9  -1
    X_22_9    PREC_33_22_9  -1
    X_22_9    PREC_47_22_9  -1
    X_22_9    PREC_53_22_9  -1
    X_22_9    PREC_59_22_9  -1
    X_22_9    PREC_64_22_9  -1
    X_22_9    PREC_75_22_9  -1
    X_22_9    CAP_0_9   41723
    X_22_9    CAP_1_9   5698
    X_23_9    OBJ       -2774903.43982575
    X_23_9    ORD_23_8  -1
    X_23_9    PREC_23_24_9  1
    X_23_9    PREC_23_3_9  1
    X_23_9    PREC_23_18_9  1
    X_23_9    PREC_23_32_9  1
    X_23_9    PREC_23_52_9  1
    X_23_9    PREC_23_9_9  1
    X_23_9    PREC_23_39_9  1
    X_23_9    PREC_23_46_9  1
    X_23_9    PREC_23_60_9  1
    X_23_9    PREC_23_76_9  1
    X_23_9    PREC_23_14_9  1
    X_23_9    PREC_23_67_9  1
    X_23_9    PREC_23_72_9  1
    X_23_9    PREC_23_82_9  1
    X_23_9    PREC_23_70_9  1
    X_23_9    PREC_23_87_9  1
    X_23_9    PREC_23_89_9  1
    X_23_9    CAP_0_9   4763
    X_23_9    CAP_1_9   4763
    X_24_9    OBJ       -9383585.22595151
    X_24_9    ORD_24_8  -1
    X_24_9    PREC_23_24_9  -1
    X_24_9    PREC_24_25_9  1
    X_24_9    PREC_24_4_9  1
    X_24_9    PREC_24_19_9  1
    X_24_9    PREC_24_33_9  1
    X_24_9    PREC_24_53_9  1
    X_24_9    PREC_24_0_9  1
    X_24_9    PREC_24_10_9  1
    X_24_9    PREC_24_40_9  1
    X_24_9    PREC_24_47_9  1
    X_24_9    PREC_24_61_9  1
    X_24_9    PREC_24_77_9  1
    X_24_9    PREC_24_15_9  1
    X_24_9    PREC_24_68_9  1
    X_24_9    PREC_24_73_9  1
    X_24_9    PREC_24_83_9  1
    X_24_9    PREC_24_17_9  1
    X_24_9    PREC_24_71_9  1
    X_24_9    PREC_24_88_9  1
    X_24_9    CAP_0_9   21753
    X_24_9    CAP_1_9   20094
    X_25_9    OBJ       -27809985.3071988
    X_25_9    ORD_25_8  -1
    X_25_9    PREC_24_25_9  -1
    X_25_9    PREC_25_26_9  1
    X_25_9    PREC_25_5_9  1
    X_25_9    PREC_25_20_9  1
    X_25_9    PREC_25_34_9  1
    X_25_9    PREC_25_54_9  1
    X_25_9    PREC_25_1_9  1
    X_25_9    PREC_25_11_9  1
    X_25_9    PREC_25_41_9  1
    X_25_9    PREC_25_48_9  1
    X_25_9    PREC_25_62_9  1
    X_25_9    PREC_25_78_9  1
    X_25_9    PREC_25_16_9  1
    X_25_9    PREC_25_69_9  1
    X_25_9    PREC_25_74_9  1
    X_25_9    PREC_25_84_9  1
    X_25_9    PREC_30_25_9  -1
    X_25_9    PREC_50_25_9  -1
    X_25_9    CAP_0_9   36695
    X_25_9    CAP_1_9   27389
    X_26_9    OBJ       -40035724.7248898
    X_26_9    ORD_26_8  -1
    X_26_9    PREC_25_26_9  -1
    X_26_9    PREC_26_27_9  1
    X_26_9    PREC_26_6_9  1
    X_26_9    PREC_26_21_9  1
    X_26_9    PREC_26_35_9  1
    X_26_9    PREC_26_55_9  1
    X_26_9    PREC_26_2_9  1
    X_26_9    PREC_26_12_9  1
    X_26_9    PREC_26_42_9  1
    X_26_9    PREC_26_49_9  1
    X_26_9    PREC_26_63_9  1
    X_26_9    PREC_26_79_9  1
    X_26_9    PREC_31_26_9  -1
    X_26_9    PREC_51_26_9  -1
    X_26_9    PREC_57_26_9  -1
    X_26_9    CAP_0_9   43534
    X_26_9    CAP_1_9   32478
    X_27_9    OBJ       -13748281.1869531
    X_27_9    ORD_27_8  -1
    X_27_9    PREC_3_27_9  -1
    X_27_9    PREC_18_27_9  -1
    X_27_9    PREC_26_27_9  -1
    X_27_9    PREC_27_28_9  1
    X_27_9    PREC_27_7_9  1
    X_27_9    PREC_27_22_9  1
    X_27_9    PREC_27_36_9  1
    X_27_9    PREC_27_56_9  1
    X_27_9    PREC_32_27_9  -1
    X_27_9    PREC_37_27_9  -1
    X_27_9    PREC_52_27_9  -1
    X_27_9    PREC_58_27_9  -1
    X_27_9    CAP_0_9   42198
    X_27_9    CAP_1_9   23762
    X_28_9    OBJ       -7630189.97692981
    X_28_9    ORD_28_8  -1
    X_28_9    PREC_4_28_9  -1
    X_28_9    PREC_8_28_9  -1
    X_28_9    PREC_19_28_9  -1
    X_28_9    PREC_27_28_9  -1
    X_28_9    PREC_28_29_9  1
    X_28_9    PREC_33_28_9  -1
    X_28_9    PREC_38_28_9  -1
    X_28_9    PREC_45_28_9  -1
    X_28_9    PREC_53_28_9  -1
    X_28_9    PREC_59_28_9  -1
    X_28_9    PREC_64_28_9  -1
    X_28_9    PREC_75_28_9  -1
    X_28_9    CAP_0_9   36014
    X_28_9    CAP_1_9   30935
    X_29_9    OBJ       -4897083.4433066
    X_29_9    ORD_29_8  -1
    X_29_9    PREC_5_29_9  -1
    X_29_9    PREC_9_29_9  -1
    X_29_9    PREC_20_29_9  -1
    X_29_9    PREC_28_29_9  -1
    X_29_9    PREC_34_29_9  -1
    X_29_9    PREC_39_29_9  -1
    X_29_9    PREC_46_29_9  -1
    X_29_9    PREC_54_29_9  -1
    X_29_9    PREC_60_29_9  -1
    X_29_9    PREC_65_29_9  -1
    X_29_9    PREC_76_29_9  -1
    X_29_9    PREC_80_29_9  -1
    X_29_9    CAP_0_9   21258
    X_29_9    CAP_1_9   19875
    X_30_9    OBJ       -6017357.16137457
    X_30_9    ORD_30_8  -1
    X_30_9    PREC_30_31_9  1
    X_30_9    PREC_30_8_9  1
    X_30_9    PREC_30_25_9  1
    X_30_9    PREC_30_38_9  1
    X_30_9    PREC_30_59_9  1
    X_30_9    PREC_30_4_9  1
    X_30_9    PREC_30_13_9  1
    X_30_9    PREC_30_19_9  1
    X_30_9    PREC_30_53_9  1
    X_30_9    PREC_30_66_9  1
    X_30_9    PREC_30_81_9  1
    X_30_9    PREC_30_0_9  1
    X_30_9    PREC_30_47_9  1
    X_30_9    PREC_30_77_9  1
    X_30_9    PREC_30_86_9  1
    X_30_9    PREC_30_73_9  1
    X_30_9    CAP_0_9   8921
    X_30_9    CAP_1_9   8921
    X_31_9    OBJ       -14789315.395847
    X_31_9    ORD_31_8  -1
    X_31_9    PREC_30_31_9  -1
    X_31_9    PREC_31_32_9  1
    X_31_9    PREC_31_9_9  1
    X_31_9    PREC_31_26_9  1
    X_31_9    PREC_31_39_9  1
    X_31_9    PREC_31_60_9  1
    X_31_9    PREC_31_5_9  1
    X_31_9    PREC_31_14_9  1
    X_31_9    PREC_31_20_9  1
    X_31_9    PREC_31_54_9  1
    X_31_9    PREC_31_67_9  1
    X_31_9    PREC_31_82_9  1
    X_31_9    PREC_31_1_9  1
    X_31_9    PREC_31_48_9  1
    X_31_9    PREC_31_70_9  1
    X_31_9    PREC_31_78_9  1
    X_31_9    PREC_31_87_9  1
    X_31_9    PREC_31_74_9  1
    X_31_9    PREC_31_89_9  1
    X_31_9    CAP_0_9   32310
    X_31_9    CAP_1_9   30283
    X_32_9    OBJ       -23548470.4610743
    X_32_9    ORD_32_8  -1
    X_32_9    PREC_23_32_9  -1
    X_32_9    PREC_31_32_9  -1
    X_32_9    PREC_32_33_9  1
    X_32_9    PREC_32_10_9  1
    X_32_9    PREC_32_27_9  1
    X_32_9    PREC_32_40_9  1
    X_32_9    PREC_32_61_9  1
    X_32_9    PREC_32_6_9  1
    X_32_9    PREC_32_15_9  1
    X_32_9    PREC_32_21_9  1
    X_32_9    PREC_32_43_9  1
    X_32_9    PREC_32_55_9  1
    X_32_9    PREC_32_68_9  1
    X_32_9    PREC_32_83_9  1
    X_32_9    PREC_32_2_9  1
    X_32_9    PREC_32_17_9  1
    X_32_9    PREC_32_49_9  1
    X_32_9    PREC_32_71_9  1
    X_32_9    PREC_32_79_9  1
    X_32_9    PREC_32_88_9  1
    X_32_9    PREC_57_32_9  -1
    X_32_9    CAP_0_9   43849
    X_32_9    CAP_1_9   34635
    X_33_9    OBJ       -50147123.2733901
    X_33_9    ORD_33_8  -1
    X_33_9    PREC_24_33_9  -1
    X_33_9    PREC_32_33_9  -1
    X_33_9    PREC_33_34_9  1
    X_33_9    PREC_33_11_9  1
    X_33_9    PREC_33_28_9  1
    X_33_9    PREC_33_41_9  1
    X_33_9    PREC_33_62_9  1
    X_33_9    PREC_33_7_9  1
    X_33_9    PREC_33_16_9  1
    X_33_9    PREC_33_22_9  1
    X_33_9    PREC_33_44_9  1
    X_33_9    PREC_33_56_9  1
    X_33_9    PREC_33_69_9  1
    X_33_9    PREC_33_84_9  1
    X_33_9    PREC_37_33_9  -1
    X_33_9    PREC_50_33_9  -1
    X_33_9    PREC_58_33_9  -1
    X_33_9    CAP_0_9   44009
    X_33_9    CAP_1_9   37283
    X_34_9    OBJ       -5033264.52223276
    X_34_9    ORD_34_8  -1
    X_34_9    PREC_8_34_9  -1
    X_34_9    PREC_25_34_9  -1
    X_34_9    PREC_33_34_9  -1
    X_34_9    PREC_34_35_9  1
    X_34_9    PREC_34_12_9  1
    X_34_9    PREC_34_29_9  1
    X_34_9    PREC_34_42_9  1
    X_34_9    PREC_34_63_9  1
    X_34_9    PREC_38_34_9  -1
    X_34_9    PREC_51_34_9  -1
    X_34_9    PREC_59_34_9  -1
    X_34_9    PREC_64_34_9  -1
    X_34_9    CAP_0_9   38248
    X_34_9    CAP_1_9   15678
    X_35_9    OBJ       322863.361458719
    X_35_9    ORD_35_8  -1
    X_35_9    PREC_3_35_9  -1
    X_35_9    PREC_9_35_9  -1
    X_35_9    PREC_18_35_9  -1
    X_35_9    PREC_26_35_9  -1
    X_35_9    PREC_34_35_9  -1
    X_35_9    PREC_35_36_9  1
    X_35_9    PREC_39_35_9  -1
    X_35_9    PREC_52_35_9  -1
    X_35_9    PREC_60_35_9  -1
    X_35_9    PREC_65_35_9  -1
    X_35_9    PREC_80_35_9  -1
    X_35_9    CAP_0_9   33782
    X_35_9    CAP_1_9   11088
    X_36_9    OBJ       248308.995422437
    X_36_9    ORD_36_8  -1
    X_36_9    PREC_4_36_9  -1
    X_36_9    PREC_10_36_9  -1
    X_36_9    PREC_13_36_9  -1
    X_36_9    PREC_19_36_9  -1
    X_36_9    PREC_27_36_9  -1
    X_36_9    PREC_35_36_9  -1
    X_36_9    PREC_40_36_9  -1
    X_36_9    PREC_45_36_9  -1
    X_36_9    PREC_53_36_9  -1
    X_36_9    PREC_61_36_9  -1
    X_36_9    PREC_66_36_9  -1
    X_36_9    PREC_75_36_9  -1
    X_36_9    PREC_81_36_9  -1
    X_36_9    CAP_0_9   18164
    X_36_9    CAP_1_9   5880
    X_37_9    OBJ       -389134.999610616
    X_37_9    ORD_37_8  -1
    X_37_9    PREC_37_38_9  1
    X_37_9    PREC_37_13_9  1
    X_37_9    PREC_37_33_9  1
    X_37_9    PREC_37_66_9  1
    X_37_9    PREC_37_10_9  1
    X_37_9    PREC_37_27_9  1
    X_37_9    PREC_37_61_9  1
    X_37_9    PREC_37_86_9  1
    X_37_9    PREC_37_6_9  1
    X_37_9    PREC_37_55_9  1
    X_37_9    PREC_37_83_9  1
    X_37_9    PREC_37_2_9  1
    X_37_9    PREC_37_49_9  1
    X_37_9    PREC_37_79_9  1
    X_37_9    CAP_0_9   2042
    X_37_9    CAP_1_9   1028
    X_38_9    OBJ       -983463.03787195
    X_38_9    ORD_38_8  -1
    X_38_9    PREC_30_38_9  -1
    X_38_9    PREC_37_38_9  -1
    X_38_9    PREC_38_39_9  1
    X_38_9    PREC_38_14_9  1
    X_38_9    PREC_38_34_9  1
    X_38_9    PREC_38_67_9  1
    X_38_9    PREC_38_11_9  1
    X_38_9    PREC_38_28_9  1
    X_38_9    PREC_38_62_9  1
    X_38_9    PREC_38_70_9  1
    X_38_9    PREC_38_87_9  1
    X_38_9    PREC_38_7_9  1
    X_38_9    PREC_38_56_9  1
    X_38_9    PREC_38_84_9  1
    X_38_9    PREC_38_89_9  1
    X_38_9    CAP_0_9   9758
    X_38_9    CAP_1_9   2571
    X_39_9    OBJ       -2330613.45383835
    X_39_9    ORD_39_8  -1
    X_39_9    PREC_23_39_9  -1
    X_39_9    PREC_31_39_9  -1
    X_39_9    PREC_38_39_9  -1
    X_39_9    PREC_39_40_9  1
    X_39_9    PREC_39_15_9  1
    X_39_9    PREC_39_35_9  1
    X_39_9    PREC_39_43_9  1
    X_39_9    PREC_39_68_9  1
    X_39_9    PREC_39_12_9  1
    X_39_9    PREC_39_17_9  1
    X_39_9    PREC_39_29_9  1
    X_39_9    PREC_39_63_9  1
    X_39_9    PREC_39_71_9  1
    X_39_9    PREC_39_88_9  1
    X_39_9    PREC_57_39_9  -1
    X_39_9    PREC_64_39_9  -1
    X_39_9    CAP_0_9   22279
    X_39_9    CAP_1_9   5244
    X_40_9    OBJ       1709301.13605658
    X_40_9    ORD_40_8  -1
    X_40_9    PREC_24_40_9  -1
    X_40_9    PREC_32_40_9  -1
    X_40_9    PREC_39_40_9  -1
    X_40_9    PREC_40_41_9  1
    X_40_9    PREC_40_16_9  1
    X_40_9    PREC_40_36_9  1
    X_40_9    PREC_40_44_9  1
    X_40_9    PREC_40_69_9  1
    X_40_9    PREC_50_40_9  -1
    X_40_9    PREC_58_40_9  -1
    X_40_9    PREC_65_40_9  -1
    X_40_9    CAP_0_9   33093
    X_40_9    CAP_1_9   3121
    X_41_9    OBJ       1484405.88671732
    X_41_9    ORD_41_8  -1
    X_41_9    PREC_8_41_9  -1
    X_41_9    PREC_13_41_9  -1
    X_41_9    PREC_25_41_9  -1
    X_41_9    PREC_33_41_9  -1
    X_41_9    PREC_40_41_9  -1
    X_41_9    PREC_41_42_9  1
    X_41_9    PREC_51_41_9  -1
    X_41_9    PREC_59_41_9  -1
    X_41_9    PREC_66_41_9  -1
    X_41_9    CAP_0_9   42369
    X_41_9    CAP_1_9   7125
    X_42_9    OBJ       1208814.80797988
    X_42_9    ORD_42_8  -1
    X_42_9    PREC_3_42_9  -1
    X_42_9    PREC_9_42_9  -1
    X_42_9    PREC_14_42_9  -1
    X_42_9    PREC_26_42_9  -1
    X_42_9    PREC_34_42_9  -1
    X_42_9    PREC_41_42_9  -1
    X_42_9    PREC_52_42_9  -1
    X_42_9    PREC_60_42_9  -1
    X_42_9    PREC_67_42_9  -1
    X_42_9    PREC_80_42_9  -1
    X_42_9    PREC_85_42_9  -1
    X_42_9    CAP_0_9   41057
    X_42_9    CAP_1_9   10976
    X_43_9    OBJ       95462.8736065013
    X_43_9    ORD_43_8  -1
    X_43_9    PREC_32_43_9  -1
    X_43_9    PREC_39_43_9  -1
    X_43_9    PREC_43_44_9  1
    X_43_9    PREC_50_43_9  -1
    X_43_9    PREC_58_43_9  -1
    X_43_9    PREC_65_43_9  -1
    X_43_9    CAP_0_9   1383
    X_44_9    OBJ       672429.477307323
    X_44_9    ORD_44_8  -1
    X_44_9    PREC_8_44_9  -1
    X_44_9    PREC_13_44_9  -1
    X_44_9    PREC_33_44_9  -1
    X_44_9    PREC_40_44_9  -1
    X_44_9    PREC_43_44_9  -1
    X_44_9    PREC_51_44_9  -1
    X_44_9    PREC_59_44_9  -1
    X_44_9    PREC_66_44_9  -1
    X_44_9    CAP_0_9   9951
    X_45_9    OBJ       41290.8312654764
    X_45_9    ORD_45_8  -1
    X_45_9    PREC_45_46_9  1
    X_45_9    PREC_45_20_9  1
    X_45_9    PREC_45_54_9  1
    X_45_9    PREC_45_72_9  1
    X_45_9    PREC_45_1_9  1
    X_45_9    PREC_45_28_9  1
    X_45_9    PREC_45_62_9  1
    X_45_9    PREC_45_78_9  1
    X_45_9    PREC_45_7_9  1
    X_45_9    PREC_45_36_9  1
    X_45_9    PREC_45_84_9  1
    X_45_9    PREC_50_45_9  -1
    X_45_9    CAP_0_9   553
    X_46_9    OBJ       594303.620265316
    X_46_9    ORD_46_8  -1
    X_46_9    PREC_23_46_9  -1
    X_46_9    PREC_45_46_9  -1
    X_46_9    PREC_46_47_9  1
    X_46_9    PREC_46_21_9  1
    X_46_9    PREC_46_55_9  1
    X_46_9    PREC_46_73_9  1
    X_46_9    PREC_46_2_9  1
    X_46_9    PREC_46_29_9  1
    X_46_9    PREC_46_63_9  1
    X_46_9    PREC_46_79_9  1
    X_46_9    PREC_51_46_9  -1
    X_46_9    PREC_57_46_9  -1
    X_46_9    CAP_0_9   8109
    X_47_9    OBJ       1381067.25182673
    X_47_9    ORD_47_8  -1
    X_47_9    PREC_18_47_9  -1
    X_47_9    PREC_24_47_9  -1
    X_47_9    PREC_30_47_9  -1
    X_47_9    PREC_46_47_9  -1
    X_47_9    PREC_47_48_9  1
    X_47_9    PREC_47_22_9  1
    X_47_9    PREC_47_56_9  1
    X_47_9    PREC_47_74_9  1
    X_47_9    PREC_52_47_9  -1
    X_47_9    PREC_58_47_9  -1
    X_47_9    CAP_0_9   20455
    X_47_9    CAP_1_9   553
    X_48_9    OBJ       1810298.51603491
    X_48_9    ORD_48_8  -1
    X_48_9    PREC_19_48_9  -1
    X_48_9    PREC_25_48_9  -1
    X_48_9    PREC_31_48_9  -1
    X_48_9    PREC_47_48_9  -1
    X_48_9    PREC_48_49_9  1
    X_48_9    PREC_53_48_9  -1
    X_48_9    PREC_59_48_9  -1
    X_48_9    PREC_75_48_9  -1
    X_48_9    CAP_0_9   32285
    X_48_9    CAP_1_9   3266
    X_49_9    OBJ       1510457.97333098
    X_49_9    ORD_49_8  -1
    X_49_9    PREC_3_49_9  -1
    X_49_9    PREC_20_49_9  -1
    X_49_9    PREC_26_49_9  -1
    X_49_9    PREC_32_49_9  -1
    X_49_9    PREC_37_49_9  -1
    X_49_9    PREC_48_49_9  -1
    X_49_9    PREC_54_49_9  -1
    X_49_9    PREC_60_49_9  -1
    X_49_9    PREC_72_49_9  -1
    X_49_9    PREC_76_49_9  -1
    X_49_9    PREC_80_49_9  -1
    X_49_9    CAP_0_9   43721
    X_49_9    CAP_1_9   8207
    X_50_9    OBJ       -3039131.29290673
    X_50_9    ORD_50_8  -1
    X_50_9    PREC_50_51_9  1
    X_50_9    PREC_50_25_9  1
    X_50_9    PREC_50_45_9  1
    X_50_9    PREC_50_59_9  1
    X_50_9    PREC_50_75_9  1
    X_50_9    PREC_50_4_9  1
    X_50_9    PREC_50_19_9  1
    X_50_9    PREC_50_33_9  1
    X_50_9    PREC_50_66_9  1
    X_50_9    PREC_50_81_9  1
    X_50_9    PREC_50_0_9  1
    X_50_9    PREC_50_10_9  1
    X_50_9    PREC_50_40_9  1
    X_50_9    PREC_50_86_9  1
    X_50_9    PREC_50_15_9  1
    X_50_9    PREC_50_43_9  1
    X_50_9    PREC_50_17_9  1
    X_50_9    CAP_0_9   5444
    X_50_9    CAP_1_9   5444
    X_51_9    OBJ       -10439358.5681473
    X_51_9    ORD_51_8  -1
    X_51_9    PREC_50_51_9  -1
    X_51_9    PREC_51_52_9  1
    X_51_9    PREC_51_26_9  1
    X_51_9    PREC_51_46_9  1
    X_51_9    PREC_51_60_9  1
    X_51_9    PREC_51_76_9  1
    X_51_9    PREC_51_5_9  1
    X_51_9    PREC_51_20_9  1
    X_51_9    PREC_51_34_9  1
    X_51_9    PREC_51_67_9  1
    X_51_9    PREC_51_72_9  1
    X_51_9    PREC_51_82_9  1
    X_51_9    PREC_51_1_9  1
    X_51_9    PREC_51_11_9  1
    X_51_9    PREC_51_41_9  1
    X_51_9    PREC_51_87_9  1
    X_51_9    PREC_51_16_9  1
    X_51_9    PREC_51_44_9  1
    X_51_9    PREC_51_89_9  1
    X_51_9    CAP_0_9   23475
    X_51_9    CAP_1_9   22370
    X_52_9    OBJ       -31666825.0143845
    X_52_9    ORD_52_8  -1
    X_52_9    PREC_23_52_9  -1
    X_52_9    PREC_51_52_9  -1
    X_52_9    PREC_52_53_9  1
    X_52_9    PREC_52_27_9  1
    X_52_9    PREC_52_47_9  1
    X_52_9    PREC_52_61_9  1
    X_52_9    PREC_52_77_9  1
    X_52_9    PREC_52_6_9  1
    X_52_9    PREC_52_21_9  1
    X_52_9    PREC_52_35_9  1
    X_52_9    PREC_52_68_9  1
    X_52_9    PREC_52_73_9  1
    X_52_9    PREC_52_83_9  1
    X_52_9    PREC_52_2_9  1
    X_52_9    PREC_52_12_9  1
    X_52_9    PREC_52_42_9  1
    X_52_9    PREC_52_88_9  1
    X_52_9    PREC_57_52_9  -1
    X_52_9    CAP_0_9   38471
    X_52_9    CAP_1_9   32298
    X_53_9    OBJ       -63602214.4700643
    X_53_9    ORD_53_8  -1
    X_53_9    PREC_24_53_9  -1
    X_53_9    PREC_30_53_9  -1
    X_53_9    PREC_52_53_9  -1
    X_53_9    PREC_53_54_9  1
    X_53_9    PREC_53_28_9  1
    X_53_9    PREC_53_48_9  1
    X_53_9    PREC_53_62_9  1
    X_53_9    PREC_53_78_9  1
    X_53_9    PREC_53_7_9  1
    X_53_9    PREC_53_22_9  1
    X_53_9    PREC_53_36_9  1
    X_53_9    PREC_53_69_9  1
    X_53_9    PREC_53_74_9  1
    X_53_9    PREC_53_84_9  1
    X_53_9    PREC_58_53_9  -1
    X_53_9    CAP_0_9   43079
    X_53_9    CAP_1_9   37735
    X_54_9    OBJ       -32455823.85015
    X_54_9    ORD_54_8  -1
    X_54_9    PREC_25_54_9  -1
    X_54_9    PREC_31_54_9  -1
    X_54_9    PREC_45_54_9  -1
    X_54_9    PREC_53_54_9  -1
    X_54_9    PREC_54_55_9  1
    X_54_9    PREC_54_29_9  1
    X_54_9    PREC_54_49_9  1
    X_54_9    PREC_54_63_9  1
    X_54_9    PREC_54_79_9  1
    X_54_9    PREC_59_54_9  -1
    X_54_9    PREC_64_54_9  -1
    X_54_9    PREC_75_54_9  -1
    X_54_9    CAP_0_9   41064
    X_54_9    CAP_1_9   38023
    X_55_9    OBJ       -4408383.58615067
    X_55_9    ORD_55_8  -1
    X_55_9    PREC_3_55_9  -1
    X_55_9    PREC_18_55_9  -1
    X_55_9    PREC_26_55_9  -1
    X_55_9    PREC_32_55_9  -1
    X_55_9    PREC_37_55_9  -1
    X_55_9    PREC_46_55_9  -1
    X_55_9    PREC_54_55_9  -1
    X_55_9    PREC_55_56_9  1
    X_55_9    PREC_60_55_9  -1
    X_55_9    PREC_65_55_9  -1
    X_55_9    PREC_76_55_9  -1
    X_55_9    PREC_80_55_9  -1
    X_55_9    CAP_0_9   34218
    X_55_9    CAP_1_9   31303
    X_56_9    OBJ       -2005120.3699654
    X_56_9    ORD_56_8  -1
    X_56_9    PREC_4_56_9  -1
    X_56_9    PREC_8_56_9  -1
    X_56_9    PREC_19_56_9  -1
    X_56_9    PREC_27_56_9  -1
    X_56_9    PREC_33_56_9  -1
    X_56_9    PREC_38_56_9  -1
    X_56_9    PREC_47_56_9  -1
    X_56_9    PREC_55_56_9  -1
    X_56_9    PREC_61_56_9  -1
    X_56_9    PREC_66_56_9  -1
    X_56_9    PREC_77_56_9  -1
    X_56_9    PREC_81_56_9  -1
    X_56_9    CAP_0_9   22893
    X_56_9    CAP_1_9   18643
    X_57_9    OBJ       -5450357.40910698
    X_57_9    ORD_57_8  -1
    X_57_9    PREC_57_58_9  1
    X_57_9    PREC_57_32_9  1
    X_57_9    PREC_57_52_9  1
    X_57_9    PREC_57_65_9  1
    X_57_9    PREC_57_80_9  1
    X_57_9    PREC_57_9_9  1
    X_57_9    PREC_57_26_9  1
    X_57_9    PREC_57_39_9  1
    X_57_9    PREC_57_46_9  1
    X_57_9    PREC_57_76_9  1
    X_57_9    PREC_57_85_9  1
    X_57_9    PREC_57_5_9  1
    X_57_9    PREC_57_14_9  1
    X_57_9    PREC_57_20_9  1
    X_57_9    PREC_57_72_9  1
    X_57_9    PREC_57_1_9  1
    X_57_9    CAP_0_9   9607
    X_57_9    CAP_1_9   9607
    X_58_9    OBJ       -9791480.90705128
    X_58_9    ORD_58_8  -1
    X_58_9    PREC_57_58_9  -1
    X_58_9    PREC_58_59_9  1
    X_58_9    PREC_58_33_9  1
    X_58_9    PREC_58_53_9  1
    X_58_9    PREC_58_66_9  1
    X_58_9    PREC_58_81_9  1
    X_58_9    PREC_58_10_9  1
    X_58_9    PREC_58_27_9  1
    X_58_9    PREC_58_40_9  1
    X_58_9    PREC_58_47_9  1
    X_58_9    PREC_58_77_9  1
    X_58_9    PREC_58_86_9  1
    X_58_9    PREC_58_6_9  1
    X_58_9    PREC_58_15_9  1
    X_58_9    PREC_58_21_9  1
    X_58_9    PREC_58_43_9  1
    X_58_9    PREC_58_73_9  1
    X_58_9    PREC_58_2_9  1
    X_58_9    PREC_58_17_9  1
    X_58_9    CAP_0_9   28863
    X_58_9    CAP_1_9   25454
    X_59_9    OBJ       -22989415.1756286
    X_59_9    ORD_59_8  -1
    X_59_9    PREC_30_59_9  -1
    X_59_9    PREC_50_59_9  -1
    X_59_9    PREC_58_59_9  -1
    X_59_9    PREC_59_60_9  1
    X_59_9    PREC_59_34_9  1
    X_59_9    PREC_59_54_9  1
    X_59_9    PREC_59_67_9  1
    X_59_9    PREC_59_82_9  1
    X_59_9    PREC_59_11_9  1
    X_59_9    PREC_59_28_9  1
    X_59_9    PREC_59_41_9  1
    X_59_9    PREC_59_48_9  1
    X_59_9    PREC_59_70_9  1
    X_59_9    PREC_59_78_9  1
    X_59_9    PREC_59_87_9  1
    X_59_9    PREC_59_7_9  1
    X_59_9    PREC_59_16_9  1
    X_59_9    PREC_59_22_9  1
    X_59_9    PREC_59_44_9  1
    X_59_9    PREC_59_74_9  1
    X_59_9    PREC_59_89_9  1
    X_59_9    CAP_0_9   40277
    X_59_9    CAP_1_9   38803
    X_60_9    OBJ       -42120290.2418585
    X_60_9    ORD_60_8  -1
    X_60_9    PREC_23_60_9  -1
    X_60_9    PREC_31_60_9  -1
    X_60_9    PREC_51_60_9  -1
    X_60_9    PREC_59_60_9  -1
    X_60_9    PREC_60_61_9  1
    X_60_9    PREC_60_35_9  1
    X_60_9    PREC_60_55_9  1
    X_60_9    PREC_60_68_9  1
    X_60_9    PREC_60_83_9  1
    X_60_9    PREC_60_12_9  1
    X_60_9    PREC_60_29_9  1
    X_60_9    PREC_60_42_9  1
    X_60_9    PREC_60_49_9  1
    X_60_9    PREC_60_71_9  1
    X_60_9    PREC_60_79_9  1
    X_60_9    PREC_60_88_9  1
    X_60_9    PREC_64_60_9  -1
    X_60_9    CAP_0_9   41662
    X_60_9    CAP_1_9   41662
    X_61_9    OBJ       -4175939.34576815
    X_61_9    ORD_61_8  -1
    X_61_9    PREC_24_61_9  -1
    X_61_9    PREC_32_61_9  -1
    X_61_9    PREC_37_61_9  -1
    X_61_9    PREC_52_61_9  -1
    X_61_9    PREC_60_61_9  -1
    X_61_9    PREC_61_62_9  1
    X_61_9    PREC_61_36_9  1
    X_61_9    PREC_61_56_9  1
    X_61_9    PREC_61_69_9  1
    X_61_9    PREC_61_84_9  1
    X_61_9    PREC_65_61_9  -1
    X_61_9    PREC_80_61_9  -1
    X_61_9    CAP_0_9   36027
    X_61_9    CAP_1_9   31179
    X_62_9    OBJ       -463075.80364893
    X_62_9    ORD_62_8  -1
    X_62_9    PREC_8_62_9  -1
    X_62_9    PREC_25_62_9  -1
    X_62_9    PREC_33_62_9  -1
    X_62_9    PREC_38_62_9  -1
    X_62_9    PREC_45_62_9  -1
    X_62_9    PREC_53_62_9  -1
    X_62_9    PREC_61_62_9  -1
    X_62_9    PREC_62_63_9  1
    X_62_9    PREC_66_62_9  -1
    X_62_9    PREC_75_62_9  -1
    X_62_9    PREC_81_62_9  -1
    X_62_9    CAP_0_9   33437
    X_62_9    CAP_1_9   16429
    X_63_9    OBJ       290013.256875385
    X_63_9    ORD_63_8  -1
    X_63_9    PREC_3_63_9  -1
    X_63_9    PREC_9_63_9  -1
    X_63_9    PREC_18_63_9  -1
    X_63_9    PREC_26_63_9  -1
    X_63_9    PREC_34_63_9  -1
    X_63_9    PREC_39_63_9  -1
    X_63_9    PREC_46_63_9  -1
    X_63_9    PREC_54_63_9  -1
    X_63_9    PREC_62_63_9  -1
    X_63_9    PREC_67_63_9  -1
    X_63_9    PREC_76_63_9  -1
    X_63_9    PREC_82_63_9  -1
    X_63_9    PREC_85_63_9  -1
    X_63_9    CAP_0_9   15934
    X_63_9    CAP_1_9   5519
    X_64_9    OBJ       -99365.2045190517
    X_64_9    ORD_64_8  -1
    X_64_9    PREC_64_65_9  1
    X_64_9    PREC_64_39_9  1
    X_64_9    PREC_64_60_9  1
    X_64_9    PREC_64_85_9  1
    X_64_9    PREC_64_14_9  1
    X_64_9    PREC_64_34_9  1
    X_64_9    PREC_64_54_9  1
    X_64_9    PREC_64_82_9  1
    X_64_9    PREC_64_11_9  1
    X_64_9    PREC_64_28_9  1
    X_64_9    PREC_64_78_9  1
    X_64_9    PREC_64_7_9  1
    X_64_9    PREC_64_22_9  1
    X_64_9    PREC_64_74_9  1
    X_64_9    CAP_0_9   1281
    X_64_9    CAP_1_9   452
    X_65_9    OBJ       -2072265.3105631
    X_65_9    ORD_65_8  -1
    X_65_9    PREC_57_65_9  -1
    X_65_9    PREC_64_65_9  -1
    X_65_9    PREC_65_66_9  1
    X_65_9    PREC_65_40_9  1
    X_65_9    PREC_65_61_9  1
    X_65_9    PREC_65_86_9  1
    X_65_9    PREC_65_15_9  1
    X_65_9    PREC_65_35_9  1
    X_65_9    PREC_65_43_9  1
    X_65_9    PREC_65_55_9  1
    X_65_9    PREC_65_83_9  1
    X_65_9    PREC_65_12_9  1
    X_65_9    PREC_65_17_9  1
    X_65_9    PREC_65_29_9  1
    X_65_9    PREC_65_79_9  1
    X_65_9    CAP_0_9   7365
    X_65_9    CAP_1_9   3772
    X_66_9    OBJ       -9417893.46792447
    X_66_9    ORD_66_8  -1
    X_66_9    PREC_30_66_9  -1
    X_66_9    PREC_37_66_9  -1
    X_66_9    PREC_50_66_9  -1
    X_66_9    PREC_58_66_9  -1
    X_66_9    PREC_65_66_9  -1
    X_66_9    PREC_66_67_9  1
    X_66_9    PREC_66_41_9  1
    X_66_9    PREC_66_62_9  1
    X_66_9    PREC_66_70_9  1
    X_66_9    PREC_66_87_9  1
    X_66_9    PREC_66_16_9  1
    X_66_9    PREC_66_36_9  1
    X_66_9    PREC_66_44_9  1
    X_66_9    PREC_66_56_9  1
    X_66_9    PREC_66_84_9  1
    X_66_9    PREC_66_89_9  1
    X_66_9    CAP_0_9   19563
    X_66_9    CAP_1_9   16431
    X_67_9    OBJ       -2787444.714094
    X_67_9    ORD_67_8  -1
    X_67_9    PREC_23_67_9  -1
    X_67_9    PREC_31_67_9  -1
    X_67_9    PREC_38_67_9  -1
    X_67_9    PREC_51_67_9  -1
    X_67_9    PREC_59_67_9  -1
    X_67_9    PREC_66_67_9  -1
    X_67_9    PREC_67_68_9  1
    X_67_9    PREC_67_42_9  1
    X_67_9    PREC_67_63_9  1
    X_67_9    PREC_67_71_9  1
    X_67_9    PREC_67_88_9  1
    X_67_9    CAP_0_9   27348
    X_67_9    CAP_1_9   18823
    X_68_9    OBJ       -1522619.57170037
    X_68_9    ORD_68_8  -1
    X_68_9    PREC_24_68_9  -1
    X_68_9    PREC_32_68_9  -1
    X_68_9    PREC_39_68_9  -1
    X_68_9    PREC_52_68_9  -1
    X_68_9    PREC_60_68_9  -1
    X_68_9    PREC_67_68_9  -1
    X_68_9    PREC_68_69_9  1
    X_68_9    PREC_80_68_9  -1
    X_68_9    PREC_85_68_9  -1
    X_68_9    CAP_0_9   37161
    X_68_9    CAP_1_9   19673
    X_69_9    OBJ       655912.139354238
    X_69_9    ORD_69_8  -1
    X_69_9    PREC_8_69_9  -1
    X_69_9    PREC_13_69_9  -1
    X_69_9    PREC_25_69_9  -1
    X_69_9    PREC_33_69_9  -1
    X_69_9    PREC_40_69_9  -1
    X_69_9    PREC_53_69_9  -1
    X_69_9    PREC_61_69_9  -1
    X_69_9    PREC_68_69_9  -1
    X_69_9    PREC_75_69_9  -1
    X_69_9    PREC_81_69_9  -1
    X_69_9    PREC_86_69_9  -1
    X_69_9    CAP_0_9   34991
    X_69_9    CAP_1_9   12135
    X_70_9    OBJ       63612.4705071759
    X_70_9    ORD_70_8  -1
    X_70_9    PREC_23_70_9  -1
    X_70_9    PREC_31_70_9  -1
    X_70_9    PREC_38_70_9  -1
    X_70_9    PREC_59_70_9  -1
    X_70_9    PREC_66_70_9  -1
    X_70_9    PREC_70_71_9  1
    X_70_9    CAP_0_9   922
    X_71_9    OBJ       641020.513273254
    X_71_9    ORD_71_8  -1
    X_71_9    PREC_24_71_9  -1
    X_71_9    PREC_32_71_9  -1
    X_71_9    PREC_39_71_9  -1
    X_71_9    PREC_60_71_9  -1
    X_71_9    PREC_67_71_9  -1
    X_71_9    PREC_70_71_9  -1
    X_71_9    PREC_80_71_9  -1
    X_71_9    PREC_85_71_9  -1
    X_71_9    CAP_0_9   9491
    X_72_9    OBJ       26159.8130666748
    X_72_9    ORD_72_8  -1
    X_72_9    PREC_23_72_9  -1
    X_72_9    PREC_45_72_9  -1
    X_72_9    PREC_51_72_9  -1
    X_72_9    PREC_57_72_9  -1
    X_72_9    PREC_72_73_9  1
    X_72_9    PREC_72_49_9  1
    X_72_9    PREC_72_79_9  1
    X_72_9    PREC_75_72_9  -1
    X_72_9    CAP_0_9   369
    X_73_9    OBJ       332663.59597795
    X_73_9    ORD_73_8  -1
    X_73_9    PREC_18_73_9  -1
    X_73_9    PREC_24_73_9  -1
    X_73_9    PREC_30_73_9  -1
    X_73_9    PREC_46_73_9  -1
    X_73_9    PREC_52_73_9  -1
    X_73_9    PREC_58_73_9  -1
    X_73_9    PREC_72_73_9  -1
    X_73_9    PREC_73_74_9  1
    X_73_9    PREC_76_73_9  -1
    X_73_9    PREC_80_73_9  -1
    X_73_9    CAP_0_9   4792
    X_74_9    OBJ       1009372.20739127
    X_74_9    ORD_74_8  -1
    X_74_9    PREC_19_74_9  -1
    X_74_9    PREC_25_74_9  -1
    X_74_9    PREC_31_74_9  -1
    X_74_9    PREC_47_74_9  -1
    X_74_9    PREC_53_74_9  -1
    X_74_9    PREC_59_74_9  -1
    X_74_9    PREC_64_74_9  -1
    X_74_9    PREC_73_74_9  -1
    X_74_9    PREC_77_74_9  -1
    X_74_9    PREC_81_74_9  -1
    X_74_9    CAP_0_9   14927
    X_75_9    OBJ       41290.8312654764
    X_75_9    ORD_75_8  -1
    X_75_9    PREC_50_75_9  -1
    X_75_9    PREC_75_76_9  1
    X_75_9    PREC_75_54_9  1
    X_75_9    PREC_75_72_9  1
    X_75_9    PREC_75_82_9  1
    X_75_9    PREC_75_28_9  1
    X_75_9    PREC_75_48_9  1
    X_75_9    PREC_75_62_9  1
    X_75_9    PREC_75_87_9  1
    X_75_9    PREC_75_22_9  1
    X_75_9    PREC_75_36_9  1
    X_75_9    PREC_75_69_9  1
    X_75_9    CAP_0_9   553
    X_76_9    OBJ       291815.640130437
    X_76_9    ORD_76_8  -1
    X_76_9    PREC_23_76_9  -1
    X_76_9    PREC_51_76_9  -1
    X_76_9    PREC_57_76_9  -1
    X_76_9    PREC_75_76_9  -1
    X_76_9    PREC_76_77_9  1
    X_76_9    PREC_76_55_9  1
    X_76_9    PREC_76_73_9  1
    X_76_9    PREC_76_83_9  1
    X_76_9    PREC_76_29_9  1
    X_76_9    PREC_76_49_9  1
    X_76_9    PREC_76_63_9  1
    X_76_9    PREC_76_88_9  1
    X_76_9    CAP_0_9   7464
    X_76_9    CAP_1_9   185
    X_77_9    OBJ       839939.32390808
    X_77_9    ORD_77_8  -1
    X_77_9    PREC_24_77_9  -1
    X_77_9    PREC_30_77_9  -1
    X_77_9    PREC_52_77_9  -1
    X_77_9    PREC_58_77_9  -1
    X_77_9    PREC_76_77_9  -1
    X_77_9    PREC_77_78_9  1
    X_77_9    PREC_77_56_9  1
    X_77_9    PREC_77_74_9  1
    X_77_9    PREC_77_84_9  1
    X_77_9    PREC_80_77_9  -1
    X_77_9    CAP_0_9   19341
    X_77_9    CAP_1_9   1467
    X_78_9    OBJ       1377382.04956504
    X_78_9    ORD_78_8  -1
    X_78_9    PREC_25_78_9  -1
    X_78_9    PREC_31_78_9  -1
    X_78_9    PREC_45_78_9  -1
    X_78_9    PREC_53_78_9  -1
    X_78_9    PREC_59_78_9  -1
    X_78_9    PREC_64_78_9  -1
    X_78_9    PREC_77_78_9  -1
    X_78_9    PREC_78_79_9  1
    X_78_9    PREC_81_78_9  -1
    X_78_9    CAP_0_9   31059
    X_78_9    CAP_1_9   4301
    X_79_9    OBJ       2359769.49865163
    X_79_9    ORD_79_8  -1
    X_79_9    PREC_18_79_9  -1
    X_79_9    PREC_26_79_9  -1
    X_79_9    PREC_32_79_9  -1
    X_79_9    PREC_37_79_9  -1
    X_79_9    PREC_46_79_9  -1
    X_79_9    PREC_54_79_9  -1
    X_79_9    PREC_60_79_9  -1
    X_79_9    PREC_65_79_9  -1
    X_79_9    PREC_72_79_9  -1
    X_79_9    PREC_78_79_9  -1
    X_79_9    PREC_82_79_9  -1
    X_79_9    PREC_85_79_9  -1
    X_79_9    CAP_0_9   41061
    X_79_9    CAP_1_9   2568
    X_80_9    OBJ       41290.8312654764
    X_80_9    ORD_80_8  -1
    X_80_9    PREC_57_80_9  -1
    X_80_9    PREC_80_81_9  1
    X_80_9    PREC_80_61_9  1
    X_80_9    PREC_80_77_9  1
    X_80_9    PREC_80_86_9  1
    X_80_9    PREC_80_35_9  1
    X_80_9    PREC_80_55_9  1
    X_80_9    PREC_80_68_9  1
    X_80_9    PREC_80_73_9  1
    X_80_9    PREC_80_29_9  1
    X_80_9    PREC_80_42_9  1
    X_80_9    PREC_80_49_9  1
    X_80_9    PREC_80_71_9  1
    X_80_9    CAP_0_9   553
    X_81_9    OBJ       -3766035.16479988
    X_81_9    ORD_81_8  -1
    X_81_9    PREC_30_81_9  -1
    X_81_9    PREC_50_81_9  -1
    X_81_9    PREC_58_81_9  -1
    X_81_9    PREC_80_81_9  -1
    X_81_9    PREC_81_82_9  1
    X_81_9    PREC_81_62_9  1
    X_81_9    PREC_81_78_9  1
    X_81_9    PREC_81_87_9  1
    X_81_9    PREC_81_36_9  1
    X_81_9    PREC_81_56_9  1
    X_81_9    PREC_81_69_9  1
    X_81_9    PREC_81_74_9  1
    X_81_9    PREC_81_89_9  1
    X_81_9    CAP_0_9   8246
    X_81_9    CAP_1_9   4008
    X_82_9    OBJ       65645.6277638038
    X_82_9    ORD_82_8  -1
    X_82_9    PREC_23_82_9  -1
    X_82_9    PREC_31_82_9  -1
    X_82_9    PREC_51_82_9  -1
    X_82_9    PREC_59_82_9  -1
    X_82_9    PREC_64_82_9  -1
    X_82_9    PREC_75_82_9  -1
    X_82_9    PREC_81_82_9  -1
    X_82_9    PREC_82_83_9  1
    X_82_9    PREC_82_63_9  1
    X_82_9    PREC_82_79_9  1
    X_82_9    PREC_82_88_9  1
    X_82_9    CAP_0_9   19228
    X_82_9    CAP_1_9   5738
    X_83_9    OBJ       644375.593804473
    X_83_9    ORD_83_8  -1
    X_83_9    PREC_24_83_9  -1
    X_83_9    PREC_32_83_9  -1
    X_83_9    PREC_37_83_9  -1
    X_83_9    PREC_52_83_9  -1
    X_83_9    PREC_60_83_9  -1
    X_83_9    PREC_65_83_9  -1
    X_83_9    PREC_76_83_9  -1
    X_83_9    PREC_82_83_9  -1
    X_83_9    PREC_83_84_9  1
    X_83_9    PREC_85_83_9  -1
    X_83_9    CAP_0_9   29026
    X_83_9    CAP_1_9   8309
    X_84_9    OBJ       665078.702937605
    X_84_9    ORD_84_8  -1
    X_84_9    PREC_25_84_9  -1
    X_84_9    PREC_33_84_9  -1
    X_84_9    PREC_38_84_9  -1
    X_84_9    PREC_45_84_9  -1
    X_84_9    PREC_53_84_9  -1
    X_84_9    PREC_61_84_9  -1
    X_84_9    PREC_66_84_9  -1
    X_84_9    PREC_77_84_9  -1
    X_84_9    PREC_83_84_9  -1
    X_84_9    PREC_86_84_9  -1
    X_84_9    CAP_0_9   36137
    X_84_9    CAP_1_9   9257
    X_85_9    OBJ       -529987.097539637
    X_85_9    ORD_85_8  -1
    X_85_9    PREC_57_85_9  -1
    X_85_9    PREC_64_85_9  -1
    X_85_9    PREC_85_86_9  1
    X_85_9    PREC_85_68_9  1
    X_85_9    PREC_85_83_9  1
    X_85_9    PREC_85_42_9  1
    X_85_9    PREC_85_63_9  1
    X_85_9    PREC_85_71_9  1
    X_85_9    PREC_85_79_9  1
    X_85_9    CAP_0_9   1437
    X_85_9    CAP_1_9   1068
    X_86_9    OBJ       104605.019193851
    X_86_9    ORD_86_8  -1
    X_86_9    PREC_30_86_9  -1
    X_86_9    PREC_37_86_9  -1
    X_86_9    PREC_50_86_9  -1
    X_86_9    PREC_58_86_9  -1
    X_86_9    PREC_65_86_9  -1
    X_86_9    PREC_80_86_9  -1
    X_86_9    PREC_85_86_9  -1
    X_86_9    PREC_86_87_9  1
    X_86_9    PREC_86_69_9  1
    X_86_9    PREC_86_84_9  1
    X_86_9    PREC_86_89_9  1
    X_86_9    CAP_0_9   6507
    X_86_9    CAP_1_9   2419
    X_87_9    OBJ       819374.822811164
    X_87_9    ORD_87_8  -1
    X_87_9    PREC_23_87_9  -1
    X_87_9    PREC_31_87_9  -1
    X_87_9    PREC_38_87_9  -1
    X_87_9    PREC_51_87_9  -1
    X_87_9    PREC_59_87_9  -1
    X_87_9    PREC_66_87_9  -1
    X_87_9    PREC_75_87_9  -1
    X_87_9    PREC_81_87_9  -1
    X_87_9    PREC_86_87_9  -1
    X_87_9    PREC_87_88_9  1
    X_87_9    CAP_0_9   17312
    X_87_9    CAP_1_9   3049
    X_88_9    OBJ       1768426.68009949
    X_88_9    ORD_88_8  -1
    X_88_9    PREC_24_88_9  -1
    X_88_9    PREC_32_88_9  -1
    X_88_9    PREC_39_88_9  -1
    X_88_9    PREC_52_88_9  -1
    X_88_9    PREC_60_88_9  -1
    X_88_9    PREC_67_88_9  -1
    X_88_9    PREC_76_88_9  -1
    X_88_9    PREC_82_88_9  -1
    X_88_9    PREC_87_88_9  -1
    X_88_9    CAP_0_9   30320
    X_88_9    CAP_1_9   2188
    X_89_9    OBJ       49540.0442533653
    X_89_9    ORD_89_8  -1
    X_89_9    PREC_23_89_9  -1
    X_89_9    PREC_31_89_9  -1
    X_89_9    PREC_38_89_9  -1
    X_89_9    PREC_51_89_9  -1
    X_89_9    PREC_59_89_9  -1
    X_89_9    PREC_66_89_9  -1
    X_89_9    PREC_81_89_9  -1
    X_89_9    PREC_86_89_9  -1
    X_89_9    CAP_0_9   738
    C760      R4100     -1
    C760      CAP_0_1   -1
    C761      R4101     -1
    C761      CAP_0_2   -1
    C761      CAP_0_1   1
    C762      R4102     -1
    C762      CAP_0_3   -1
    C762      CAP_0_2   1
    C763      R4103     -1
    C763      CAP_0_4   -1
    C763      CAP_0_3   1
    C764      R4104     -1
    C764      CAP_0_5   -1
    C764      CAP_0_4   1
    C765      R4105     -1
    C765      CAP_0_6   -1
    C765      CAP_0_5   1
    C766      R4106     -1
    C766      CAP_0_7   -1
    C766      CAP_0_6   1
    C767      R4107     -1
    C767      CAP_0_8   -1
    C767      CAP_0_7   1
    C768      R4108     -1
    C768      CAP_0_9   -1
    C768      CAP_0_8   1
    C769      R4109     -1
    C769      CAP_1_1   -1
    C770      R4110     -1
    C770      CAP_1_2   -1
    C770      CAP_1_1   1
    C771      R4111     -1
    C771      CAP_1_3   -1
    C771      CAP_1_2   1
    C772      R4112     -1
    C772      CAP_1_4   -1
    C772      CAP_1_3   1
    C773      R4113     -1
    C773      CAP_1_5   -1
    C773      CAP_1_4   1
    C774      R4114     -1
    C774      CAP_1_6   -1
    C774      CAP_1_5   1
    C775      R4115     -1
    C775      CAP_1_7   -1
    C775      CAP_1_6   1
    C776      R4116     -1
    C776      CAP_1_8   -1
    C776      CAP_1_7   1
    C777      R4117     -1
    C777      CAP_1_9   -1
    C777      CAP_1_8   1
    MARKER    'MARKER'                 'INTEND'
RHS
    RHS1      CAP_0_1   200000
    RHS1      CAP_0_2   200000
    RHS1      CAP_0_3   200000
    RHS1      CAP_0_4   200000
    RHS1      CAP_0_5   200000
    RHS1      CAP_0_6   200000
    RHS1      CAP_0_7   200000
    RHS1      CAP_0_8   200000
    RHS1      CAP_0_9   200000
    RHS1      CAP_1_1   100000
    RHS1      CAP_1_2   100000
    RHS1      CAP_1_3   100000
    RHS1      CAP_1_4   100000
    RHS1      CAP_1_5   100000
    RHS1      CAP_1_6   100000
    RHS1      CAP_1_7   100000
    RHS1      CAP_1_8   100000
    RHS1      CAP_1_9   100000
BOUNDS
 BV BND1      X_0_0   
 BV BND1      X_1_0   
 BV BND1      X_2_0   
 BV BND1      X_5_0   
 BV BND1      X_6_0   
 BV BND1      X_7_0   
 BV BND1      X_10_0  
 BV BND1      X_11_0  
 BV BND1      X_12_0  
 BV BND1      X_14_0  
 BV BND1      X_15_0  
 BV BND1      X_16_0  
 BV BND1      X_17_0  
 BV BND1      X_20_0  
 BV BND1      X_21_0  
 BV BND1      X_22_0  
 BV BND1      X_28_0  
 BV BND1      X_29_0  
 BV BND1      X_35_0  
 BV BND1      X_36_0  
 BV BND1      X_41_0  
 BV BND1      X_42_0  
 BV BND1      X_43_0  
 BV BND1      X_44_0  
 BV BND1      X_47_0  
 BV BND1      X_48_0  
 BV BND1      X_49_0  
 BV BND1      X_55_0  
 BV BND1      X_56_0  
 BV BND1      X_61_0  
 BV BND1      X_62_0  
 BV BND1      X_63_0  
 BV BND1      X_67_0  
 BV BND1      X_68_0  
 BV BND1      X_69_0  
 BV BND1      X_70_0  
 BV BND1      X_71_0  
 BV BND1      X_72_0  
 BV BND1      X_73_0  
 BV BND1      X_74_0  
 BV BND1      X_77_0  
 BV BND1      X_78_0  
 BV BND1      X_79_0  
 BV BND1      X_82_0  
 BV BND1      X_83_0  
 BV BND1      X_84_0  
 BV BND1      X_86_0  
 BV BND1      X_87_0  
 BV BND1      X_88_0  
 BV BND1      X_89_0  
 BV BND1      X_0_1   
 BV BND1      X_1_1   
 BV BND1      X_2_1   
 BV BND1      X_4_1   
 BV BND1      X_5_1   
 BV BND1      X_6_1   
 BV BND1      X_7_1   
 BV BND1      X_9_1   
 BV BND1      X_10_1  
 BV BND1      X_11_1  
 BV BND1      X_12_1  
 BV BND1      X_13_1  
 BV BND1      X_14_1  
 BV BND1      X_15_1  
 BV BND1      X_16_1  
 BV BND1      X_17_1  
 BV BND1      X_19_1  
 BV BND1      X_20_1  
 BV BND1      X_21_1  
 BV BND1      X_22_1  
 BV BND1      X_27_1  
 BV BND1      X_28_1  
 BV BND1      X_29_1  
 BV BND1      X_34_1  
 BV BND1      X_35_1  
 BV BND1      X_36_1  
 BV BND1      X_40_1  
 BV BND1      X_41_1  
 BV BND1      X_42_1  
 BV BND1      X_43_1  
 BV BND1      X_44_1  
 BV BND1      X_46_1  
 BV BND1      X_47_1  
 BV BND1      X_48_1  
 BV BND1      X_49_1  
 BV BND1      X_54_1  
 BV BND1      X_55_1  
 BV BND1      X_56_1  
 BV BND1      X_61_1  
 BV BND1      X_62_1  
 BV BND1      X_63_1  
 BV BND1      X_67_1  
 BV BND1      X_68_1  
 BV BND1      X_69_1  
 BV BND1      X_70_1  
 BV BND1      X_71_1  
 BV BND1      X_72_1  
 BV BND1      X_73_1  
 BV BND1      X_74_1  
 BV BND1      X_76_1  
 BV BND1      X_77_1  
 BV BND1      X_78_1  
 BV BND1      X_79_1  
 BV BND1      X_81_1  
 BV BND1      X_82_1  
 BV BND1      X_83_1  
 BV BND1      X_84_1  
 BV BND1      X_85_1  
 BV BND1      X_86_1  
 BV BND1      X_87_1  
 BV BND1      X_88_1  
 BV BND1      X_89_1  
 BV BND1      X_0_2   
 BV BND1      X_1_2   
 BV BND1      X_2_2   
 BV BND1      X_4_2   
 BV BND1      X_5_2   
 BV BND1      X_6_2   
 BV BND1      X_7_2   
 BV BND1      X_9_2   
 BV BND1      X_10_2  
 BV BND1      X_11_2  
 BV BND1      X_12_2  
 BV BND1      X_13_2  
 BV BND1      X_14_2  
 BV BND1      X_15_2  
 BV BND1      X_16_2  
 BV BND1      X_17_2  
 BV BND1      X_19_2  
 BV BND1      X_20_2  
 BV BND1      X_21_2  
 BV BND1      X_22_2  
 BV BND1      X_26_2  
 BV BND1      X_27_2  
 BV BND1      X_28_2  
 BV BND1      X_29_2  
 BV BND1      X_34_2  
 BV BND1      X_35_2  
 BV BND1      X_36_2  
 BV BND1      X_39_2  
 BV BND1      X_40_2  
 BV BND1      X_41_2  
 BV BND1      X_42_2  
 BV BND1      X_43_2  
 BV BND1      X_44_2  
 BV BND1      X_46_2  
 BV BND1      X_47_2  
 BV BND1      X_48_2  
 BV BND1      X_49_2  
 BV BND1      X_53_2  
 BV BND1      X_54_2  
 BV BND1      X_55_2  
 BV BND1      X_56_2  
 BV BND1      X_61_2  
 BV BND1      X_62_2  
 BV BND1      X_63_2  
 BV BND1      X_66_2  
 BV BND1      X_67_2  
 BV BND1      X_68_2  
 BV BND1      X_69_2  
 BV BND1      X_70_2  
 BV BND1      X_71_2  
 BV BND1      X_72_2  
 BV BND1      X_73_2  
 BV BND1      X_74_2  
 BV BND1      X_76_2  
 BV BND1      X_77_2  
 BV BND1      X_78_2  
 BV BND1      X_79_2  
 BV BND1      X_81_2  
 BV BND1      X_82_2  
 BV BND1      X_83_2  
 BV BND1      X_84_2  
 BV BND1      X_85_2  
 BV BND1      X_86_2  
 BV BND1      X_87_2  
 BV BND1      X_88_2  
 BV BND1      X_89_2  
 BV BND1      X_0_3   
 BV BND1      X_1_3   
 BV BND1      X_2_3   
 BV BND1      X_3_3   
 BV BND1      X_4_3   
 BV BND1      X_5_3   
 BV BND1      X_6_3   
 BV BND1      X_7_3   
 BV BND1      X_8_3   
 BV BND1      X_9_3   
 BV BND1      X_10_3  
 BV BND1      X_11_3  
 BV BND1      X_12_3  
 BV BND1      X_13_3  
 BV BND1      X_14_3  
 BV BND1      X_15_3  
 BV BND1      X_16_3  
 BV BND1      X_17_3  
 BV BND1      X_18_3  
 BV BND1      X_19_3  
 BV BND1      X_20_3  
 BV BND1      X_21_3  
 BV BND1      X_22_3  
 BV BND1      X_26_3  
 BV BND1      X_27_3  
 BV BND1      X_28_3  
 BV BND1      X_29_3  
 BV BND1      X_33_3  
 BV BND1      X_34_3  
 BV BND1      X_35_3  
 BV BND1      X_36_3  
 BV BND1      X_38_3  
 BV BND1      X_39_3  
 BV BND1      X_40_3  
 BV BND1      X_41_3  
 BV BND1      X_42_3  
 BV BND1      X_43_3  
 BV BND1      X_44_3  
 BV BND1      X_45_3  
 BV BND1      X_46_3  
 BV BND1      X_47_3  
 BV BND1      X_48_3  
 BV BND1      X_49_3  
 BV BND1      X_53_3  
 BV BND1      X_54_3  
 BV BND1      X_55_3  
 BV BND1      X_56_3  
 BV BND1      X_60_3  
 BV BND1      X_61_3  
 BV BND1      X_62_3  
 BV BND1      X_63_3  
 BV BND1      X_65_3  
 BV BND1      X_66_3  
 BV BND1      X_67_3  
 BV BND1      X_68_3  
 BV BND1      X_69_3  
 BV BND1      X_70_3  
 BV BND1      X_71_3  
 BV BND1      X_72_3  
 BV BND1      X_73_3  
 BV BND1      X_74_3  
 BV BND1      X_75_3  
 BV BND1      X_76_3  
 BV BND1      X_77_3  
 BV BND1      X_78_3  
 BV BND1      X_79_3  
 BV BND1      X_80_3  
 BV BND1      X_81_3  
 BV BND1      X_82_3  
 BV BND1      X_83_3  
 BV BND1      X_84_3  
 BV BND1      X_85_3  
 BV BND1      X_86_3  
 BV BND1      X_87_3  
 BV BND1      X_88_3  
 BV BND1      X_89_3  
 BV BND1      X_0_4   
 BV BND1      X_1_4   
 BV BND1      X_2_4   
 BV BND1      X_3_4   
 BV BND1      X_4_4   
 BV BND1      X_5_4   
 BV BND1      X_6_4   
 BV BND1      X_7_4   
 BV BND1      X_8_4   
 BV BND1      X_9_4   
 BV BND1      X_10_4  
 BV BND1      X_11_4  
 BV BND1      X_12_4  
 BV BND1      X_13_4  
 BV BND1      X_14_4  
 BV BND1      X_15_4  
 BV BND1      X_16_4  
 BV BND1      X_17_4  
 BV BND1      X_18_4  
 BV BND1      X_19_4  
 BV BND1      X_20_4  
 BV BND1      X_21_4  
 BV BND1      X_22_4  
 BV BND1      X_26_4  
 BV BND1      X_27_4  
 BV BND1      X_28_4  
 BV BND1      X_29_4  
 BV BND1      X_33_4  
 BV BND1      X_34_4  
 BV BND1      X_35_4  
 BV BND1      X_36_4  
 BV BND1      X_38_4  
 BV BND1      X_39_4  
 BV BND1      X_40_4  
 BV BND1      X_41_4  
 BV BND1      X_42_4  
 BV BND1      X_43_4  
 BV BND1      X_44_4  
 BV BND1      X_45_4  
 BV BND1      X_46_4  
 BV BND1      X_47_4  
 BV BND1      X_48_4  
 BV BND1      X_49_4  
 BV BND1      X_53_4  
 BV BND1      X_54_4  
 BV BND1      X_55_4  
 BV BND1      X_56_4  
 BV BND1      X_60_4  
 BV BND1      X_61_4  
 BV BND1      X_62_4  
 BV BND1      X_63_4  
 BV BND1      X_65_4  
 BV BND1      X_66_4  
 BV BND1      X_67_4  
 BV BND1      X_68_4  
 BV BND1      X_69_4  
 BV BND1      X_70_4  
 BV BND1      X_71_4  
 BV BND1      X_72_4  
 BV BND1      X_73_4  
 BV BND1      X_74_4  
 BV BND1      X_75_4  
 BV BND1      X_76_4  
 BV BND1      X_77_4  
 BV BND1      X_78_4  
 BV BND1      X_79_4  
 BV BND1      X_80_4  
 BV BND1      X_81_4  
 BV BND1      X_82_4  
 BV BND1      X_83_4  
 BV BND1      X_84_4  
 BV BND1      X_85_4  
 BV BND1      X_86_4  
 BV BND1      X_87_4  
 BV BND1      X_88_4  
 BV BND1      X_89_4  
 BV BND1      X_0_5   
 BV BND1      X_1_5   
 BV BND1      X_2_5   
 BV BND1      X_3_5   
 BV BND1      X_4_5   
 BV BND1      X_5_5   
 BV BND1      X_6_5   
 BV BND1      X_7_5   
 BV BND1      X_8_5   
 BV BND1      X_9_5   
 BV BND1      X_10_5  
 BV BND1      X_11_5  
 BV BND1      X_12_5  
 BV BND1      X_13_5  
 BV BND1      X_14_5  
 BV BND1      X_15_5  
 BV BND1      X_16_5  
 BV BND1      X_17_5  
 BV BND1      X_18_5  
 BV BND1      X_19_5  
 BV BND1      X_20_5  
 BV BND1      X_21_5  
 BV BND1      X_22_5  
 BV BND1      X_25_5  
 BV BND1      X_26_5  
 BV BND1      X_27_5  
 BV BND1      X_28_5  
 BV BND1      X_29_5  
 BV BND1      X_32_5  
 BV BND1      X_33_5  
 BV BND1      X_34_5  
 BV BND1      X_35_5  
 BV BND1      X_36_5  
 BV BND1      X_37_5  
 BV BND1      X_38_5  
 BV BND1      X_39_5  
 BV BND1      X_40_5  
 BV BND1      X_41_5  
 BV BND1      X_42_5  
 BV BND1      X_43_5  
 BV BND1      X_44_5  
 BV BND1      X_45_5  
 BV BND1      X_46_5  
 BV BND1      X_47_5  
 BV BND1      X_48_5  
 BV BND1      X_49_5  
 BV BND1      X_52_5  
 BV BND1      X_53_5  
 BV BND1      X_54_5  
 BV BND1      X_55_5  
 BV BND1      X_56_5  
 BV BND1      X_59_5  
 BV BND1      X_60_5  
 BV BND1      X_61_5  
 BV BND1      X_62_5  
 BV BND1      X_63_5  
 BV BND1      X_64_5  
 BV BND1      X_65_5  
 BV BND1      X_66_5  
 BV BND1      X_67_5  
 BV BND1      X_68_5  
 BV BND1      X_69_5  
 BV BND1      X_70_5  
 BV BND1      X_71_5  
 BV BND1      X_72_5  
 BV BND1      X_73_5  
 BV BND1      X_74_5  
 BV BND1      X_75_5  
 BV BND1      X_76_5  
 BV BND1      X_77_5  
 BV BND1      X_78_5  
 BV BND1      X_79_5  
 BV BND1      X_80_5  
 BV BND1      X_81_5  
 BV BND1      X_82_5  
 BV BND1      X_83_5  
 BV BND1      X_84_5  
 BV BND1      X_85_5  
 BV BND1      X_86_5  
 BV BND1      X_87_5  
 BV BND1      X_88_5  
 BV BND1      X_89_5  
 BV BND1      X_0_6   
 BV BND1      X_1_6   
 BV BND1      X_2_6   
 BV BND1      X_3_6   
 BV BND1      X_4_6   
 BV BND1      X_5_6   
 BV BND1      X_6_6   
 BV BND1      X_7_6   
 BV BND1      X_8_6   
 BV BND1      X_9_6   
 BV BND1      X_10_6  
 BV BND1      X_11_6  
 BV BND1      X_12_6  
 BV BND1      X_13_6  
 BV BND1      X_14_6  
 BV BND1      X_15_6  
 BV BND1      X_16_6  
 BV BND1      X_17_6  
 BV BND1      X_18_6  
 BV BND1      X_19_6  
 BV BND1      X_20_6  
 BV BND1      X_21_6  
 BV BND1      X_22_6  
 BV BND1      X_25_6  
 BV BND1      X_26_6  
 BV BND1      X_27_6  
 BV BND1      X_28_6  
 BV BND1      X_29_6  
 BV BND1      X_32_6  
 BV BND1      X_33_6  
 BV BND1      X_34_6  
 BV BND1      X_35_6  
 BV BND1      X_36_6  
 BV BND1      X_37_6  
 BV BND1      X_38_6  
 BV BND1      X_39_6  
 BV BND1      X_40_6  
 BV BND1      X_41_6  
 BV BND1      X_42_6  
 BV BND1      X_43_6  
 BV BND1      X_44_6  
 BV BND1      X_45_6  
 BV BND1      X_46_6  
 BV BND1      X_47_6  
 BV BND1      X_48_6  
 BV BND1      X_49_6  
 BV BND1      X_52_6  
 BV BND1      X_53_6  
 BV BND1      X_54_6  
 BV BND1      X_55_6  
 BV BND1      X_56_6  
 BV BND1      X_59_6  
 BV BND1      X_60_6  
 BV BND1      X_61_6  
 BV BND1      X_62_6  
 BV BND1      X_63_6  
 BV BND1      X_64_6  
 BV BND1      X_65_6  
 BV BND1      X_66_6  
 BV BND1      X_67_6  
 BV BND1      X_68_6  
 BV BND1      X_69_6  
 BV BND1      X_70_6  
 BV BND1      X_71_6  
 BV BND1      X_72_6  
 BV BND1      X_73_6  
 BV BND1      X_74_6  
 BV BND1      X_75_6  
 BV BND1      X_76_6  
 BV BND1      X_77_6  
 BV BND1      X_78_6  
 BV BND1      X_79_6  
 BV BND1      X_80_6  
 BV BND1      X_81_6  
 BV BND1      X_82_6  
 BV BND1      X_83_6  
 BV BND1      X_84_6  
 BV BND1      X_85_6  
 BV BND1      X_86_6  
 BV BND1      X_87_6  
 BV BND1      X_88_6  
 BV BND1      X_89_6  
 BV BND1      X_0_7   
 BV BND1      X_1_7   
 BV BND1      X_2_7   
 BV BND1      X_3_7   
 BV BND1      X_4_7   
 BV BND1      X_5_7   
 BV BND1      X_6_7   
 BV BND1      X_7_7   
 BV BND1      X_8_7   
 BV BND1      X_9_7   
 BV BND1      X_10_7  
 BV BND1      X_11_7  
 BV BND1      X_12_7  
 BV BND1      X_13_7  
 BV BND1      X_14_7  
 BV BND1      X_15_7  
 BV BND1      X_16_7  
 BV BND1      X_17_7  
 BV BND1      X_18_7  
 BV BND1      X_19_7  
 BV BND1      X_20_7  
 BV BND1      X_21_7  
 BV BND1      X_22_7  
 BV BND1      X_24_7  
 BV BND1      X_25_7  
 BV BND1      X_26_7  
 BV BND1      X_27_7  
 BV BND1      X_28_7  
 BV BND1      X_29_7  
 BV BND1      X_31_7  
 BV BND1      X_32_7  
 BV BND1      X_33_7  
 BV BND1      X_34_7  
 BV BND1      X_35_7  
 BV BND1      X_36_7  
 BV BND1      X_37_7  
 BV BND1      X_38_7  
 BV BND1      X_39_7  
 BV BND1      X_40_7  
 BV BND1      X_41_7  
 BV BND1      X_42_7  
 BV BND1      X_43_7  
 BV BND1      X_44_7  
 BV BND1      X_45_7  
 BV BND1      X_46_7  
 BV BND1      X_47_7  
 BV BND1      X_48_7  
 BV BND1      X_49_7  
 BV BND1      X_51_7  
 BV BND1      X_52_7  
 BV BND1      X_53_7  
 BV BND1      X_54_7  
 BV BND1      X_55_7  
 BV BND1      X_56_7  
 BV BND1      X_58_7  
 BV BND1      X_59_7  
 BV BND1      X_60_7  
 BV BND1      X_61_7  
 BV BND1      X_62_7  
 BV BND1      X_63_7  
 BV BND1      X_64_7  
 BV BND1      X_65_7  
 BV BND1      X_66_7  
 BV BND1      X_67_7  
 BV BND1      X_68_7  
 BV BND1      X_69_7  
 BV BND1      X_70_7  
 BV BND1      X_71_7  
 BV BND1      X_72_7  
 BV BND1      X_73_7  
 BV BND1      X_74_7  
 BV BND1      X_75_7  
 BV BND1      X_76_7  
 BV BND1      X_77_7  
 BV BND1      X_78_7  
 BV BND1      X_79_7  
 BV BND1      X_80_7  
 BV BND1      X_81_7  
 BV BND1      X_82_7  
 BV BND1      X_83_7  
 BV BND1      X_84_7  
 BV BND1      X_85_7  
 BV BND1      X_86_7  
 BV BND1      X_87_7  
 BV BND1      X_88_7  
 BV BND1      X_89_7  
 BV BND1      X_0_8   
 BV BND1      X_1_8   
 BV BND1      X_2_8   
 BV BND1      X_3_8   
 BV BND1      X_4_8   
 BV BND1      X_5_8   
 BV BND1      X_6_8   
 BV BND1      X_7_8   
 BV BND1      X_8_8   
 BV BND1      X_9_8   
 BV BND1      X_10_8  
 BV BND1      X_11_8  
 BV BND1      X_12_8  
 BV BND1      X_13_8  
 BV BND1      X_14_8  
 BV BND1      X_15_8  
 BV BND1      X_16_8  
 BV BND1      X_17_8  
 BV BND1      X_18_8  
 BV BND1      X_19_8  
 BV BND1      X_20_8  
 BV BND1      X_21_8  
 BV BND1      X_22_8  
 BV BND1      X_23_8  
 BV BND1      X_24_8  
 BV BND1      X_25_8  
 BV BND1      X_26_8  
 BV BND1      X_27_8  
 BV BND1      X_28_8  
 BV BND1      X_29_8  
 BV BND1      X_30_8  
 BV BND1      X_31_8  
 BV BND1      X_32_8  
 BV BND1      X_33_8  
 BV BND1      X_34_8  
 BV BND1      X_35_8  
 BV BND1      X_36_8  
 BV BND1      X_37_8  
 BV BND1      X_38_8  
 BV BND1      X_39_8  
 BV BND1      X_40_8  
 BV BND1      X_41_8  
 BV BND1      X_42_8  
 BV BND1      X_43_8  
 BV BND1      X_44_8  
 BV BND1      X_45_8  
 BV BND1      X_46_8  
 BV BND1      X_47_8  
 BV BND1      X_48_8  
 BV BND1      X_49_8  
 BV BND1      X_50_8  
 BV BND1      X_51_8  
 BV BND1      X_52_8  
 BV BND1      X_53_8  
 BV BND1      X_54_8  
 BV BND1      X_55_8  
 BV BND1      X_56_8  
 BV BND1      X_57_8  
 BV BND1      X_58_8  
 BV BND1      X_59_8  
 BV BND1      X_60_8  
 BV BND1      X_61_8  
 BV BND1      X_62_8  
 BV BND1      X_63_8  
 BV BND1      X_64_8  
 BV BND1      X_65_8  
 BV BND1      X_66_8  
 BV BND1      X_67_8  
 BV BND1      X_68_8  
 BV BND1      X_69_8  
 BV BND1      X_70_8  
 BV BND1      X_71_8  
 BV BND1      X_72_8  
 BV BND1      X_73_8  
 BV BND1      X_74_8  
 BV BND1      X_75_8  
 BV BND1      X_76_8  
 BV BND1      X_77_8  
 BV BND1      X_78_8  
 BV BND1      X_79_8  
 BV BND1      X_80_8  
 BV BND1      X_81_8  
 BV BND1      X_82_8  
 BV BND1      X_83_8  
 BV BND1      X_84_8  
 BV BND1      X_85_8  
 BV BND1      X_86_8  
 BV BND1      X_87_8  
 BV BND1      X_88_8  
 BV BND1      X_89_8  
 BV BND1      X_0_9   
 BV BND1      X_1_9   
 BV BND1      X_2_9   
 BV BND1      X_3_9   
 BV BND1      X_4_9   
 BV BND1      X_5_9   
 BV BND1      X_6_9   
 BV BND1      X_7_9   
 BV BND1      X_8_9   
 BV BND1      X_9_9   
 BV BND1      X_10_9  
 BV BND1      X_11_9  
 BV BND1      X_12_9  
 BV BND1      X_13_9  
 BV BND1      X_14_9  
 BV BND1      X_15_9  
 BV BND1      X_16_9  
 BV BND1      X_17_9  
 BV BND1      X_18_9  
 BV BND1      X_19_9  
 BV BND1      X_20_9  
 BV BND1      X_21_9  
 BV BND1      X_22_9  
 BV BND1      X_23_9  
 BV BND1      X_24_9  
 BV BND1      X_25_9  
 BV BND1      X_26_9  
 BV BND1      X_27_9  
 BV BND1      X_28_9  
 BV BND1      X_29_9  
 BV BND1      X_30_9  
 BV BND1      X_31_9  
 BV BND1      X_32_9  
 BV BND1      X_33_9  
 BV BND1      X_34_9  
 BV BND1      X_35_9  
 BV BND1      X_36_9  
 BV BND1      X_37_9  
 BV BND1      X_38_9  
 BV BND1      X_39_9  
 BV BND1      X_40_9  
 BV BND1      X_41_9  
 BV BND1      X_42_9  
 BV BND1      X_43_9  
 BV BND1      X_44_9  
 BV BND1      X_45_9  
 BV BND1      X_46_9  
 BV BND1      X_47_9  
 BV BND1      X_48_9  
 BV BND1      X_49_9  
 BV BND1      X_50_9  
 BV BND1      X_51_9  
 BV BND1      X_52_9  
 BV BND1      X_53_9  
 BV BND1      X_54_9  
 BV BND1      X_55_9  
 BV BND1      X_56_9  
 BV BND1      X_57_9  
 BV BND1      X_58_9  
 BV BND1      X_59_9  
 BV BND1      X_60_9  
 BV BND1      X_61_9  
 BV BND1      X_62_9  
 BV BND1      X_63_9  
 BV BND1      X_64_9  
 BV BND1      X_65_9  
 BV BND1      X_66_9  
 BV BND1      X_67_9  
 BV BND1      X_68_9  
 BV BND1      X_69_9  
 BV BND1      X_70_9  
 BV BND1      X_71_9  
 BV BND1      X_72_9  
 BV BND1      X_73_9  
 BV BND1      X_74_9  
 BV BND1      X_75_9  
 BV BND1      X_76_9  
 BV BND1      X_77_9  
 BV BND1      X_78_9  
 BV BND1      X_79_9  
 BV BND1      X_80_9  
 BV BND1      X_81_9  
 BV BND1      X_82_9  
 BV BND1      X_83_9  
 BV BND1      X_84_9  
 BV BND1      X_85_9  
 BV BND1      X_86_9  
 BV BND1      X_87_9  
 BV BND1      X_88_9  
 BV BND1      X_89_9  
 UP BND1      C760      200000
 UP BND1      C761      400000
 UP BND1      C762      600000
 UP BND1      C763      800000
 UP BND1      C764      1000000
 UP BND1      C765      1200000
 UP BND1      C766      1400000
 UP BND1      C767      1600000
 UP BND1      C768      1800000
 UP BND1      C769      100000
 UP BND1      C770      200000
 UP BND1      C771      300000
 UP BND1      C772      400000
 UP BND1      C773      500000
 UP BND1      C774      600000
 UP BND1      C775      698947
 UP BND1      C776      798947
 UP BND1      C777      832365
ENDATA
