NAME neos15_pre
ROWS
 N  OBJ
 E  R0002   
 E  R0003   
 E  R0004   
 E  R0005   
 E  R0006   
 E  R0007   
 E  R0008   
 E  R0009   
 E  R0010   
 E  R0011   
 E  R0012   
 E  R0013   
 E  R0014   
 E  R0015   
 E  R0016   
 E  R0017   
 E  R0018   
 E  R0019   
 E  R0020   
 E  R0021   
 E  R0022   
 E  R0023   
 E  R0024   
 E  R0026   
 E  R0027   
 E  R0028   
 E  R0029   
 E  R0030   
 E  R0031   
 E  R0032   
 E  R0033   
 E  R0034   
 E  R0035   
 E  R0036   
 E  R0037   
 E  R0038   
 E  R0039   
 E  R0040   
 E  R0041   
 E  R0042   
 E  R0043   
 E  R0044   
 E  R0045   
 E  R0046   
 E  R0047   
 E  R0048   
 E  R0050   
 E  R0051   
 E  R0052   
 E  R0053   
 E  R0054   
 E  R0055   
 E  R0056   
 E  R0057   
 E  R0058   
 E  R0059   
 E  R0060   
 E  R0061   
 E  R0062   
 E  R0063   
 E  R0064   
 E  R0065   
 E  R0066   
 E  R0067   
 E  R0068   
 E  R0069   
 E  R0070   
 E  R0071   
 E  R0072   
 E  R0074   
 E  R0075   
 E  R0076   
 E  R0077   
 E  R0078   
 E  R0079   
 E  R0080   
 E  R0081   
 E  R0082   
 E  R0083   
 E  R0084   
 E  R0085   
 E  R0086   
 E  R0087   
 E  R0088   
 E  R0089   
 E  R0090   
 E  R0091   
 E  R0092   
 E  R0093   
 E  R0094   
 E  R0095   
 E  R0096   
 E  R0097   
 E  R0098   
 E  R0099   
 E  R0100   
 E  R0101   
 E  R0102   
 E  R0103   
 E  R0104   
 E  R0105   
 E  R0106   
 E  R0107   
 E  R0108   
 E  R0109   
 E  R0110   
 E  R0111   
 E  R0112   
 E  R0113   
 E  R0114   
 E  R0115   
 E  R0116   
 E  R0117   
 E  R0118   
 E  R0119   
 E  R0120   
 E  R0122   
 E  R0123   
 E  R0124   
 E  R0125   
 E  R0126   
 E  R0127   
 E  R0128   
 E  R0129   
 E  R0130   
 E  R0131   
 E  R0132   
 E  R0133   
 E  R0134   
 E  R0135   
 E  R0136   
 E  R0137   
 E  R0138   
 E  R0139   
 E  R0140   
 E  R0141   
 E  R0142   
 E  R0143   
 E  R0144   
 E  R0146   
 E  R0147   
 E  R0148   
 E  R0149   
 E  R0150   
 E  R0151   
 E  R0152   
 E  R0153   
 E  R0154   
 E  R0155   
 E  R0156   
 E  R0157   
 E  R0158   
 E  R0159   
 E  R0160   
 E  R0161   
 E  R0162   
 E  R0163   
 E  R0164   
 E  R0165   
 E  R0166   
 E  R0167   
 E  R0168   
 E  R0170   
 E  R0171   
 E  R0172   
 E  R0173   
 E  R0174   
 E  R0175   
 E  R0176   
 E  R0177   
 E  R0178   
 E  R0179   
 E  R0180   
 E  R0181   
 E  R0182   
 E  R0183   
 E  R0184   
 E  R0185   
 E  R0186   
 E  R0187   
 E  R0188   
 E  R0189   
 E  R0190   
 E  R0191   
 E  R0192   
 E  R0193   
 E  R0194   
 E  R0195   
 E  R0196   
 E  R0197   
 E  R0198   
 E  R0199   
 E  R0200   
 E  R0201   
 E  R0202   
 E  R0203   
 E  R0204   
 E  R0205   
 E  R0206   
 E  R0207   
 E  R0208   
 E  R0209   
 E  R0210   
 E  R0211   
 E  R0212   
 E  R0213   
 E  R0214   
 E  R0215   
 E  R0216   
 L  R0217   
 E  R0218   
 E  R0219   
 E  R0220   
 E  R0221   
 E  R0222   
 E  R0223   
 E  R0224   
 E  R0225   
 E  R0226   
 E  R0227   
 E  R0228   
 E  R0229   
 E  R0230   
 E  R0231   
 E  R0232   
 E  R0233   
 E  R0234   
 E  R0235   
 E  R0236   
 E  R0237   
 E  R0238   
 E  R0239   
 E  R0240   
 L  R0241   
 L  R0242   
 L  R0243   
 L  R0244   
 L  R0245   
 L  R0246   
 L  R0247   
 L  R0248   
 L  R0249   
 L  R0250   
 L  R0251   
 L  R0252   
 L  R0253   
 L  R0254   
 L  R0255   
 L  R0256   
 L  R0257   
 L  R0258   
 L  R0259   
 L  R0260   
 L  R0261   
 L  R0262   
 L  R0263   
 L  R0264   
 L  R0265   
 L  R0266   
 L  R0267   
 L  R0268   
 L  R0269   
 L  R0270   
 L  R0271   
 L  R0272   
 L  R0273   
 L  R0274   
 L  R0275   
 L  R0276   
 L  R0277   
 L  R0278   
 L  R0279   
 L  R0280   
 L  R0281   
 L  R0282   
 L  R0283   
 L  R0284   
 L  R0285   
 L  R0286   
 L  R0287   
 L  R0288   
 L  R0289   
 L  R0290   
 L  R0291   
 L  R0292   
 L  R0293   
 L  R0294   
 L  R0295   
 L  R0296   
 L  R0297   
 L  R0298   
 L  R0299   
 L  R0300   
 L  R0301   
 L  R0302   
 L  R0303   
 L  R0304   
 L  R0305   
 L  R0306   
 L  R0307   
 L  R0308   
 L  R0309   
 L  R0310   
 L  R0311   
 L  R0312   
 L  R0314   
 L  R0315   
 L  R0316   
 L  R0317   
 L  R0318   
 L  R0319   
 L  R0320   
 L  R0321   
 L  R0322   
 L  R0323   
 L  R0324   
 L  R0325   
 L  R0326   
 L  R0327   
 L  R0328   
 L  R0329   
 L  R0330   
 L  R0331   
 L  R0332   
 L  R0333   
 L  R0334   
 L  R0335   
 L  R0336   
 L  R0338   
 L  R0339   
 L  R0340   
 L  R0341   
 L  R0342   
 L  R0343   
 L  R0344   
 L  R0345   
 L  R0346   
 L  R0347   
 L  R0348   
 L  R0349   
 L  R0350   
 L  R0351   
 L  R0352   
 L  R0353   
 L  R0354   
 L  R0355   
 L  R0356   
 L  R0357   
 L  R0358   
 L  R0359   
 L  R0360   
 L  R0362   
 L  R0363   
 L  R0364   
 L  R0365   
 L  R0366   
 L  R0367   
 L  R0368   
 L  R0369   
 L  R0370   
 L  R0371   
 L  R0372   
 L  R0373   
 L  R0374   
 L  R0375   
 L  R0376   
 L  R0377   
 L  R0378   
 L  R0379   
 L  R0380   
 L  R0381   
 L  R0382   
 L  R0383   
 L  R0384   
 L  R0386   
 L  R0387   
 L  R0388   
 L  R0389   
 L  R0390   
 L  R0391   
 L  R0392   
 L  R0393   
 L  R0394   
 L  R0395   
 L  R0396   
 L  R0397   
 L  R0398   
 L  R0399   
 L  R0400   
 L  R0401   
 L  R0402   
 L  R0403   
 L  R0404   
 L  R0405   
 L  R0406   
 L  R0407   
 L  R0408   
 L  R0410   
 L  R0411   
 L  R0412   
 L  R0413   
 L  R0414   
 L  R0415   
 L  R0416   
 L  R0417   
 L  R0418   
 L  R0419   
 L  R0420   
 L  R0421   
 L  R0422   
 L  R0423   
 L  R0424   
 L  R0425   
 L  R0426   
 L  R0427   
 L  R0428   
 L  R0429   
 L  R0430   
 L  R0431   
 L  R0432   
 L  R0513   
 L  R0514   
 L  R0515   
 L  R0516   
 L  R0517   
 L  R0518   
 L  R0519   
 L  R0520   
 L  R0521   
 L  R0522   
 L  R0523   
 L  R0524   
 L  R0525   
 L  R0526   
 L  R0527   
 L  R0528   
 L  R0530   
 L  R0531   
 L  R0532   
 L  R0533   
 L  R0534   
 L  R0535   
 L  R0536   
 L  R0537   
 L  R0538   
 L  R0539   
 L  R0540   
 L  R0541   
 L  R0542   
 L  R0543   
 L  R0544   
 L  R0545   
 L  R0546   
 L  R0547   
 L  R0548   
 L  R0549   
 L  R0550   
 L  R0551   
 L  R0552   
COLUMNS
    C0001     OBJ       4
    C0001     R0097     -1
    C0001     R0002     1
    C0001     R0241     1
    C0002     OBJ       4
    C0002     R0002     -1
    C0002     R0003     1
    C0002     R0242     1
    C0003     OBJ       4
    C0003     R0003     -1
    C0003     R0004     1
    C0003     R0243     1
    C0004     OBJ       4
    C0004     R0004     -1
    C0004     R0005     1
    C0004     R0244     1
    C0005     OBJ       4
    C0005     R0005     -1
    C0005     R0006     1
    C0005     R0245     1
    C0006     OBJ       4
    C0006     R0006     -1
    C0006     R0007     1
    C0006     R0246     1
    C0007     OBJ       4
    C0007     R0007     -1
    C0007     R0008     1
    C0007     R0247     1
    C0008     OBJ       4
    C0008     R0008     -1
    C0008     R0009     1
    C0008     R0248     1
    C0009     OBJ       4
    C0009     R0009     -1
    C0009     R0010     1
    C0009     R0249     1
    C0010     OBJ       4
    C0010     R0010     -1
    C0010     R0011     1
    C0010     R0250     1
    C0011     OBJ       4
    C0011     R0011     -1
    C0011     R0012     1
    C0011     R0251     1
    C0012     OBJ       4
    C0012     R0012     -1
    C0012     R0013     1
    C0012     R0252     1
    C0013     OBJ       4
    C0013     R0013     -1
    C0013     R0014     1
    C0013     R0253     1
    C0014     OBJ       4
    C0014     R0014     -1
    C0014     R0015     1
    C0014     R0254     1
    C0015     OBJ       4
    C0015     R0015     -1
    C0015     R0016     1
    C0015     R0255     1
    C0016     OBJ       4
    C0016     R0016     -1
    C0016     R0017     1
    C0016     R0256     1
    C0017     OBJ       4
    C0017     R0017     -1
    C0017     R0018     1
    C0017     R0257     1
    C0018     OBJ       4
    C0018     R0018     -1
    C0018     R0019     1
    C0018     R0258     1
    C0019     OBJ       4
    C0019     R0019     -1
    C0019     R0020     1
    C0019     R0259     1
    C0020     OBJ       4
    C0020     R0020     -1
    C0020     R0021     1
    C0020     R0260     1
    C0021     OBJ       4
    C0021     R0021     -1
    C0021     R0022     1
    C0021     R0261     1
    C0022     OBJ       4
    C0022     R0022     -1
    C0022     R0023     1
    C0022     R0262     1
    C0023     OBJ       4
    C0023     R0023     -1
    C0023     R0024     1
    C0023     R0263     1
    C0024     OBJ       4
    C0024     R0024     -1
    C0024     R0264     1
    C0026     OBJ       7
    C0026     R0026     -1
    C0026     R0027     1
    C0026     R0242     1
    C0027     OBJ       7
    C0027     R0027     -1
    C0027     R0028     1
    C0027     R0243     1
    C0028     OBJ       7
    C0028     R0028     -1
    C0028     R0029     1
    C0028     R0244     1
    C0029     OBJ       7
    C0029     R0029     -1
    C0029     R0030     1
    C0029     R0245     1
    C0030     OBJ       7
    C0030     R0030     -1
    C0030     R0031     1
    C0030     R0246     1
    C0031     OBJ       7
    C0031     R0031     -1
    C0031     R0032     1
    C0031     R0247     1
    C0032     OBJ       7
    C0032     R0032     -1
    C0032     R0033     1
    C0032     R0248     1
    C0033     OBJ       7
    C0033     R0033     -1
    C0033     R0034     1
    C0033     R0249     1
    C0034     OBJ       7
    C0034     R0034     -1
    C0034     R0035     1
    C0034     R0250     1
    C0035     OBJ       7
    C0035     R0035     -1
    C0035     R0036     1
    C0035     R0251     1
    C0036     OBJ       7
    C0036     R0036     -1
    C0036     R0037     1
    C0036     R0252     1
    C0037     OBJ       7
    C0037     R0037     -1
    C0037     R0038     1
    C0037     R0253     1
    C0038     OBJ       7
    C0038     R0038     -1
    C0038     R0039     1
    C0038     R0254     1
    C0039     OBJ       7
    C0039     R0039     -1
    C0039     R0040     1
    C0039     R0255     1
    C0040     OBJ       7
    C0040     R0040     -1
    C0040     R0041     1
    C0040     R0256     1
    C0041     OBJ       7
    C0041     R0041     -1
    C0041     R0042     1
    C0041     R0257     1
    C0042     OBJ       7
    C0042     R0042     -1
    C0042     R0043     1
    C0042     R0258     1
    C0043     OBJ       7
    C0043     R0043     -1
    C0043     R0044     1
    C0043     R0259     1
    C0044     OBJ       7
    C0044     R0044     -1
    C0044     R0045     1
    C0044     R0260     1
    C0045     OBJ       7
    C0045     R0045     -1
    C0045     R0046     1
    C0045     R0261     1
    C0046     OBJ       7
    C0046     R0046     -1
    C0046     R0047     1
    C0046     R0262     1
    C0047     OBJ       7
    C0047     R0047     -1
    C0047     R0048     1
    C0047     R0263     1
    C0048     OBJ       7
    C0048     R0048     -1
    C0048     R0264     1
    C0050     OBJ       6
    C0050     R0050     -1
    C0050     R0051     1
    C0050     R0266     1
    C0051     OBJ       6
    C0051     R0051     -1
    C0051     R0052     1
    C0051     R0267     1
    C0052     OBJ       6
    C0052     R0052     -1
    C0052     R0053     1
    C0052     R0268     1
    C0053     OBJ       6
    C0053     R0053     -1
    C0053     R0054     1
    C0053     R0269     1
    C0054     OBJ       6
    C0054     R0054     -1
    C0054     R0055     1
    C0054     R0270     1
    C0055     OBJ       6
    C0055     R0055     -1
    C0055     R0056     1
    C0055     R0271     1
    C0056     OBJ       6
    C0056     R0056     -1
    C0056     R0057     1
    C0056     R0272     1
    C0057     OBJ       6
    C0057     R0057     -1
    C0057     R0058     1
    C0057     R0273     1
    C0058     OBJ       6
    C0058     R0058     -1
    C0058     R0059     1
    C0058     R0274     1
    C0059     OBJ       6
    C0059     R0059     -1
    C0059     R0060     1
    C0059     R0275     1
    C0060     OBJ       6
    C0060     R0060     -1
    C0060     R0061     1
    C0060     R0276     1
    C0061     OBJ       6
    C0061     R0061     -1
    C0061     R0062     1
    C0061     R0277     1
    C0062     OBJ       6
    C0062     R0062     -1
    C0062     R0063     1
    C0062     R0278     1
    C0063     OBJ       6
    C0063     R0063     -1
    C0063     R0064     1
    C0063     R0279     1
    C0064     OBJ       6
    C0064     R0064     -1
    C0064     R0065     1
    C0064     R0280     1
    C0065     OBJ       6
    C0065     R0065     -1
    C0065     R0066     1
    C0065     R0281     1
    C0066     OBJ       6
    C0066     R0066     -1
    C0066     R0067     1
    C0066     R0282     1
    C0067     OBJ       6
    C0067     R0067     -1
    C0067     R0068     1
    C0067     R0283     1
    C0068     OBJ       6
    C0068     R0068     -1
    C0068     R0069     1
    C0068     R0284     1
    C0069     OBJ       6
    C0069     R0069     -1
    C0069     R0070     1
    C0069     R0285     1
    C0070     OBJ       6
    C0070     R0070     -1
    C0070     R0071     1
    C0070     R0286     1
    C0071     OBJ       6
    C0071     R0071     -1
    C0071     R0072     1
    C0071     R0287     1
    C0072     OBJ       6
    C0072     R0072     -1
    C0072     R0288     1
    C0073     OBJ       4.2162162162162158e+00
    C0073     R0217     1
    C0073     R0265     1
    C0073     R0074     1
    C0074     OBJ       3
    C0074     R0074     -1
    C0074     R0075     1
    C0074     R0266     1
    C0075     OBJ       3
    C0075     R0075     -1
    C0075     R0076     1
    C0075     R0267     1
    C0076     OBJ       3
    C0076     R0076     -1
    C0076     R0077     1
    C0076     R0268     1
    C0077     OBJ       3
    C0077     R0077     -1
    C0077     R0078     1
    C0077     R0269     1
    C0078     OBJ       3
    C0078     R0078     -1
    C0078     R0079     1
    C0078     R0270     1
    C0079     OBJ       3
    C0079     R0079     -1
    C0079     R0080     1
    C0079     R0271     1
    C0080     OBJ       3
    C0080     R0080     -1
    C0080     R0081     1
    C0080     R0272     1
    C0081     OBJ       3
    C0081     R0081     -1
    C0081     R0082     1
    C0081     R0273     1
    C0082     OBJ       3
    C0082     R0082     -1
    C0082     R0083     1
    C0082     R0274     1
    C0083     OBJ       3
    C0083     R0083     -1
    C0083     R0084     1
    C0083     R0275     1
    C0084     OBJ       3
    C0084     R0084     -1
    C0084     R0085     1
    C0084     R0276     1
    C0085     OBJ       3
    C0085     R0085     -1
    C0085     R0086     1
    C0085     R0277     1
    C0086     OBJ       3
    C0086     R0086     -1
    C0086     R0087     1
    C0086     R0278     1
    C0087     OBJ       3
    C0087     R0087     -1
    C0087     R0088     1
    C0087     R0279     1
    C0088     OBJ       3
    C0088     R0088     -1
    C0088     R0089     1
    C0088     R0280     1
    C0089     OBJ       3
    C0089     R0089     -1
    C0089     R0090     1
    C0089     R0281     1
    C0090     OBJ       3
    C0090     R0090     -1
    C0090     R0091     1
    C0090     R0282     1
    C0091     OBJ       3
    C0091     R0091     -1
    C0091     R0092     1
    C0091     R0283     1
    C0092     OBJ       3
    C0092     R0092     -1
    C0092     R0093     1
    C0092     R0284     1
    C0093     OBJ       3
    C0093     R0093     -1
    C0093     R0094     1
    C0093     R0285     1
    C0094     OBJ       3
    C0094     R0094     -1
    C0094     R0095     1
    C0094     R0286     1
    C0095     OBJ       3
    C0095     R0095     -1
    C0095     R0096     1
    C0095     R0287     1
    C0096     OBJ       3
    C0096     R0096     -1
    C0096     R0288     1
    C0097     OBJ       3
    C0097     R0097     -1
    C0097     R0098     1
    C0097     R0289     1
    C0098     OBJ       3
    C0098     R0098     -1
    C0098     R0099     1
    C0098     R0290     1
    C0099     OBJ       3
    C0099     R0099     -1
    C0099     R0100     1
    C0099     R0291     1
    C0100     OBJ       3
    C0100     R0100     -1
    C0100     R0101     1
    C0100     R0292     1
    C0101     OBJ       3
    C0101     R0101     -1
    C0101     R0102     1
    C0101     R0293     1
    C0102     OBJ       3
    C0102     R0102     -1
    C0102     R0103     1
    C0102     R0294     1
    C0103     OBJ       3
    C0103     R0103     -1
    C0103     R0104     1
    C0103     R0295     1
    C0104     OBJ       3
    C0104     R0104     -1
    C0104     R0105     1
    C0104     R0296     1
    C0105     OBJ       3
    C0105     R0105     -1
    C0105     R0106     1
    C0105     R0297     1
    C0106     OBJ       3
    C0106     R0106     -1
    C0106     R0107     1
    C0106     R0298     1
    C0107     OBJ       3
    C0107     R0107     -1
    C0107     R0108     1
    C0107     R0299     1
    C0108     OBJ       3
    C0108     R0108     -1
    C0108     R0109     1
    C0108     R0300     1
    C0109     OBJ       3
    C0109     R0109     -1
    C0109     R0110     1
    C0109     R0301     1
    C0110     OBJ       3
    C0110     R0110     -1
    C0110     R0111     1
    C0110     R0302     1
    C0111     OBJ       3
    C0111     R0111     -1
    C0111     R0112     1
    C0111     R0303     1
    C0112     OBJ       3
    C0112     R0112     -1
    C0112     R0113     1
    C0112     R0304     1
    C0113     OBJ       3
    C0113     R0113     -1
    C0113     R0114     1
    C0113     R0305     1
    C0114     OBJ       3
    C0114     R0114     -1
    C0114     R0115     1
    C0114     R0306     1
    C0115     OBJ       3
    C0115     R0115     -1
    C0115     R0116     1
    C0115     R0307     1
    C0116     OBJ       3
    C0116     R0116     -1
    C0116     R0117     1
    C0116     R0308     1
    C0117     OBJ       3
    C0117     R0117     -1
    C0117     R0118     1
    C0117     R0309     1
    C0118     OBJ       3
    C0118     R0118     -1
    C0118     R0119     1
    C0118     R0310     1
    C0119     OBJ       3
    C0119     R0119     -1
    C0119     R0120     1
    C0119     R0311     1
    C0120     OBJ       3
    C0120     R0120     -1
    C0120     R0312     1
    C0121     OBJ       3.6353019686386387e+00
    C0121     R0217     1
    C0121     R0193     -1
    C0121     R0122     1
    C0121     R0241     1
    C0122     OBJ       3
    C0122     R0122     -1
    C0122     R0123     1
    C0122     R0242     1
    C0123     OBJ       3
    C0123     R0123     -1
    C0123     R0124     1
    C0123     R0243     1
    C0124     OBJ       3
    C0124     R0124     -1
    C0124     R0125     1
    C0124     R0244     1
    C0125     OBJ       3
    C0125     R0125     -1
    C0125     R0126     1
    C0125     R0245     1
    C0126     OBJ       3
    C0126     R0126     -1
    C0126     R0127     1
    C0126     R0246     1
    C0127     OBJ       3
    C0127     R0127     -1
    C0127     R0128     1
    C0127     R0247     1
    C0128     OBJ       3
    C0128     R0128     -1
    C0128     R0129     1
    C0128     R0248     1
    C0129     OBJ       3
    C0129     R0129     -1
    C0129     R0130     1
    C0129     R0249     1
    C0130     OBJ       3
    C0130     R0130     -1
    C0130     R0131     1
    C0130     R0250     1
    C0131     OBJ       3
    C0131     R0131     -1
    C0131     R0132     1
    C0131     R0251     1
    C0132     OBJ       3
    C0132     R0132     -1
    C0132     R0133     1
    C0132     R0252     1
    C0133     OBJ       3
    C0133     R0133     -1
    C0133     R0134     1
    C0133     R0253     1
    C0134     OBJ       3
    C0134     R0134     -1
    C0134     R0135     1
    C0134     R0254     1
    C0135     OBJ       3
    C0135     R0135     -1
    C0135     R0136     1
    C0135     R0255     1
    C0136     OBJ       3
    C0136     R0136     -1
    C0136     R0137     1
    C0136     R0256     1
    C0137     OBJ       3
    C0137     R0137     -1
    C0137     R0138     1
    C0137     R0257     1
    C0138     OBJ       3
    C0138     R0138     -1
    C0138     R0139     1
    C0138     R0258     1
    C0139     OBJ       3
    C0139     R0139     -1
    C0139     R0140     1
    C0139     R0259     1
    C0140     OBJ       3
    C0140     R0140     -1
    C0140     R0141     1
    C0140     R0260     1
    C0141     OBJ       3
    C0141     R0141     -1
    C0141     R0142     1
    C0141     R0261     1
    C0142     OBJ       3
    C0142     R0142     -1
    C0142     R0143     1
    C0142     R0262     1
    C0143     OBJ       3
    C0143     R0143     -1
    C0143     R0144     1
    C0143     R0263     1
    C0144     OBJ       3
    C0144     R0144     -1
    C0144     R0264     1
    C0145     OBJ       3.2162162162162162e+00
    C0145     R0217     1
    C0145     R0265     1
    C0145     R0146     1
    C0146     OBJ       2
    C0146     R0146     -1
    C0146     R0147     1
    C0146     R0266     1
    C0147     OBJ       2
    C0147     R0147     -1
    C0147     R0148     1
    C0147     R0267     1
    C0148     OBJ       2
    C0148     R0148     -1
    C0148     R0149     1
    C0148     R0268     1
    C0149     OBJ       2
    C0149     R0149     -1
    C0149     R0150     1
    C0149     R0269     1
    C0150     OBJ       2
    C0150     R0150     -1
    C0150     R0151     1
    C0150     R0270     1
    C0151     OBJ       2
    C0151     R0151     -1
    C0151     R0152     1
    C0151     R0271     1
    C0152     OBJ       2
    C0152     R0152     -1
    C0152     R0153     1
    C0152     R0272     1
    C0153     OBJ       2
    C0153     R0153     -1
    C0153     R0154     1
    C0153     R0273     1
    C0154     OBJ       2
    C0154     R0154     -1
    C0154     R0155     1
    C0154     R0274     1
    C0155     OBJ       2
    C0155     R0155     -1
    C0155     R0156     1
    C0155     R0275     1
    C0156     OBJ       2
    C0156     R0156     -1
    C0156     R0157     1
    C0156     R0276     1
    C0157     OBJ       2
    C0157     R0157     -1
    C0157     R0158     1
    C0157     R0277     1
    C0158     OBJ       2
    C0158     R0158     -1
    C0158     R0159     1
    C0158     R0278     1
    C0159     OBJ       2
    C0159     R0159     -1
    C0159     R0160     1
    C0159     R0279     1
    C0160     OBJ       2
    C0160     R0160     -1
    C0160     R0161     1
    C0160     R0280     1
    C0161     OBJ       2
    C0161     R0161     -1
    C0161     R0162     1
    C0161     R0281     1
    C0162     OBJ       2
    C0162     R0162     -1
    C0162     R0163     1
    C0162     R0282     1
    C0163     OBJ       2
    C0163     R0163     -1
    C0163     R0164     1
    C0163     R0283     1
    C0164     OBJ       2
    C0164     R0164     -1
    C0164     R0165     1
    C0164     R0284     1
    C0165     OBJ       2
    C0165     R0165     -1
    C0165     R0166     1
    C0165     R0285     1
    C0166     OBJ       2
    C0166     R0166     -1
    C0166     R0167     1
    C0166     R0286     1
    C0167     OBJ       2
    C0167     R0167     -1
    C0167     R0168     1
    C0167     R0287     1
    C0168     OBJ       2
    C0168     R0168     -1
    C0168     R0288     1
    C0169     OBJ       1
    C0169     R0193     1
    C0169     R0097     -1
    C0169     R0170     1
    C0169     R0289     1
    C0170     OBJ       1
    C0170     R0170     -1
    C0170     R0171     1
    C0170     R0290     1
    C0171     OBJ       1
    C0171     R0171     -1
    C0171     R0172     1
    C0171     R0291     1
    C0172     OBJ       1
    C0172     R0172     -1
    C0172     R0173     1
    C0172     R0292     1
    C0173     OBJ       1
    C0173     R0173     -1
    C0173     R0174     1
    C0173     R0293     1
    C0174     OBJ       1
    C0174     R0174     -1
    C0174     R0175     1
    C0174     R0294     1
    C0175     OBJ       1
    C0175     R0175     -1
    C0175     R0176     1
    C0175     R0295     1
    C0176     OBJ       1
    C0176     R0176     -1
    C0176     R0177     1
    C0176     R0296     1
    C0177     OBJ       1
    C0177     R0177     -1
    C0177     R0178     1
    C0177     R0297     1
    C0178     OBJ       1
    C0178     R0178     -1
    C0178     R0179     1
    C0178     R0298     1
    C0179     OBJ       1
    C0179     R0179     -1
    C0179     R0180     1
    C0179     R0299     1
    C0180     OBJ       1
    C0180     R0180     -1
    C0180     R0181     1
    C0180     R0300     1
    C0181     OBJ       1
    C0181     R0181     -1
    C0181     R0182     1
    C0181     R0301     1
    C0182     OBJ       1
    C0182     R0182     -1
    C0182     R0183     1
    C0182     R0302     1
    C0183     OBJ       1
    C0183     R0183     -1
    C0183     R0184     1
    C0183     R0303     1
    C0184     OBJ       1
    C0184     R0184     -1
    C0184     R0185     1
    C0184     R0304     1
    C0185     OBJ       1
    C0185     R0185     -1
    C0185     R0186     1
    C0185     R0305     1
    C0186     OBJ       1
    C0186     R0186     -1
    C0186     R0187     1
    C0186     R0306     1
    C0187     OBJ       1
    C0187     R0187     -1
    C0187     R0188     1
    C0187     R0307     1
    C0188     OBJ       1
    C0188     R0188     -1
    C0188     R0189     1
    C0188     R0308     1
    C0189     OBJ       1
    C0189     R0189     -1
    C0189     R0190     1
    C0189     R0309     1
    C0190     OBJ       1
    C0190     R0190     -1
    C0190     R0191     1
    C0190     R0310     1
    C0191     OBJ       1
    C0191     R0191     -1
    C0191     R0192     1
    C0191     R0311     1
    C0192     OBJ       1
    C0192     R0192     -1
    C0192     R0312     1
    C0193     OBJ       1
    C0193     R0193     -1
    C0193     R0194     1
    C0193     R0289     1
    C0194     OBJ       1
    C0194     R0194     -1
    C0194     R0195     1
    C0194     R0290     1
    C0195     OBJ       1
    C0195     R0195     -1
    C0195     R0196     1
    C0195     R0291     1
    C0196     OBJ       1
    C0196     R0196     -1
    C0196     R0197     1
    C0196     R0292     1
    C0197     OBJ       1
    C0197     R0197     -1
    C0197     R0198     1
    C0197     R0293     1
    C0198     OBJ       1
    C0198     R0198     -1
    C0198     R0199     1
    C0198     R0294     1
    C0199     OBJ       1
    C0199     R0199     -1
    C0199     R0200     1
    C0199     R0295     1
    C0200     OBJ       1
    C0200     R0200     -1
    C0200     R0201     1
    C0200     R0296     1
    C0201     OBJ       1
    C0201     R0201     -1
    C0201     R0202     1
    C0201     R0297     1
    C0202     OBJ       1
    C0202     R0202     -1
    C0202     R0203     1
    C0202     R0298     1
    C0203     OBJ       1
    C0203     R0203     -1
    C0203     R0204     1
    C0203     R0299     1
    C0204     OBJ       1
    C0204     R0204     -1
    C0204     R0205     1
    C0204     R0300     1
    C0205     OBJ       1
    C0205     R0205     -1
    C0205     R0206     1
    C0205     R0301     1
    C0206     OBJ       1
    C0206     R0206     -1
    C0206     R0207     1
    C0206     R0302     1
    C0207     OBJ       1
    C0207     R0207     -1
    C0207     R0208     1
    C0207     R0303     1
    C0208     OBJ       1
    C0208     R0208     -1
    C0208     R0209     1
    C0208     R0304     1
    C0209     OBJ       1
    C0209     R0209     -1
    C0209     R0210     1
    C0209     R0305     1
    C0210     OBJ       1
    C0210     R0210     -1
    C0210     R0211     1
    C0210     R0306     1
    C0211     OBJ       1
    C0211     R0211     -1
    C0211     R0212     1
    C0211     R0307     1
    C0212     OBJ       1
    C0212     R0212     -1
    C0212     R0213     1
    C0212     R0308     1
    C0213     OBJ       1
    C0213     R0213     -1
    C0213     R0214     1
    C0213     R0309     1
    C0214     OBJ       1
    C0214     R0214     -1
    C0214     R0215     1
    C0214     R0310     1
    C0215     OBJ       1
    C0215     R0215     -1
    C0215     R0216     1
    C0215     R0311     1
    C0216     OBJ       1
    C0216     R0216     -1
    C0216     R0312     1
    C0217     OBJ       1
    C0217     R0217     1
    C0217     R0218     1
    C0217     R0289     1
    C0218     OBJ       1
    C0218     R0218     -1
    C0218     R0219     1
    C0218     R0290     1
    C0219     OBJ       1
    C0219     R0219     -1
    C0219     R0220     1
    C0219     R0291     1
    C0220     OBJ       1
    C0220     R0220     -1
    C0220     R0221     1
    C0220     R0292     1
    C0221     OBJ       1
    C0221     R0221     -1
    C0221     R0222     1
    C0221     R0293     1
    C0222     OBJ       1
    C0222     R0222     -1
    C0222     R0223     1
    C0222     R0294     1
    C0223     OBJ       1
    C0223     R0223     -1
    C0223     R0224     1
    C0223     R0295     1
    C0224     OBJ       1
    C0224     R0224     -1
    C0224     R0225     1
    C0224     R0296     1
    C0225     OBJ       1
    C0225     R0225     -1
    C0225     R0226     1
    C0225     R0297     1
    C0226     OBJ       1
    C0226     R0226     -1
    C0226     R0227     1
    C0226     R0298     1
    C0227     OBJ       1
    C0227     R0227     -1
    C0227     R0228     1
    C0227     R0299     1
    C0228     OBJ       1
    C0228     R0228     -1
    C0228     R0229     1
    C0228     R0300     1
    C0229     OBJ       1
    C0229     R0229     -1
    C0229     R0230     1
    C0229     R0301     1
    C0230     OBJ       1
    C0230     R0230     -1
    C0230     R0231     1
    C0230     R0302     1
    C0231     OBJ       1
    C0231     R0231     -1
    C0231     R0232     1
    C0231     R0303     1
    C0232     OBJ       1
    C0232     R0232     -1
    C0232     R0233     1
    C0232     R0304     1
    C0233     OBJ       1
    C0233     R0233     -1
    C0233     R0234     1
    C0233     R0305     1
    C0234     OBJ       1
    C0234     R0234     -1
    C0234     R0235     1
    C0234     R0306     1
    C0235     OBJ       1
    C0235     R0235     -1
    C0235     R0236     1
    C0235     R0307     1
    C0236     OBJ       1
    C0236     R0236     -1
    C0236     R0237     1
    C0236     R0308     1
    C0237     OBJ       1
    C0237     R0237     -1
    C0237     R0238     1
    C0237     R0309     1
    C0238     OBJ       1
    C0238     R0238     -1
    C0238     R0239     1
    C0238     R0310     1
    C0239     OBJ       1
    C0239     R0239     -1
    C0239     R0240     1
    C0239     R0311     1
    C0240     OBJ       1
    C0240     R0240     -1
    C0240     R0312     1
    C0241     OBJ       10000
    C0241     R0241     -1
    C0242     OBJ       10000
    C0242     R0242     -1
    C0243     OBJ       10000
    C0243     R0243     -1
    C0244     OBJ       10000
    C0244     R0244     -1
    C0245     OBJ       10000
    C0245     R0245     -1
    C0246     OBJ       10000
    C0246     R0246     -1
    C0247     OBJ       10000
    C0247     R0247     -1
    C0248     OBJ       10000
    C0248     R0248     -1
    C0249     OBJ       10000
    C0249     R0249     -1
    C0250     OBJ       10000
    C0250     R0250     -1
    C0251     OBJ       10000
    C0251     R0251     -1
    C0252     OBJ       10000
    C0252     R0252     -1
    C0253     OBJ       10000
    C0253     R0253     -1
    C0254     OBJ       10000
    C0254     R0254     -1
    C0255     OBJ       10000
    C0255     R0255     -1
    C0256     OBJ       10000
    C0256     R0256     -1
    C0257     OBJ       10000
    C0257     R0257     -1
    C0258     OBJ       10000
    C0258     R0258     -1
    C0259     OBJ       10000
    C0259     R0259     -1
    C0260     OBJ       10000
    C0260     R0260     -1
    C0261     OBJ       10000
    C0261     R0261     -1
    C0262     OBJ       10000
    C0262     R0262     -1
    C0263     OBJ       10000
    C0263     R0263     -1
    C0264     OBJ       10000
    C0264     R0264     -1
    C0265     OBJ       10000
    C0265     R0265     -1
    C0266     OBJ       10000
    C0266     R0266     -1
    C0267     OBJ       10000
    C0267     R0267     -1
    C0268     OBJ       10000
    C0268     R0268     -1
    C0269     OBJ       10000
    C0269     R0269     -1
    C0270     OBJ       10000
    C0270     R0270     -1
    C0271     OBJ       10000
    C0271     R0271     -1
    C0272     OBJ       10000
    C0272     R0272     -1
    C0273     OBJ       10000
    C0273     R0273     -1
    C0274     OBJ       10000
    C0274     R0274     -1
    C0275     OBJ       10000
    C0275     R0275     -1
    C0276     OBJ       10000
    C0276     R0276     -1
    C0277     OBJ       10000
    C0277     R0277     -1
    C0278     OBJ       10000
    C0278     R0278     -1
    C0279     OBJ       10000
    C0279     R0279     -1
    C0280     OBJ       10000
    C0280     R0280     -1
    C0281     OBJ       10000
    C0281     R0281     -1
    C0282     OBJ       10000
    C0282     R0282     -1
    C0283     OBJ       10000
    C0283     R0283     -1
    C0284     OBJ       10000
    C0284     R0284     -1
    C0285     OBJ       10000
    C0285     R0285     -1
    C0286     OBJ       10000
    C0286     R0286     -1
    C0287     OBJ       10000
    C0287     R0287     -1
    C0288     OBJ       10000
    C0288     R0288     -1
    C0289     OBJ       10000
    C0289     R0289     -1
    C0290     OBJ       10000
    C0290     R0290     -1
    C0291     OBJ       10000
    C0291     R0291     -1
    C0292     OBJ       10000
    C0292     R0292     -1
    C0293     OBJ       10000
    C0293     R0293     -1
    C0294     OBJ       10000
    C0294     R0294     -1
    C0295     OBJ       10000
    C0295     R0295     -1
    C0296     OBJ       10000
    C0296     R0296     -1
    C0297     OBJ       10000
    C0297     R0297     -1
    C0298     OBJ       10000
    C0298     R0298     -1
    C0299     OBJ       10000
    C0299     R0299     -1
    C0300     OBJ       10000
    C0300     R0300     -1
    C0301     OBJ       10000
    C0301     R0301     -1
    C0302     OBJ       10000
    C0302     R0302     -1
    C0303     OBJ       10000
    C0303     R0303     -1
    C0304     OBJ       10000
    C0304     R0304     -1
    C0305     OBJ       10000
    C0305     R0305     -1
    C0306     OBJ       10000
    C0306     R0306     -1
    C0307     OBJ       10000
    C0307     R0307     -1
    C0308     OBJ       10000
    C0308     R0308     -1
    C0309     OBJ       10000
    C0309     R0309     -1
    C0310     OBJ       10000
    C0310     R0310     -1
    C0311     OBJ       10000
    C0311     R0311     -1
    C0312     OBJ       10000
    C0312     R0312     -1
    C0314     R0002     1
    C0314     R0098     -1
    C0314     R0314     1
    C0315     R0003     1
    C0315     R0099     -1
    C0315     R0315     1
    C0316     R0004     1
    C0316     R0100     -1
    C0316     R0316     1
    C0317     R0005     1
    C0317     R0101     -1
    C0317     R0317     1
    C0318     R0006     1
    C0318     R0102     -1
    C0318     R0318     1
    C0319     R0007     1
    C0319     R0103     -1
    C0319     R0319     1
    C0320     R0008     1
    C0320     R0104     -1
    C0320     R0320     1
    C0321     R0009     1
    C0321     R0105     -1
    C0321     R0321     1
    C0322     R0010     1
    C0322     R0106     -1
    C0322     R0322     1
    C0323     R0011     1
    C0323     R0107     -1
    C0323     R0323     1
    C0324     R0012     1
    C0324     R0108     -1
    C0324     R0324     1
    C0325     R0013     1
    C0325     R0109     -1
    C0325     R0325     1
    C0326     R0014     1
    C0326     R0110     -1
    C0326     R0326     1
    C0327     R0015     1
    C0327     R0111     -1
    C0327     R0327     1
    C0328     R0016     1
    C0328     R0112     -1
    C0328     R0328     1
    C0329     R0017     1
    C0329     R0113     -1
    C0329     R0329     1
    C0330     R0018     1
    C0330     R0114     -1
    C0330     R0330     1
    C0331     R0019     1
    C0331     R0115     -1
    C0331     R0331     1
    C0332     R0020     1
    C0332     R0116     -1
    C0332     R0332     1
    C0333     R0021     1
    C0333     R0117     -1
    C0333     R0333     1
    C0334     R0022     1
    C0334     R0118     -1
    C0334     R0334     1
    C0335     R0023     1
    C0335     R0119     -1
    C0335     R0335     1
    C0336     R0024     1
    C0336     R0120     -1
    C0336     R0336     1
    C0337     OBJ       7.6353019686386387e+00
    C0337     R0217     1
    C0337     R0193     -1
    C0337     R0241     1
    C0337     R0026     1
    C0337     R0097     -1
    C0338     R0026     1
    C0338     R0098     -1
    C0338     R0122     -1
    C0338     R0338     1
    C0339     R0027     1
    C0339     R0099     -1
    C0339     R0123     -1
    C0339     R0339     1
    C0340     R0028     1
    C0340     R0100     -1
    C0340     R0124     -1
    C0340     R0340     1
    C0341     R0029     1
    C0341     R0101     -1
    C0341     R0125     -1
    C0341     R0341     1
    C0342     R0030     1
    C0342     R0102     -1
    C0342     R0126     -1
    C0342     R0342     1
    C0343     R0031     1
    C0343     R0103     -1
    C0343     R0127     -1
    C0343     R0343     1
    C0344     R0032     1
    C0344     R0104     -1
    C0344     R0128     -1
    C0344     R0344     1
    C0345     R0033     1
    C0345     R0105     -1
    C0345     R0129     -1
    C0345     R0345     1
    C0346     R0034     1
    C0346     R0106     -1
    C0346     R0130     -1
    C0346     R0346     1
    C0347     R0035     1
    C0347     R0107     -1
    C0347     R0131     -1
    C0347     R0347     1
    C0348     R0036     1
    C0348     R0108     -1
    C0348     R0132     -1
    C0348     R0348     1
    C0349     R0037     1
    C0349     R0109     -1
    C0349     R0133     -1
    C0349     R0349     1
    C0350     R0038     1
    C0350     R0110     -1
    C0350     R0134     -1
    C0350     R0350     1
    C0351     R0039     1
    C0351     R0111     -1
    C0351     R0135     -1
    C0351     R0351     1
    C0352     R0040     1
    C0352     R0112     -1
    C0352     R0136     -1
    C0352     R0352     1
    C0353     R0041     1
    C0353     R0113     -1
    C0353     R0137     -1
    C0353     R0353     1
    C0354     R0042     1
    C0354     R0114     -1
    C0354     R0138     -1
    C0354     R0354     1
    C0355     R0043     1
    C0355     R0115     -1
    C0355     R0139     -1
    C0355     R0355     1
    C0356     R0044     1
    C0356     R0116     -1
    C0356     R0140     -1
    C0356     R0356     1
    C0357     R0045     1
    C0357     R0117     -1
    C0357     R0141     -1
    C0357     R0357     1
    C0358     R0046     1
    C0358     R0118     -1
    C0358     R0142     -1
    C0358     R0358     1
    C0359     R0047     1
    C0359     R0119     -1
    C0359     R0143     -1
    C0359     R0359     1
    C0360     R0048     1
    C0360     R0120     -1
    C0360     R0144     -1
    C0360     R0360     1
    C0361     OBJ       7.8515181848548554e+00
    C0361     R0265     1
    C0361     R0217     2
    C0361     R0193     -1
    C0361     R0050     1
    C0362     R0050     1
    C0362     R0122     -1
    C0362     R0146     -1
    C0362     R0362     1
    C0363     R0051     1
    C0363     R0123     -1
    C0363     R0147     -1
    C0363     R0363     1
    C0364     R0052     1
    C0364     R0124     -1
    C0364     R0148     -1
    C0364     R0364     1
    C0365     R0053     1
    C0365     R0125     -1
    C0365     R0149     -1
    C0365     R0365     1
    C0366     R0054     1
    C0366     R0126     -1
    C0366     R0150     -1
    C0366     R0366     1
    C0367     R0055     1
    C0367     R0127     -1
    C0367     R0151     -1
    C0367     R0367     1
    C0368     R0056     1
    C0368     R0128     -1
    C0368     R0152     -1
    C0368     R0368     1
    C0369     R0057     1
    C0369     R0129     -1
    C0369     R0153     -1
    C0369     R0369     1
    C0370     R0058     1
    C0370     R0130     -1
    C0370     R0154     -1
    C0370     R0370     1
    C0371     R0059     1
    C0371     R0131     -1
    C0371     R0155     -1
    C0371     R0371     1
    C0372     R0060     1
    C0372     R0132     -1
    C0372     R0156     -1
    C0372     R0372     1
    C0373     R0061     1
    C0373     R0133     -1
    C0373     R0157     -1
    C0373     R0373     1
    C0374     R0062     1
    C0374     R0134     -1
    C0374     R0158     -1
    C0374     R0374     1
    C0375     R0063     1
    C0375     R0135     -1
    C0375     R0159     -1
    C0375     R0375     1
    C0376     R0064     1
    C0376     R0136     -1
    C0376     R0160     -1
    C0376     R0376     1
    C0377     R0065     1
    C0377     R0137     -1
    C0377     R0161     -1
    C0377     R0377     1
    C0378     R0066     1
    C0378     R0138     -1
    C0378     R0162     -1
    C0378     R0378     1
    C0379     R0067     1
    C0379     R0139     -1
    C0379     R0163     -1
    C0379     R0379     1
    C0380     R0068     1
    C0380     R0140     -1
    C0380     R0164     -1
    C0380     R0380     1
    C0381     R0069     1
    C0381     R0141     -1
    C0381     R0165     -1
    C0381     R0381     1
    C0382     R0070     1
    C0382     R0142     -1
    C0382     R0166     -1
    C0382     R0382     1
    C0383     R0071     1
    C0383     R0143     -1
    C0383     R0167     -1
    C0383     R0383     1
    C0384     R0072     1
    C0384     R0144     -1
    C0384     R0168     -1
    C0384     R0384     1
    C0386     R0074     1
    C0386     R0146     -1
    C0386     R0386     1
    C0387     R0075     1
    C0387     R0147     -1
    C0387     R0387     1
    C0388     R0076     1
    C0388     R0148     -1
    C0388     R0388     1
    C0389     R0077     1
    C0389     R0149     -1
    C0389     R0389     1
    C0390     R0078     1
    C0390     R0150     -1
    C0390     R0390     1
    C0391     R0079     1
    C0391     R0151     -1
    C0391     R0391     1
    C0392     R0080     1
    C0392     R0152     -1
    C0392     R0392     1
    C0393     R0081     1
    C0393     R0153     -1
    C0393     R0393     1
    C0394     R0082     1
    C0394     R0154     -1
    C0394     R0394     1
    C0395     R0083     1
    C0395     R0155     -1
    C0395     R0395     1
    C0396     R0084     1
    C0396     R0156     -1
    C0396     R0396     1
    C0397     R0085     1
    C0397     R0157     -1
    C0397     R0397     1
    C0398     R0086     1
    C0398     R0158     -1
    C0398     R0398     1
    C0399     R0087     1
    C0399     R0159     -1
    C0399     R0399     1
    C0400     R0088     1
    C0400     R0160     -1
    C0400     R0400     1
    C0401     R0089     1
    C0401     R0161     -1
    C0401     R0401     1
    C0402     R0090     1
    C0402     R0162     -1
    C0402     R0402     1
    C0403     R0091     1
    C0403     R0163     -1
    C0403     R0403     1
    C0404     R0092     1
    C0404     R0164     -1
    C0404     R0404     1
    C0405     R0093     1
    C0405     R0165     -1
    C0405     R0405     1
    C0406     R0094     1
    C0406     R0166     -1
    C0406     R0406     1
    C0407     R0095     1
    C0407     R0167     -1
    C0407     R0407     1
    C0408     R0096     1
    C0408     R0168     -1
    C0408     R0408     1
    C0410     R0098     1
    C0410     R0170     -1
    C0410     R0194     -1
    C0410     R0410     1
    C0411     R0099     1
    C0411     R0171     -1
    C0411     R0195     -1
    C0411     R0411     1
    C0412     R0100     1
    C0412     R0172     -1
    C0412     R0196     -1
    C0412     R0412     1
    C0413     R0101     1
    C0413     R0173     -1
    C0413     R0197     -1
    C0413     R0413     1
    C0414     R0102     1
    C0414     R0174     -1
    C0414     R0198     -1
    C0414     R0414     1
    C0415     R0103     1
    C0415     R0175     -1
    C0415     R0199     -1
    C0415     R0415     1
    C0416     R0104     1
    C0416     R0176     -1
    C0416     R0200     -1
    C0416     R0416     1
    C0417     R0105     1
    C0417     R0177     -1
    C0417     R0201     -1
    C0417     R0417     1
    C0418     R0106     1
    C0418     R0178     -1
    C0418     R0202     -1
    C0418     R0418     1
    C0419     R0107     1
    C0419     R0179     -1
    C0419     R0203     -1
    C0419     R0419     1
    C0420     R0108     1
    C0420     R0180     -1
    C0420     R0204     -1
    C0420     R0420     1
    C0421     R0109     1
    C0421     R0181     -1
    C0421     R0205     -1
    C0421     R0421     1
    C0422     R0110     1
    C0422     R0182     -1
    C0422     R0206     -1
    C0422     R0422     1
    C0423     R0111     1
    C0423     R0183     -1
    C0423     R0207     -1
    C0423     R0423     1
    C0424     R0112     1
    C0424     R0184     -1
    C0424     R0208     -1
    C0424     R0424     1
    C0425     R0113     1
    C0425     R0185     -1
    C0425     R0209     -1
    C0425     R0425     1
    C0426     R0114     1
    C0426     R0186     -1
    C0426     R0210     -1
    C0426     R0426     1
    C0427     R0115     1
    C0427     R0187     -1
    C0427     R0211     -1
    C0427     R0427     1
    C0428     R0116     1
    C0428     R0188     -1
    C0428     R0212     -1
    C0428     R0428     1
    C0429     R0117     1
    C0429     R0189     -1
    C0429     R0213     -1
    C0429     R0429     1
    C0430     R0118     1
    C0430     R0190     -1
    C0430     R0214     -1
    C0430     R0430     1
    C0431     R0119     1
    C0431     R0191     -1
    C0431     R0215     -1
    C0431     R0431     1
    C0432     R0120     1
    C0432     R0192     -1
    C0432     R0216     -1
    C0432     R0432     1
    C0434     OBJ       6.3530196863863864e-01
    C0434     R0122     1
    C0434     R0194     -1
    C0434     R0218     -1
    C0435     OBJ       6.3530196863863864e-01
    C0435     R0123     1
    C0435     R0195     -1
    C0435     R0219     -1
    C0436     OBJ       6.3530196863863864e-01
    C0436     R0124     1
    C0436     R0196     -1
    C0436     R0220     -1
    C0437     OBJ       6.3530196863863864e-01
    C0437     R0125     1
    C0437     R0197     -1
    C0437     R0221     -1
    C0438     OBJ       6.3530196863863864e-01
    C0438     R0126     1
    C0438     R0198     -1
    C0438     R0222     -1
    C0439     OBJ       6.3530196863863864e-01
    C0439     R0127     1
    C0439     R0199     -1
    C0439     R0223     -1
    C0440     OBJ       6.3530196863863864e-01
    C0440     R0128     1
    C0440     R0200     -1
    C0440     R0224     -1
    C0441     OBJ       6.3530196863863864e-01
    C0441     R0129     1
    C0441     R0201     -1
    C0441     R0225     -1
    C0442     OBJ       6.3530196863863864e-01
    C0442     R0130     1
    C0442     R0202     -1
    C0442     R0226     -1
    C0443     OBJ       6.3530196863863864e-01
    C0443     R0131     1
    C0443     R0203     -1
    C0443     R0227     -1
    C0444     OBJ       6.3530196863863864e-01
    C0444     R0132     1
    C0444     R0204     -1
    C0444     R0228     -1
    C0445     OBJ       6.3530196863863864e-01
    C0445     R0133     1
    C0445     R0205     -1
    C0445     R0229     -1
    C0446     OBJ       6.3530196863863864e-01
    C0446     R0134     1
    C0446     R0206     -1
    C0446     R0230     -1
    C0447     OBJ       6.3530196863863864e-01
    C0447     R0135     1
    C0447     R0207     -1
    C0447     R0231     -1
    C0448     OBJ       6.3530196863863864e-01
    C0448     R0136     1
    C0448     R0208     -1
    C0448     R0232     -1
    C0449     OBJ       6.3530196863863864e-01
    C0449     R0137     1
    C0449     R0209     -1
    C0449     R0233     -1
    C0450     OBJ       6.3530196863863864e-01
    C0450     R0138     1
    C0450     R0210     -1
    C0450     R0234     -1
    C0451     OBJ       6.3530196863863864e-01
    C0451     R0139     1
    C0451     R0211     -1
    C0451     R0235     -1
    C0452     OBJ       6.3530196863863864e-01
    C0452     R0140     1
    C0452     R0212     -1
    C0452     R0236     -1
    C0453     OBJ       6.3530196863863864e-01
    C0453     R0141     1
    C0453     R0213     -1
    C0453     R0237     -1
    C0454     OBJ       6.3530196863863864e-01
    C0454     R0142     1
    C0454     R0214     -1
    C0454     R0238     -1
    C0455     OBJ       6.3530196863863864e-01
    C0455     R0143     1
    C0455     R0215     -1
    C0455     R0239     -1
    C0456     OBJ       6.3530196863863864e-01
    C0456     R0144     1
    C0456     R0216     -1
    C0456     R0240     -1
    C0458     OBJ       1.2162162162162162e+00
    C0458     R0146     1
    C0458     R0218     -1
    C0459     OBJ       1.2162162162162162e+00
    C0459     R0147     1
    C0459     R0219     -1
    C0460     OBJ       1.2162162162162162e+00
    C0460     R0148     1
    C0460     R0220     -1
    C0461     OBJ       1.2162162162162162e+00
    C0461     R0149     1
    C0461     R0221     -1
    C0462     OBJ       1.2162162162162162e+00
    C0462     R0150     1
    C0462     R0222     -1
    C0463     OBJ       1.2162162162162162e+00
    C0463     R0151     1
    C0463     R0223     -1
    C0464     OBJ       1.2162162162162162e+00
    C0464     R0152     1
    C0464     R0224     -1
    C0465     OBJ       1.2162162162162162e+00
    C0465     R0153     1
    C0465     R0225     -1
    C0466     OBJ       1.2162162162162162e+00
    C0466     R0154     1
    C0466     R0226     -1
    C0467     OBJ       1.2162162162162162e+00
    C0467     R0155     1
    C0467     R0227     -1
    C0468     OBJ       1.2162162162162162e+00
    C0468     R0156     1
    C0468     R0228     -1
    C0469     OBJ       1.2162162162162162e+00
    C0469     R0157     1
    C0469     R0229     -1
    C0470     OBJ       1.2162162162162162e+00
    C0470     R0158     1
    C0470     R0230     -1
    C0471     OBJ       1.2162162162162162e+00
    C0471     R0159     1
    C0471     R0231     -1
    C0472     OBJ       1.2162162162162162e+00
    C0472     R0160     1
    C0472     R0232     -1
    C0473     OBJ       1.2162162162162162e+00
    C0473     R0161     1
    C0473     R0233     -1
    C0474     OBJ       1.2162162162162162e+00
    C0474     R0162     1
    C0474     R0234     -1
    C0475     OBJ       1.2162162162162162e+00
    C0475     R0163     1
    C0475     R0235     -1
    C0476     OBJ       1.2162162162162162e+00
    C0476     R0164     1
    C0476     R0236     -1
    C0477     OBJ       1.2162162162162162e+00
    C0477     R0165     1
    C0477     R0237     -1
    C0478     OBJ       1.2162162162162162e+00
    C0478     R0166     1
    C0478     R0238     -1
    C0479     OBJ       1.2162162162162162e+00
    C0479     R0167     1
    C0479     R0239     -1
    C0480     OBJ       1.2162162162162162e+00
    C0480     R0168     1
    C0480     R0240     -1
    C0481     OBJ       8.0447113780780788e-01
    C0481     R0193     -1
    C0481     R0097     1
    C0482     OBJ       8.0447113780780788e-01
    C0482     R0170     1
    C0483     OBJ       8.0447113780780788e-01
    C0483     R0171     1
    C0484     OBJ       8.0447113780780788e-01
    C0484     R0172     1
    C0485     OBJ       8.0447113780780788e-01
    C0485     R0173     1
    C0486     OBJ       8.0447113780780788e-01
    C0486     R0174     1
    C0487     OBJ       8.0447113780780788e-01
    C0487     R0175     1
    C0488     OBJ       8.0447113780780788e-01
    C0488     R0176     1
    C0489     OBJ       8.0447113780780788e-01
    C0489     R0177     1
    C0490     OBJ       8.0447113780780788e-01
    C0490     R0178     1
    C0491     OBJ       8.0447113780780788e-01
    C0491     R0179     1
    C0492     OBJ       8.0447113780780788e-01
    C0492     R0180     1
    C0493     OBJ       8.0447113780780788e-01
    C0493     R0181     1
    C0494     OBJ       8.0447113780780788e-01
    C0494     R0182     1
    C0495     OBJ       8.0447113780780788e-01
    C0495     R0183     1
    C0496     OBJ       8.0447113780780788e-01
    C0496     R0184     1
    C0497     OBJ       8.0447113780780788e-01
    C0497     R0185     1
    C0498     OBJ       8.0447113780780788e-01
    C0498     R0186     1
    C0499     OBJ       8.0447113780780788e-01
    C0499     R0187     1
    C0500     OBJ       8.0447113780780788e-01
    C0500     R0188     1
    C0501     OBJ       8.0447113780780788e-01
    C0501     R0189     1
    C0502     OBJ       8.0447113780780788e-01
    C0502     R0190     1
    C0503     OBJ       8.0447113780780788e-01
    C0503     R0191     1
    C0504     OBJ       8.0447113780780788e-01
    C0504     R0192     1
    C0505     OBJ       1.4397731064064065e+00
    C0505     R0193     1
    C0506     OBJ       1.4397731064064065e+00
    C0506     R0194     1
    C0507     OBJ       1.4397731064064065e+00
    C0507     R0195     1
    C0508     OBJ       1.4397731064064065e+00
    C0508     R0196     1
    C0509     OBJ       1.4397731064064065e+00
    C0509     R0197     1
    C0510     OBJ       1.4397731064064065e+00
    C0510     R0198     1
    C0511     OBJ       1.4397731064064065e+00
    C0511     R0199     1
    C0512     OBJ       1.4397731064064065e+00
    C0512     R0200     1
    C0513     R0201     1
    C0513     R0513     1
    C0514     R0202     1
    C0514     R0514     1
    C0515     R0203     1
    C0515     R0515     1
    C0516     R0204     1
    C0516     R0516     1
    C0517     R0205     1
    C0517     R0517     1
    C0518     R0206     1
    C0518     R0518     1
    C0519     R0207     1
    C0519     R0519     1
    C0520     R0208     1
    C0520     R0520     1
    C0521     R0209     1
    C0521     R0521     1
    C0522     R0210     1
    C0522     R0522     1
    C0523     R0211     1
    C0523     R0523     1
    C0524     R0212     1
    C0524     R0524     1
    C0525     R0213     1
    C0525     R0525     1
    C0526     R0214     1
    C0526     R0526     1
    C0527     R0215     1
    C0527     R0527     1
    C0528     R0216     1
    C0528     R0528     1
    C0530     R0218     1
    C0530     R0530     1
    C0531     R0219     1
    C0531     R0531     1
    C0532     R0220     1
    C0532     R0532     1
    C0533     R0221     1
    C0533     R0533     1
    C0534     R0222     1
    C0534     R0534     1
    C0535     R0223     1
    C0535     R0535     1
    C0536     R0224     1
    C0536     R0536     1
    C0537     R0225     1
    C0537     R0537     1
    C0538     R0226     1
    C0538     R0538     1
    C0539     R0227     1
    C0539     R0539     1
    C0540     R0228     1
    C0540     R0540     1
    C0541     R0229     1
    C0541     R0541     1
    C0542     R0230     1
    C0542     R0542     1
    C0543     R0231     1
    C0543     R0543     1
    C0544     R0232     1
    C0544     R0544     1
    C0545     R0233     1
    C0545     R0545     1
    C0546     R0234     1
    C0546     R0546     1
    C0547     R0235     1
    C0547     R0547     1
    C0548     R0236     1
    C0548     R0548     1
    C0549     R0237     1
    C0549     R0549     1
    C0550     R0238     1
    C0550     R0550     1
    C0551     R0239     1
    C0551     R0551     1
    C0552     R0240     1
    C0552     R0552     1
    MARKER    'MARKER'                 'INTORG'
    C0554     OBJ       563
    C0554     R0314     -999
    C0555     OBJ       563
    C0555     R0315     -999
    C0556     OBJ       563
    C0556     R0316     -999
    C0557     OBJ       563
    C0557     R0317     -999
    C0558     OBJ       563
    C0558     R0318     -999
    C0559     OBJ       563
    C0559     R0319     -999
    C0560     OBJ       563
    C0560     R0320     -999
    C0561     OBJ       563
    C0561     R0321     -999
    C0562     OBJ       563
    C0562     R0322     -999
    C0563     OBJ       563
    C0563     R0323     -999
    C0564     OBJ       563
    C0564     R0324     -999
    C0565     OBJ       563
    C0565     R0325     -999
    C0566     OBJ       563
    C0566     R0326     -999
    C0567     OBJ       563
    C0567     R0327     -999
    C0568     OBJ       563
    C0568     R0328     -999
    C0569     OBJ       563
    C0569     R0329     -999
    C0570     OBJ       563
    C0570     R0330     -999
    C0571     OBJ       563
    C0571     R0331     -999
    C0572     OBJ       563
    C0572     R0332     -999
    C0573     OBJ       563
    C0573     R0333     -999
    C0574     OBJ       563
    C0574     R0334     -999
    C0575     OBJ       563
    C0575     R0335     -999
    C0576     OBJ       563
    C0576     R0336     -999
    C0578     OBJ       240.66666667
    C0578     R0338     -999
    C0579     OBJ       240.66666667
    C0579     R0339     -999
    C0580     OBJ       240.66666667
    C0580     R0340     -999
    C0581     OBJ       240.66666667
    C0581     R0341     -999
    C0582     OBJ       240.66666667
    C0582     R0342     -999
    C0583     OBJ       240.66666667
    C0583     R0343     -999
    C0584     OBJ       240.66666667
    C0584     R0344     -999
    C0585     OBJ       240.66666667
    C0585     R0345     -999
    C0586     OBJ       240.66666667
    C0586     R0346     -999
    C0587     OBJ       240.66666667
    C0587     R0347     -999
    C0588     OBJ       240.66666667
    C0588     R0348     -999
    C0589     OBJ       240.66666667
    C0589     R0349     -999
    C0590     OBJ       240.66666667
    C0590     R0350     -999
    C0591     OBJ       240.66666667
    C0591     R0351     -999
    C0592     OBJ       240.66666667
    C0592     R0352     -999
    C0593     OBJ       240.66666667
    C0593     R0353     -999
    C0594     OBJ       240.66666667
    C0594     R0354     -999
    C0595     OBJ       240.66666667
    C0595     R0355     -999
    C0596     OBJ       240.66666667
    C0596     R0356     -999
    C0597     OBJ       240.66666667
    C0597     R0357     -999
    C0598     OBJ       240.66666667
    C0598     R0358     -999
    C0599     OBJ       240.66666667
    C0599     R0359     -999
    C0600     OBJ       240.66666667
    C0600     R0360     -999
    C0602     OBJ       394
    C0602     R0362     -999
    C0603     OBJ       394
    C0603     R0363     -999
    C0604     OBJ       394
    C0604     R0364     -999
    C0605     OBJ       394
    C0605     R0365     -999
    C0606     OBJ       394
    C0606     R0366     -999
    C0607     OBJ       394
    C0607     R0367     -999
    C0608     OBJ       394
    C0608     R0368     -999
    C0609     OBJ       394
    C0609     R0369     -999
    C0610     OBJ       394
    C0610     R0370     -999
    C0611     OBJ       394
    C0611     R0371     -999
    C0612     OBJ       394
    C0612     R0372     -999
    C0613     OBJ       394
    C0613     R0373     -999
    C0614     OBJ       394
    C0614     R0374     -999
    C0615     OBJ       394
    C0615     R0375     -999
    C0616     OBJ       394
    C0616     R0376     -999
    C0617     OBJ       394
    C0617     R0377     -999
    C0618     OBJ       394
    C0618     R0378     -999
    C0619     OBJ       394
    C0619     R0379     -999
    C0620     OBJ       394
    C0620     R0380     -999
    C0621     OBJ       394
    C0621     R0381     -999
    C0622     OBJ       394
    C0622     R0382     -999
    C0623     OBJ       394
    C0623     R0383     -999
    C0624     OBJ       394
    C0624     R0384     -999
    C0626     OBJ       821
    C0626     R0386     -999
    C0627     OBJ       821
    C0627     R0387     -999
    C0628     OBJ       821
    C0628     R0388     -999
    C0629     OBJ       821
    C0629     R0389     -999
    C0630     OBJ       821
    C0630     R0390     -999
    C0631     OBJ       821
    C0631     R0391     -999
    C0632     OBJ       821
    C0632     R0392     -999
    C0633     OBJ       821
    C0633     R0393     -999
    C0634     OBJ       821
    C0634     R0394     -999
    C0635     OBJ       821
    C0635     R0395     -999
    C0636     OBJ       821
    C0636     R0396     -999
    C0637     OBJ       821
    C0637     R0397     -999
    C0638     OBJ       821
    C0638     R0398     -999
    C0639     OBJ       821
    C0639     R0399     -999
    C0640     OBJ       821
    C0640     R0400     -999
    C0641     OBJ       821
    C0641     R0401     -999
    C0642     OBJ       821
    C0642     R0402     -999
    C0643     OBJ       821
    C0643     R0403     -999
    C0644     OBJ       821
    C0644     R0404     -999
    C0645     OBJ       821
    C0645     R0405     -999
    C0646     OBJ       821
    C0646     R0406     -999
    C0647     OBJ       821
    C0647     R0407     -999
    C0648     OBJ       821
    C0648     R0408     -999
    C0650     OBJ       803.66666667
    C0650     R0410     -999
    C0651     OBJ       803.66666667
    C0651     R0411     -999
    C0652     OBJ       803.66666667
    C0652     R0412     -999
    C0653     OBJ       803.66666667
    C0653     R0413     -999
    C0654     OBJ       803.66666667
    C0654     R0414     -999
    C0655     OBJ       803.66666667
    C0655     R0415     -999
    C0656     OBJ       803.66666667
    C0656     R0416     -999
    C0657     OBJ       803.66666667
    C0657     R0417     -999
    C0658     OBJ       803.66666667
    C0658     R0418     -999
    C0659     OBJ       803.66666667
    C0659     R0419     -999
    C0660     OBJ       803.66666667
    C0660     R0420     -999
    C0661     OBJ       803.66666667
    C0661     R0421     -999
    C0662     OBJ       803.66666667
    C0662     R0422     -999
    C0663     OBJ       803.66666667
    C0663     R0423     -999
    C0664     OBJ       803.66666667
    C0664     R0424     -999
    C0665     OBJ       803.66666667
    C0665     R0425     -999
    C0666     OBJ       803.66666667
    C0666     R0426     -999
    C0667     OBJ       803.66666667
    C0667     R0427     -999
    C0668     OBJ       803.66666667
    C0668     R0428     -999
    C0669     OBJ       803.66666667
    C0669     R0429     -999
    C0670     OBJ       803.66666667
    C0670     R0430     -999
    C0671     OBJ       803.66666667
    C0671     R0431     -999
    C0672     OBJ       803.66666667
    C0672     R0432     -999
    C0753     OBJ       1438.3333333
    C0753     R0513     -999
    C0754     OBJ       1438.3333333
    C0754     R0514     -999
    C0755     OBJ       1438.3333333
    C0755     R0515     -999
    C0756     OBJ       1438.3333333
    C0756     R0516     -999
    C0757     OBJ       1438.3333333
    C0757     R0517     -999
    C0758     OBJ       1438.3333333
    C0758     R0518     -999
    C0759     OBJ       1438.3333333
    C0759     R0519     -999
    C0760     OBJ       1438.3333333
    C0760     R0520     -999
    C0761     OBJ       1438.3333333
    C0761     R0521     -999
    C0762     OBJ       1438.3333333
    C0762     R0522     -999
    C0763     OBJ       1438.3333333
    C0763     R0523     -999
    C0764     OBJ       1438.3333333
    C0764     R0524     -999
    C0765     OBJ       1438.3333333
    C0765     R0525     -999
    C0766     OBJ       1438.3333333
    C0766     R0526     -999
    C0767     OBJ       1438.3333333
    C0767     R0527     -999
    C0768     OBJ       1438.3333333
    C0768     R0528     -999
    C0770     OBJ       1849.6666667
    C0770     R0530     -999
    C0771     OBJ       1849.6666667
    C0771     R0531     -999
    C0772     OBJ       1849.6666667
    C0772     R0532     -999
    C0773     OBJ       1849.6666667
    C0773     R0533     -999
    C0774     OBJ       1849.6666667
    C0774     R0534     -999
    C0775     OBJ       1849.6666667
    C0775     R0535     -999
    C0776     OBJ       1849.6666667
    C0776     R0536     -999
    C0777     OBJ       1849.6666667
    C0777     R0537     -999
    C0778     OBJ       1849.6666667
    C0778     R0538     -999
    C0779     OBJ       1849.6666667
    C0779     R0539     -999
    C0780     OBJ       1849.6666667
    C0780     R0540     -999
    C0781     OBJ       1849.6666667
    C0781     R0541     -999
    C0782     OBJ       1849.6666667
    C0782     R0542     -999
    C0783     OBJ       1849.6666667
    C0783     R0543     -999
    C0784     OBJ       1849.6666667
    C0784     R0544     -999
    C0785     OBJ       1849.6666667
    C0785     R0545     -999
    C0786     OBJ       1849.6666667
    C0786     R0546     -999
    C0787     OBJ       1849.6666667
    C0787     R0547     -999
    C0788     OBJ       1849.6666667
    C0788     R0548     -999
    C0789     OBJ       1849.6666667
    C0789     R0549     -999
    C0790     OBJ       1849.6666667
    C0790     R0550     -999
    C0791     OBJ       1849.6666667
    C0791     R0551     -999
    C0792     OBJ       1849.6666667
    C0792     R0552     -999
    MARKER    'MARKER'                 'INTEND'
RHS
    RHS1      OBJ       -4.3023243243643237e+03
    RHS1      R0002     80
    RHS1      R0003     73
    RHS1      R0004     75
    RHS1      R0005     55
    RHS1      R0006     62
    RHS1      R0007     73
    RHS1      R0008     69
    RHS1      R0009     66
    RHS1      R0010     72
    RHS1      R0011     78
    RHS1      R0012     73
    RHS1      R0013     79
    RHS1      R0014     66
    RHS1      R0015     66
    RHS1      R0016     77
    RHS1      R0017     57
    RHS1      R0018     78
    RHS1      R0019     67
    RHS1      R0020     59
    RHS1      R0021     86
    RHS1      R0022     68
    RHS1      R0023     62
    RHS1      R0024     84
    RHS1      R0026     57
    RHS1      R0027     31
    RHS1      R0028     32
    RHS1      R0029     31
    RHS1      R0030     30
    RHS1      R0031     34
    RHS1      R0032     28
    RHS1      R0033     29
    RHS1      R0034     30
    RHS1      R0035     27
    RHS1      R0036     26
    RHS1      R0037     36
    RHS1      R0038     26
    RHS1      R0039     30
    RHS1      R0040     31
    RHS1      R0041     26
    RHS1      R0042     37
    RHS1      R0043     33
    RHS1      R0044     31
    RHS1      R0045     27
    RHS1      R0046     29
    RHS1      R0047     29
    RHS1      R0048     32
    RHS1      R0050     101
    RHS1      R0051     52
    RHS1      R0052     52
    RHS1      R0053     48
    RHS1      R0054     47
    RHS1      R0055     51
    RHS1      R0056     52
    RHS1      R0057     50
    RHS1      R0058     53
    RHS1      R0059     48
    RHS1      R0060     51
    RHS1      R0061     54
    RHS1      R0062     47
    RHS1      R0063     49
    RHS1      R0064     53
    RHS1      R0065     47
    RHS1      R0066     45
    RHS1      R0067     50
    RHS1      R0068     47
    RHS1      R0069     40
    RHS1      R0070     48
    RHS1      R0071     50
    RHS1      R0072     47
    RHS1      R0074     119
    RHS1      R0075     104
    RHS1      R0076     104
    RHS1      R0077     95
    RHS1      R0078     115
    RHS1      R0079     106
    RHS1      R0080     100
    RHS1      R0081     114
    RHS1      R0082     106
    RHS1      R0083     105
    RHS1      R0084     133
    RHS1      R0085     89
    RHS1      R0086     99
    RHS1      R0087     79
    RHS1      R0088     90
    RHS1      R0089     124
    RHS1      R0090     98
    RHS1      R0091     117
    RHS1      R0092     89
    RHS1      R0093     84
    RHS1      R0094     103
    RHS1      R0095     105
    RHS1      R0096     91
    RHS1      R0097     64
    RHS1      R0217     905
    RHS1      R0241     227.76851852
    RHS1      R0242     199.76851852
    RHS1      R0243     199.76851852
    RHS1      R0244     199.76851852
    RHS1      R0245     199.76851852
    RHS1      R0246     199.76851852
    RHS1      R0247     199.76851852
    RHS1      R0248     199.76851852
    RHS1      R0249     199.76851852
    RHS1      R0250     199.76851852
    RHS1      R0251     199.76851852
    RHS1      R0252     199.76851852
    RHS1      R0253     199.76851852
    RHS1      R0254     199.76851852
    RHS1      R0255     199.76851852
    RHS1      R0256     199.76851852
    RHS1      R0257     199.76851852
    RHS1      R0258     199.76851852
    RHS1      R0259     199.76851852
    RHS1      R0260     199.76851852
    RHS1      R0261     199.76851852
    RHS1      R0262     199.76851852
    RHS1      R0263     199.76851852
    RHS1      R0264     199.76851852
    RHS1      R0265     385.5
    RHS1      R0266     337.5
    RHS1      R0267     337.5
    RHS1      R0268     337.5
    RHS1      R0269     337.5
    RHS1      R0270     337.5
    RHS1      R0271     337.5
    RHS1      R0272     337.5
    RHS1      R0273     337.5
    RHS1      R0274     337.5
    RHS1      R0275     337.5
    RHS1      R0276     337.5
    RHS1      R0277     337.5
    RHS1      R0278     337.5
    RHS1      R0279     337.5
    RHS1      R0280     337.5
    RHS1      R0281     337.5
    RHS1      R0282     337.5
    RHS1      R0283     337.5
    RHS1      R0284     337.5
    RHS1      R0285     337.5
    RHS1      R0286     337.5
    RHS1      R0287     337.5
    RHS1      R0288     337.5
    RHS1      R0289     679.90740741
    RHS1      R0290     679.90740741
    RHS1      R0291     679.90740741
    RHS1      R0292     679.90740741
    RHS1      R0293     679.90740741
    RHS1      R0294     679.90740741
    RHS1      R0295     679.90740741
    RHS1      R0296     679.90740741
    RHS1      R0297     679.90740741
    RHS1      R0298     679.90740741
    RHS1      R0299     679.90740741
    RHS1      R0300     679.90740741
    RHS1      R0301     679.90740741
    RHS1      R0302     679.90740741
    RHS1      R0303     679.90740741
    RHS1      R0304     679.90740741
    RHS1      R0305     679.90740741
    RHS1      R0306     679.90740741
    RHS1      R0307     679.90740741
    RHS1      R0308     679.90740741
    RHS1      R0309     679.90740741
    RHS1      R0310     679.90740741
    RHS1      R0311     679.90740741
    RHS1      R0312     679.90740741
BOUNDS
 UP BND1      C0001     831
 UP BND1      C0002     1750
 UP BND1      C0003     2676
 UP BND1      C0004     3600
 UP BND1      C0005     4544
 UP BND1      C0006     5481
 UP BND1      C0007     6407
 UP BND1      C0008     7337
 UP BND1      C0009     8270
 UP BND1      C0010     9197
 UP BND1      C0011     10118
 UP BND1      C0012     11044
 UP BND1      C0013     11964
 UP BND1      C0014     12897
 UP BND1      C0015     13830
 UP BND1      C0016     14752
 UP BND1      C0017     15694
 UP BND1      C0018     16615
 UP BND1      C0019     17547
 UP BND1      C0020     18487
 UP BND1      C0021     19400
 UP BND1      C0022     20331
 UP BND1      C0023     21268
 UP BND1      C0024     22183
 UP BND1      C0026     1751
 UP BND1      C0027     2719
 UP BND1      C0028     3686
 UP BND1      C0029     4654
 UP BND1      C0030     5623
 UP BND1      C0031     6588
 UP BND1      C0032     7559
 UP BND1      C0033     8529
 UP BND1      C0034     9498
 UP BND1      C0035     10470
 UP BND1      C0036     11443
 UP BND1      C0037     12406
 UP BND1      C0038     13379
 UP BND1      C0039     14348
 UP BND1      C0040     15316
 UP BND1      C0041     16289
 UP BND1      C0042     17251
 UP BND1      C0043     18217
 UP BND1      C0044     19185
 UP BND1      C0045     20157
 UP BND1      C0046     21127
 UP BND1      C0047     22097
 UP BND1      C0048     23064
 UP BND1      C0050     1336.5
 UP BND1      C0051     2283.5
 UP BND1      C0052     3230.5
 UP BND1      C0053     4181.5
 UP BND1      C0054     5133.5
 UP BND1      C0055     6081.5
 UP BND1      C0056     7028.5
 UP BND1      C0057     7977.5
 UP BND1      C0058     8923.5
 UP BND1      C0059     9874.5
 UP BND1      C0060     10822.5
 UP BND1      C0061     11767.5
 UP BND1      C0062     12719.5
 UP BND1      C0063     13669.5
 UP BND1      C0064     14615.5
 UP BND1      C0065     15567.5
 UP BND1      C0066     16521.5
 UP BND1      C0067     17470.5
 UP BND1      C0068     18422.5
 UP BND1      C0069     19381.5
 UP BND1      C0070     20332.5
 UP BND1      C0071     21281.5
 UP BND1      C0072     22233.5
 UP BND1      C0073     781
 UP BND1      C0074     1661
 UP BND1      C0075     2556
 UP BND1      C0076     3451
 UP BND1      C0077     4355
 UP BND1      C0078     5239
 UP BND1      C0079     6132
 UP BND1      C0080     7031
 UP BND1      C0081     7916
 UP BND1      C0082     8809
 UP BND1      C0083     9703
 UP BND1      C0084     10569
 UP BND1      C0085     11479
 UP BND1      C0086     12379
 UP BND1      C0087     13299
 UP BND1      C0088     14208
 UP BND1      C0089     15083
 UP BND1      C0090     15984
 UP BND1      C0091     16866
 UP BND1      C0092     17776
 UP BND1      C0093     18691
 UP BND1      C0094     19587
 UP BND1      C0095     20481
 UP BND1      C0096     21389
 UP BND1      C0097     831
 UP BND1      C0098     1830
 UP BND1      C0099     2829
 UP BND1      C0100     3828
 UP BND1      C0101     4827
 UP BND1      C0102     5826
 UP BND1      C0103     6825
 UP BND1      C0104     7824
 UP BND1      C0105     8823
 UP BND1      C0106     9822
 UP BND1      C0107     10821
 UP BND1      C0108     11820
 UP BND1      C0109     12819
 UP BND1      C0110     13818
 UP BND1      C0111     14817
 UP BND1      C0112     15816
 UP BND1      C0113     16815
 UP BND1      C0114     17814
 UP BND1      C0115     18813
 UP BND1      C0116     19812
 UP BND1      C0117     20811
 UP BND1      C0118     21810
 UP BND1      C0119     22809
 UP BND1      C0120     23808
 UP BND1      C0121     781
 UP BND1      C0122     1780
 UP BND1      C0123     2779
 UP BND1      C0124     3778
 UP BND1      C0125     4777
 UP BND1      C0126     5776
 UP BND1      C0127     6775
 UP BND1      C0128     7774
 UP BND1      C0129     8773
 UP BND1      C0130     9772
 UP BND1      C0131     10771
 UP BND1      C0132     11770
 UP BND1      C0133     12769
 UP BND1      C0134     13768
 UP BND1      C0135     14767
 UP BND1      C0136     15766
 UP BND1      C0137     16765
 UP BND1      C0138     17764
 UP BND1      C0139     18763
 UP BND1      C0140     19762
 UP BND1      C0141     20761
 UP BND1      C0142     21760
 UP BND1      C0143     22759
 UP BND1      C0144     23758
 UP BND1      C0145     781
 UP BND1      C0146     1780
 UP BND1      C0147     2779
 UP BND1      C0148     3778
 UP BND1      C0149     4777
 UP BND1      C0150     5776
 UP BND1      C0151     6775
 UP BND1      C0152     7774
 UP BND1      C0153     8773
 UP BND1      C0154     9772
 UP BND1      C0155     10771
 UP BND1      C0156     11770
 UP BND1      C0157     12769
 UP BND1      C0158     13768
 UP BND1      C0159     14767
 UP BND1      C0160     15766
 UP BND1      C0161     16765
 UP BND1      C0162     17764
 UP BND1      C0163     18763
 UP BND1      C0164     19762
 UP BND1      C0165     20761
 UP BND1      C0166     21760
 UP BND1      C0167     22759
 UP BND1      C0168     23758
 UP BND1      C0169     907
 UP BND1      C0170     1906
 UP BND1      C0171     2905
 UP BND1      C0172     3904
 UP BND1      C0173     4903
 UP BND1      C0174     5902
 UP BND1      C0175     6901
 UP BND1      C0176     7900
 UP BND1      C0177     8899
 UP BND1      C0178     9898
 UP BND1      C0179     10897
 UP BND1      C0180     11896
 UP BND1      C0181     12895
 UP BND1      C0182     13894
 UP BND1      C0183     14893
 UP BND1      C0184     15892
 UP BND1      C0185     16891
 UP BND1      C0186     17890
 UP BND1      C0187     18889
 UP BND1      C0188     19888
 UP BND1      C0189     20887
 UP BND1      C0190     21886
 UP BND1      C0191     22885
 UP BND1      C0192     23884
 UP BND1      C0193     831
 UP BND1      C0194     1830
 UP BND1      C0195     2829
 UP BND1      C0196     3828
 UP BND1      C0197     4827
 UP BND1      C0198     5826
 UP BND1      C0199     6825
 UP BND1      C0200     7824
 UP BND1      C0201     8823
 UP BND1      C0202     9822
 UP BND1      C0203     10821
 UP BND1      C0204     11820
 UP BND1      C0205     12819
 UP BND1      C0206     13818
 UP BND1      C0207     14817
 UP BND1      C0208     15816
 UP BND1      C0209     16815
 UP BND1      C0210     17814
 UP BND1      C0211     18813
 UP BND1      C0212     19812
 UP BND1      C0213     20811
 UP BND1      C0214     21810
 UP BND1      C0215     22809
 UP BND1      C0216     23808
 UP BND1      C0217     781
 UP BND1      C0218     1780
 UP BND1      C0219     2779
 UP BND1      C0220     3778
 UP BND1      C0221     4777
 UP BND1      C0222     5776
 UP BND1      C0223     6775
 UP BND1      C0224     7774
 UP BND1      C0225     8773
 UP BND1      C0226     9772
 UP BND1      C0227     10771
 UP BND1      C0228     11770
 UP BND1      C0229     12769
 UP BND1      C0230     13768
 UP BND1      C0231     14767
 UP BND1      C0232     15766
 UP BND1      C0233     16765
 UP BND1      C0234     17764
 UP BND1      C0235     18763
 UP BND1      C0236     19762
 UP BND1      C0237     20761
 UP BND1      C0238     21760
 UP BND1      C0239     22759
 UP BND1      C0240     23758
 UP BND1      C0241     2.1932314814800006e+03
 UP BND1      C0242     5.0812314814800011e+03
 UP BND1      C0243     7.9742314814800020e+03
 UP BND1      C0244     1.0864231481480001e+04
 UP BND1      C0245     1.3775231481480003e+04
 UP BND1      C0246     1.6680231481480005e+04
 UP BND1      C0247     1.9570231481480005e+04
 UP BND1      C0248     2.2470231481480005e+04
 UP BND1      C0249     2.5372231481480008e+04
 UP BND1      C0250     2.8267231481480008e+04
 UP BND1      C0251     3.1159231481480008e+04
 UP BND1      C0252     3.4057231481480005e+04
 UP BND1      C0253     3.6939231481480005e+04
 UP BND1      C0254     3.9844231481480005e+04
 UP BND1      C0255     4.2745231481480005e+04
 UP BND1      C0256     4.5634231481480005e+04
 UP BND1      C0257     4.8548231481480005e+04
 UP BND1      C0258     5.1430231481480012e+04
 UP BND1      C0259     5.4327231481480012e+04
 UP BND1      C0260     5.7234231481480012e+04
 UP BND1      C0261     6.0118231481480012e+04
 UP BND1      C0262     6.3018231481480012e+04
 UP BND1      C0263     6.5924231481480019e+04
 UP BND1      C0264     6.8805231481480019e+04
 UP BND1      C0265     1615
 UP BND1      C0266     4440
 UP BND1      C0267     7281
 UP BND1      C0268     10122
 UP BND1      C0269     12976
 UP BND1      C0270     15811
 UP BND1      C0271     18651
 UP BND1      C0272     21496
 UP BND1      C0273     24329
 UP BND1      C0274     27167
 UP BND1      C0275     30011
 UP BND1      C0276     32824
 UP BND1      C0277     35678
 UP BND1      C0278     38529
 UP BND1      C0279     41398
 UP BND1      C0280     44252
 UP BND1      C0281     47078
 UP BND1      C0282     49932
 UP BND1      C0283     52762
 UP BND1      C0284     55623
 UP BND1      C0285     58496
 UP BND1      C0286     61342
 UP BND1      C0287     64184
 UP BND1      C0288     67043
 UP BND1      C0289     2.6700925925900005e+03
 UP BND1      C0290     6.6660925925900019e+03
 UP BND1      C0291     1.0662092592590001e+04
 UP BND1      C0292     1.4658092592590003e+04
 UP BND1      C0293     1.8654092592590005e+04
 UP BND1      C0294     2.2650092592590005e+04
 UP BND1      C0295     2.6646092592590008e+04
 UP BND1      C0296     3.0642092592590008e+04
 UP BND1      C0297     3.4638092592590008e+04
 UP BND1      C0298     3.8634092592590008e+04
 UP BND1      C0299     4.2630092592590008e+04
 UP BND1      C0300     4.6626092592590008e+04
 UP BND1      C0301     5.0622092592590016e+04
 UP BND1      C0302     5.4618092592590016e+04
 UP BND1      C0303     5.8614092592590016e+04
 UP BND1      C0304     6.2610092592590016e+04
 UP BND1      C0305     6.6606092592590008e+04
 UP BND1      C0306     7.0602092592590008e+04
 UP BND1      C0307     7.4598092592590008e+04
 UP BND1      C0308     7.8594092592590008e+04
 UP BND1      C0309     8.2590092592590008e+04
 UP BND1      C0310     8.6586092592590008e+04
 UP BND1      C0311     9.0582092592590008e+04
 UP BND1      C0312     9.4578092592590008e+04
 UP BND1      C0314     999
 UP BND1      C0315     999
 UP BND1      C0316     999
 UP BND1      C0317     999
 UP BND1      C0318     999
 UP BND1      C0319     999
 UP BND1      C0320     999
 UP BND1      C0321     999
 UP BND1      C0322     999
 UP BND1      C0323     999
 UP BND1      C0324     999
 UP BND1      C0325     999
 UP BND1      C0326     999
 UP BND1      C0327     999
 UP BND1      C0328     999
 UP BND1      C0329     999
 UP BND1      C0330     999
 UP BND1      C0331     999
 UP BND1      C0332     999
 UP BND1      C0333     999
 UP BND1      C0334     999
 UP BND1      C0335     999
 UP BND1      C0336     999
 LO BND1      C0337     28
 UP BND1      C0337     809
 UP BND1      C0338     999
 UP BND1      C0339     999
 UP BND1      C0340     999
 UP BND1      C0341     999
 UP BND1      C0342     999
 UP BND1      C0343     999
 UP BND1      C0344     999
 UP BND1      C0345     999
 UP BND1      C0346     999
 UP BND1      C0347     999
 UP BND1      C0348     999
 UP BND1      C0349     999
 UP BND1      C0350     999
 UP BND1      C0351     999
 UP BND1      C0352     999
 UP BND1      C0353     999
 UP BND1      C0354     999
 UP BND1      C0355     999
 UP BND1      C0356     999
 UP BND1      C0357     999
 UP BND1      C0358     999
 UP BND1      C0359     999
 UP BND1      C0360     999
 LO BND1      C0361     48
 UP BND1      C0361     438.5
 UP BND1      C0362     999
 UP BND1      C0363     999
 UP BND1      C0364     999
 UP BND1      C0365     999
 UP BND1      C0366     999
 UP BND1      C0367     999
 UP BND1      C0368     999
 UP BND1      C0369     999
 UP BND1      C0370     999
 UP BND1      C0371     999
 UP BND1      C0372     999
 UP BND1      C0373     999
 UP BND1      C0374     999
 UP BND1      C0375     999
 UP BND1      C0376     999
 UP BND1      C0377     999
 UP BND1      C0378     999
 UP BND1      C0379     999
 UP BND1      C0380     999
 UP BND1      C0381     999
 UP BND1      C0382     999
 UP BND1      C0383     999
 UP BND1      C0384     999
 UP BND1      C0386     999
 UP BND1      C0387     999
 UP BND1      C0388     999
 UP BND1      C0389     999
 UP BND1      C0390     999
 UP BND1      C0391     999
 UP BND1      C0392     999
 UP BND1      C0393     999
 UP BND1      C0394     999
 UP BND1      C0395     999
 UP BND1      C0396     999
 UP BND1      C0397     999
 UP BND1      C0398     999
 UP BND1      C0399     999
 UP BND1      C0400     999
 UP BND1      C0401     999
 UP BND1      C0402     999
 UP BND1      C0403     999
 UP BND1      C0404     999
 UP BND1      C0405     999
 UP BND1      C0406     999
 UP BND1      C0407     999
 UP BND1      C0408     999
 UP BND1      C0410     999
 UP BND1      C0411     999
 UP BND1      C0412     999
 UP BND1      C0413     999
 UP BND1      C0414     999
 UP BND1      C0415     999
 UP BND1      C0416     999
 UP BND1      C0417     999
 UP BND1      C0418     999
 UP BND1      C0419     999
 UP BND1      C0420     999
 UP BND1      C0421     999
 UP BND1      C0422     999
 UP BND1      C0423     999
 UP BND1      C0424     999
 UP BND1      C0425     999
 UP BND1      C0426     999
 UP BND1      C0427     999
 UP BND1      C0428     999
 UP BND1      C0429     999
 UP BND1      C0430     999
 UP BND1      C0431     999
 UP BND1      C0432     999
 UP BND1      C0434     999
 UP BND1      C0435     999
 UP BND1      C0436     999
 UP BND1      C0437     999
 UP BND1      C0438     999
 UP BND1      C0439     999
 UP BND1      C0440     999
 UP BND1      C0441     999
 UP BND1      C0442     999
 UP BND1      C0443     999
 UP BND1      C0444     999
 UP BND1      C0445     999
 UP BND1      C0446     999
 UP BND1      C0447     999
 UP BND1      C0448     999
 UP BND1      C0449     999
 UP BND1      C0450     999
 UP BND1      C0451     999
 UP BND1      C0452     999
 UP BND1      C0453     999
 UP BND1      C0454     999
 UP BND1      C0455     999
 UP BND1      C0456     999
 UP BND1      C0458     999
 UP BND1      C0459     999
 UP BND1      C0460     999
 UP BND1      C0461     999
 UP BND1      C0462     999
 UP BND1      C0463     999
 UP BND1      C0464     999
 UP BND1      C0465     999
 UP BND1      C0466     999
 UP BND1      C0467     999
 UP BND1      C0468     999
 UP BND1      C0469     999
 UP BND1      C0470     999
 UP BND1      C0471     999
 UP BND1      C0472     999
 UP BND1      C0473     999
 UP BND1      C0474     999
 UP BND1      C0475     999
 UP BND1      C0476     999
 UP BND1      C0477     999
 UP BND1      C0478     999
 UP BND1      C0479     999
 UP BND1      C0480     999
 LO BND1      C0481     92
 UP BND1      C0481     999
 UP BND1      C0482     999
 UP BND1      C0483     999
 UP BND1      C0484     999
 UP BND1      C0485     999
 UP BND1      C0486     999
 UP BND1      C0487     999
 UP BND1      C0488     999
 UP BND1      C0489     999
 UP BND1      C0490     999
 UP BND1      C0491     999
 UP BND1      C0492     999
 UP BND1      C0493     999
 UP BND1      C0494     999
 UP BND1      C0495     999
 UP BND1      C0496     999
 UP BND1      C0497     999
 UP BND1      C0498     999
 UP BND1      C0499     999
 UP BND1      C0500     999
 UP BND1      C0501     999
 UP BND1      C0502     999
 UP BND1      C0503     999
 UP BND1      C0504     999
 LO BND1      C0505     168
 UP BND1      C0505     999
 UP BND1      C0506     999
 UP BND1      C0507     999
 UP BND1      C0508     999
 UP BND1      C0509     999
 UP BND1      C0510     999
 UP BND1      C0511     999
 UP BND1      C0512     999
 UP BND1      C0513     999
 UP BND1      C0514     999
 UP BND1      C0515     999
 UP BND1      C0516     999
 UP BND1      C0517     999
 UP BND1      C0518     999
 UP BND1      C0519     999
 UP BND1      C0520     999
 UP BND1      C0521     999
 UP BND1      C0522     999
 UP BND1      C0523     999
 UP BND1      C0524     999
 UP BND1      C0525     999
 UP BND1      C0526     999
 UP BND1      C0527     999
 UP BND1      C0528     999
 UP BND1      C0530     999
 UP BND1      C0531     999
 UP BND1      C0532     999
 UP BND1      C0533     999
 UP BND1      C0534     999
 UP BND1      C0535     999
 UP BND1      C0536     999
 UP BND1      C0537     999
 UP BND1      C0538     999
 UP BND1      C0539     999
 UP BND1      C0540     999
 UP BND1      C0541     999
 UP BND1      C0542     999
 UP BND1      C0543     999
 UP BND1      C0544     999
 UP BND1      C0545     999
 UP BND1      C0546     999
 UP BND1      C0547     999
 UP BND1      C0548     999
 UP BND1      C0549     999
 UP BND1      C0550     999
 UP BND1      C0551     999
 UP BND1      C0552     999
 BV BND1      C0554   
 BV BND1      C0555   
 BV BND1      C0556   
 BV BND1      C0557   
 BV BND1      C0558   
 BV BND1      C0559   
 BV BND1      C0560   
 BV BND1      C0561   
 BV BND1      C0562   
 BV BND1      C0563   
 BV BND1      C0564   
 BV BND1      C0565   
 BV BND1      C0566   
 BV BND1      C0567   
 BV BND1      C0568   
 BV BND1      C0569   
 BV BND1      C0570   
 BV BND1      C0571   
 BV BND1      C0572   
 BV BND1      C0573   
 BV BND1      C0574   
 BV BND1      C0575   
 BV BND1      C0576   
 BV BND1      C0578   
 BV BND1      C0579   
 BV BND1      C0580   
 BV BND1      C0581   
 BV BND1      C0582   
 BV BND1      C0583   
 BV BND1      C0584   
 BV BND1      C0585   
 BV BND1      C0586   
 BV BND1      C0587   
 BV BND1      C0588   
 BV BND1      C0589   
 BV BND1      C0590   
 BV BND1      C0591   
 BV BND1      C0592   
 BV BND1      C0593   
 BV BND1      C0594   
 BV BND1      C0595   
 BV BND1      C0596   
 BV BND1      C0597   
 BV BND1      C0598   
 BV BND1      C0599   
 BV BND1      C0600   
 BV BND1      C0602   
 BV BND1      C0603   
 BV BND1      C0604   
 BV BND1      C0605   
 BV BND1      C0606   
 BV BND1      C0607   
 BV BND1      C0608   
 BV BND1      C0609   
 BV BND1      C0610   
 BV BND1      C0611   
 BV BND1      C0612   
 BV BND1      C0613   
 BV BND1      C0614   
 BV BND1      C0615   
 BV BND1      C0616   
 BV BND1      C0617   
 BV BND1      C0618   
 BV BND1      C0619   
 BV BND1      C0620   
 BV BND1      C0621   
 BV BND1      C0622   
 BV BND1      C0623   
 BV BND1      C0624   
 BV BND1      C0626   
 BV BND1      C0627   
 BV BND1      C0628   
 BV BND1      C0629   
 BV BND1      C0630   
 BV BND1      C0631   
 BV BND1      C0632   
 BV BND1      C0633   
 BV BND1      C0634   
 BV BND1      C0635   
 BV BND1      C0636   
 BV BND1      C0637   
 BV BND1      C0638   
 BV BND1      C0639   
 BV BND1      C0640   
 BV BND1      C0641   
 BV BND1      C0642   
 BV BND1      C0643   
 BV BND1      C0644   
 BV BND1      C0645   
 BV BND1      C0646   
 BV BND1      C0647   
 BV BND1      C0648   
 BV BND1      C0650   
 BV BND1      C0651   
 BV BND1      C0652   
 BV BND1      C0653   
 BV BND1      C0654   
 BV BND1      C0655   
 BV BND1      C0656   
 BV BND1      C0657   
 BV BND1      C0658   
 BV BND1      C0659   
 BV BND1      C0660   
 BV BND1      C0661   
 BV BND1      C0662   
 BV BND1      C0663   
 BV BND1      C0664   
 BV BND1      C0665   
 BV BND1      C0666   
 BV BND1      C0667   
 BV BND1      C0668   
 BV BND1      C0669   
 BV BND1      C0670   
 BV BND1      C0671   
 BV BND1      C0672   
 BV BND1      C0753   
 BV BND1      C0754   
 BV BND1      C0755   
 BV BND1      C0756   
 BV BND1      C0757   
 BV BND1      C0758   
 BV BND1      C0759   
 BV BND1      C0760   
 BV BND1      C0761   
 BV BND1      C0762   
 BV BND1      C0763   
 BV BND1      C0764   
 BV BND1      C0765   
 BV BND1      C0766   
 BV BND1      C0767   
 BV BND1      C0768   
 BV BND1      C0770   
 BV BND1      C0771   
 BV BND1      C0772   
 BV BND1      C0773   
 BV BND1      C0774   
 BV BND1      C0775   
 BV BND1      C0776   
 BV BND1      C0777   
 BV BND1      C0778   
 BV BND1      C0779   
 BV BND1      C0780   
 BV BND1      C0781   
 BV BND1      C0782   
 BV BND1      C0783   
 BV BND1      C0784   
 BV BND1      C0785   
 BV BND1      C0786   
 BV BND1      C0787   
 BV BND1      C0788   
 BV BND1      C0789   
 BV BND1      C0790   
 BV BND1      C0791   
 BV BND1      C0792   
ENDATA
