NAME neos-1436709_pre
ROWS
 N  OBJ
 L  R0001   
 L  R0002   
 L  R0003   
 L  R0004   
 L  R0005   
 L  R0006   
 L  R0007   
 L  R0008   
 L  R0009   
 L  R0010   
 L  R0011   
 L  R0012   
 L  R0013   
 L  R0014   
 L  R0015   
 L  R0016   
 L  R0017   
 L  R0018   
 L  R0019   
 L  R0020   
 L  R0021   
 L  R0022   
 L  R0023   
 L  R0024   
 L  R0025   
 L  R0026   
 L  R0027   
 L  R0028   
 L  R0029   
 L  R0030   
 L  R0031   
 L  R0032   
 L  R0033   
 L  R0034   
 L  R0035   
 L  R0036   
 L  R0037   
 L  R0038   
 L  R0039   
 L  R0040   
 L  R0041   
 L  R0042   
 L  R0043   
 L  R0044   
 L  R0045   
 L  R0046   
 L  R0047   
 L  R0048   
 L  R0049   
 L  R0050   
 L  R0051   
 L  R0052   
 L  R0053   
 L  R0054   
 L  R0055   
 L  R0056   
 L  R0057   
 L  R0058   
 L  R0059   
 L  R0060   
 L  R0061   
 L  R0062   
 L  R0063   
 L  R0064   
 L  R0065   
 L  R0066   
 L  R0067   
 L  R0068   
 L  R0069   
 L  R0070   
 L  R0071   
 L  R0072   
 L  R0073   
 L  R0074   
 L  R0075   
 L  R0076   
 L  R0077   
 L  R0078   
 L  R0079   
 L  R0080   
 L  R0081   
 L  R0082   
 L  R0083   
 L  R0084   
 L  R0085   
 L  R0086   
 L  R0087   
 L  R0088   
 L  R0089   
 L  R0090   
 L  R0091   
 L  R0092   
 L  R0093   
 L  R0094   
 L  R0095   
 L  R0096   
 L  R0097   
 L  R0098   
 L  R0099   
 L  R0100   
 L  R0101   
 L  R0102   
 L  R0103   
 L  R0104   
 L  R0105   
 L  R0106   
 L  R0107   
 L  R0108   
 L  R0109   
 L  R0110   
 L  R0111   
 L  R0112   
 L  R0113   
 L  R0114   
 L  R0115   
 L  R0116   
 L  R0117   
 L  R0118   
 L  R0119   
 L  R0120   
 L  R0121   
 L  R0122   
 L  R0123   
 L  R0124   
 L  R0125   
 L  R0126   
 L  R0127   
 L  R0128   
 L  R0129   
 L  R0130   
 L  R0131   
 L  R0132   
 L  R0133   
 L  R0134   
 L  R0135   
 L  R0136   
 L  R0137   
 L  R0138   
 L  R0139   
 L  R0140   
 L  R0141   
 L  R0142   
 L  R0143   
 L  R0144   
 L  R0145   
 L  R0146   
 L  R0147   
 L  R0148   
 L  R0149   
 L  R0150   
 L  R0151   
 L  R0152   
 L  R0153   
 L  R0154   
 L  R0155   
 L  R0156   
 L  R0157   
 L  R0158   
 L  R0159   
 L  R0160   
 L  R0161   
 L  R0162   
 L  R0163   
 L  R0164   
 L  R0165   
 L  R0166   
 L  R0167   
 L  R0168   
 L  R0169   
 L  R0170   
 L  R0171   
 L  R0172   
 L  R0173   
 L  R0174   
 L  R0175   
 L  R0176   
 L  R0177   
 L  R0178   
 L  R0179   
 L  R0180   
 L  R0181   
 L  R0182   
 L  R0183   
 L  R0184   
 L  R0185   
 L  R0186   
 L  R0187   
 L  R0188   
 L  R0189   
 L  R0190   
 L  R0191   
 L  R0192   
 L  R0193   
 L  R0194   
 L  R0195   
 L  R0196   
 L  R0197   
 L  R0198   
 L  R0199   
 L  R0200   
 L  R0201   
 L  R0202   
 L  R0203   
 L  R0204   
 L  R0205   
 L  R0206   
 L  R0207   
 L  R0208   
 L  R0209   
 L  R0210   
 L  R0211   
 L  R0212   
 L  R0213   
 L  R0214   
 L  R0215   
 L  R0216   
 L  R0217   
 L  R0218   
 L  R0219   
 L  R0220   
 L  R0221   
 L  R0222   
 L  R0223   
 L  R0224   
 L  R0225   
 L  R0226   
 L  R0227   
 L  R0228   
 L  R0229   
 L  R0230   
 L  R0231   
 L  R0232   
 L  R0233   
 L  R0234   
 L  R0235   
 L  R0236   
 L  R0237   
 L  R0238   
 L  R0239   
 L  R0240   
 L  R0241   
 L  R0242   
 L  R0243   
 L  R0244   
 L  R0245   
 L  R0246   
 L  R0247   
 L  R0248   
 L  R0249   
 L  R0250   
 L  R0251   
 L  R0252   
 L  R0253   
 L  R0254   
 L  R0255   
 L  R0256   
 L  R0257   
 L  R0258   
 L  R0259   
 L  R0260   
 L  R0261   
 L  R0262   
 L  R0263   
 L  R0264   
 L  R0265   
 L  R0266   
 L  R0267   
 L  R0268   
 L  R0269   
 L  R0270   
 L  R0271   
 L  R0272   
 L  R0273   
 L  R0274   
 L  R0275   
 L  R0276   
 L  R0277   
 L  R0278   
 L  R0279   
 L  R0280   
 L  R0281   
 L  R0282   
 L  R0283   
 L  R0284   
 L  R0285   
 L  R0286   
 L  R0287   
 L  R0288   
 L  R0289   
 L  R0290   
 L  R0291   
 L  R0292   
 L  R0293   
 L  R0294   
 L  R0295   
 L  R0296   
 L  R0297   
 L  R0298   
 L  R0299   
 L  R0300   
 L  R0301   
 L  R0302   
 L  R0303   
 L  R0304   
 L  R0305   
 L  R0306   
 L  R0307   
 L  R0308   
 L  R0309   
 L  R0310   
 L  R0311   
 L  R0312   
 L  R0313   
 L  R0314   
 L  R0315   
 L  R0316   
 L  R0317   
 L  R0318   
 L  R0319   
 L  R0320   
 L  R0321   
 L  R0322   
 L  R0323   
 L  R0324   
 L  R0325   
 L  R0378   
 L  R0379   
 L  R0380   
 L  R0381   
 L  R0382   
 L  R0383   
 L  R0384   
 L  R0385   
 L  R0390   
 L  R0391   
 L  R0392   
 L  R0393   
 L  R0394   
 L  R0395   
 L  R0396   
 L  R0397   
 L  R0404   
 L  R0405   
 L  R0406   
 L  R0407   
 L  R0408   
 L  R0409   
 L  R0410   
 L  R0411   
 L  R0412   
 L  R0413   
 L  R0414   
 L  R0415   
 L  R0416   
 L  R0417   
 L  R0418   
 L  R0419   
 L  R0420   
 L  R0421   
 L  R0422   
 L  R0423   
 L  R0424   
 L  R0425   
 L  R0426   
 L  R0427   
 L  R0428   
 L  R0429   
 L  R0430   
 L  R0431   
 L  R0432   
 L  R0433   
 L  R0434   
 L  R0435   
 L  R0436   
 L  R0437   
 L  R0438   
 L  R0439   
 L  R0440   
 L  R0441   
 L  R0442   
 L  R0443   
 L  R0444   
 L  R0445   
 L  R0446   
 L  R0447   
 L  R0448   
 L  R0449   
 L  R0450   
 L  R0451   
 L  R0452   
 L  R0453   
 L  R0454   
 L  R0455   
 L  R0456   
 L  R0457   
 L  R0458   
 L  R0459   
 L  R0460   
 L  R0461   
 L  R0462   
 L  R0463   
 L  R0464   
 L  R0465   
 L  R0466   
 L  R0467   
 L  R0468   
 L  R0521   
 L  R0522   
 L  R0523   
 L  R0524   
 L  R0525   
 L  R0526   
 L  R0527   
 L  R0528   
 L  R0529   
 L  R0530   
 L  R0531   
 L  R0532   
 L  R0533   
 L  R0534   
 L  R0535   
 L  R0536   
 L  R0537   
 L  R0538   
 L  R0539   
 L  R0540   
 L  R0541   
 L  R0542   
 L  R0543   
 L  R0544   
 L  R0545   
 L  R0546   
 L  R0547   
 L  R0548   
 L  R0549   
 L  R0550   
 L  R0551   
 L  R0552   
 L  R0553   
 L  R0554   
 L  R0555   
 L  R0556   
 L  R0557   
 L  R0558   
 L  R0559   
 L  R0560   
 L  R0561   
 L  R0562   
 L  R0563   
 L  R0564   
 L  R0565   
 L  R0566   
 L  R0567   
 L  R0568   
 L  R0569   
 L  R0570   
 L  R0571   
 L  R0572   
 L  R0586   
 L  R0587   
 L  R0588   
 L  R0589   
 L  R0590   
 L  R0591   
 L  R0592   
 L  R0593   
 L  R0594   
 L  R0595   
 L  R0596   
 L  R0597   
 L  R0598   
 L  R0599   
 L  R0600   
 L  R0601   
 L  R0602   
 L  R0603   
 L  R0604   
 L  R0605   
 L  R0606   
 L  R0607   
 L  R0608   
 L  R0609   
 L  R0610   
 L  R0611   
 L  R0612   
 L  R0613   
 L  R0614   
 L  R0615   
 L  R0616   
 L  R0617   
 L  R0618   
 L  R0619   
 L  R0620   
 L  R0621   
 L  R0622   
 L  R0623   
 L  R0624   
 L  R0625   
 L  R0626   
 L  R0627   
 L  R0628   
 L  R0629   
 L  R0630   
 L  R0631   
 L  R0632   
 L  R0633   
 L  R0634   
 L  R0635   
 L  R0636   
 L  R0637   
 L  R0638   
 L  R0639   
 L  R0640   
 L  R0641   
 L  R0642   
 L  R0643   
 L  R0644   
 L  R0645   
 L  R0646   
 L  R0647   
 L  R0648   
 L  R0649   
 L  R0650   
 L  R0651   
 L  R0652   
 L  R0653   
 L  R0654   
 L  R0655   
 L  R0656   
 L  R0657   
 L  R0658   
 L  R0659   
 L  R0660   
 L  R0661   
 L  R0662   
 L  R0663   
 L  R0664   
 L  R0665   
 L  R0666   
 L  R0667   
 L  R0668   
 L  R0669   
 L  R0670   
 L  R0671   
 L  R0672   
 L  R0673   
 L  R0674   
 L  R0675   
 L  R0676   
 L  R0690   
 L  R0691   
 L  R0692   
 L  R0693   
 L  R0694   
 L  R0695   
 L  R0696   
 L  R0697   
 L  R0698   
 L  R0699   
 L  R0700   
 L  R0701   
 L  R0702   
 L  R0703   
 L  R0704   
 L  R0705   
 L  R0706   
 L  R0707   
 L  R0708   
 L  R0709   
 L  R0710   
 L  R0711   
 L  R0712   
 L  R0713   
 L  R0714   
 L  R0715   
 L  R0755   
 L  R0756   
 L  R0757   
 L  R0758   
 L  R0759   
 L  R0760   
 L  R0761   
 L  R0762   
 L  R0763   
 L  R0764   
 L  R0765   
 L  R0766   
 L  R0767   
 L  R0768   
 L  R0769   
 L  R0770   
 L  R0771   
 L  R0772   
 L  R0773   
 L  R0774   
 L  R0775   
 L  R0776   
 L  R0777   
 L  R0778   
 L  R0779   
 L  R0780   
 L  R0781   
 L  R0782   
 L  R0783   
 L  R0784   
 L  R0785   
 L  R0786   
 L  R0787   
 L  R0788   
 L  R0789   
 L  R0790   
 L  R0791   
 L  R0792   
 L  R0793   
 L  R0794   
 L  R0795   
 L  R0796   
 L  R0797   
 L  R0798   
 L  R0799   
 L  R0800   
 L  R0801   
 L  R0802   
 L  R0803   
 L  R0804   
 L  R0805   
 L  R0806   
 L  R0807   
 L  R0808   
 L  R0809   
 L  R0810   
 L  R0811   
 L  R0812   
 L  R0813   
 L  R0814   
 L  R0815   
 L  R0816   
 L  R0817   
 L  R0818   
 L  R0819   
 L  R0820   
 L  R0821   
 L  R0822   
 L  R0823   
 L  R0824   
 L  R0825   
 L  R0826   
 L  R0827   
 L  R0828   
 L  R0829   
 L  R0830   
 L  R0831   
 L  R0832   
 L  R0833   
 L  R0834   
 L  R0835   
 L  R0836   
 L  R0837   
 L  R0838   
 L  R0839   
 L  R0840   
 L  R0841   
 L  R0842   
 L  R0843   
 L  R0844   
 L  R0845   
 L  R0846   
 L  R0847   
 L  R0848   
 L  R0849   
 L  R0850   
 L  R0851   
 L  R0852   
 L  R0853   
 L  R0854   
 L  R0855   
 L  R0856   
 L  R0857   
 L  R0858   
 L  R0911   
 L  R0912   
 L  R0913   
 L  R0914   
 L  R0915   
 L  R0916   
 L  R0917   
 L  R0918   
 L  R0919   
 L  R0920   
 L  R0921   
 L  R0922   
 L  R0923   
 L  R0924   
 L  R0925   
 L  R0926   
 L  R0927   
 L  R0928   
 L  R0929   
 L  R0930   
 L  R0931   
 L  R0932   
 L  R0933   
 L  R0934   
 L  R0935   
 L  R0936   
 L  R0937   
 L  R0938   
 L  R0939   
 L  R0940   
 L  R0941   
 L  R0942   
 L  R0943   
 L  R0944   
 L  R0945   
 L  R0946   
 L  R0947   
 L  R0948   
 L  R0949   
 L  R0950   
 L  R0951   
 L  R0952   
 L  R0953   
 L  R0954   
 L  R0955   
 L  R0956   
 L  R0957   
 L  R0958   
 L  R0959   
 L  R0960   
 L  R0961   
 L  R0962   
 L  R0963   
 L  R0964   
 L  R0965   
 L  R0966   
 L  R0967   
 L  R0968   
 L  R0969   
 L  R0970   
 L  R0971   
 L  R0972   
 L  R0973   
 L  R0974   
 L  R0975   
 L  R0976   
 L  R0977   
 L  R0978   
 L  R0979   
 L  R0980   
 L  R0981   
 L  R0982   
 L  R0983   
 L  R0984   
 L  R0985   
 L  R0986   
 L  R0987   
 L  R0988   
 L  R0989   
 L  R0990   
 L  R0991   
 L  R0992   
 L  R0993   
 L  R0994   
 L  R0995   
 L  R0996   
 L  R0997   
 L  R0998   
 L  R0999   
 L  R1000   
 L  R1001   
 L  R1002   
 L  R1003   
 L  R1004   
 L  R1005   
 L  R1006   
 L  R1007   
 L  R1008   
 L  R1009   
 L  R1010   
 L  R1011   
 L  R1012   
 L  R1013   
 L  R1014   
 L  R1093   
 L  R1094   
 L  R1095   
 L  R1096   
 L  R1097   
 L  R1098   
 L  R1099   
 L  R1100   
 L  R1101   
 L  R1102   
 L  R1103   
 L  R1104   
 L  R1105   
 L  R1106   
 L  R1107   
 L  R1108   
 L  R1109   
 L  R1110   
 L  R1111   
 L  R1112   
 L  R1113   
 L  R1114   
 L  R1115   
 L  R1116   
 L  R1117   
 L  R1118   
 L  R1119   
 L  R1120   
 L  R1121   
 L  R1122   
 L  R1123   
 L  R1124   
 L  R1125   
 L  R1126   
 L  R1127   
 L  R1128   
 L  R1129   
 L  R1130   
 L  R1131   
 L  R1132   
 L  R1133   
 L  R1134   
 L  R1135   
 L  R1136   
 L  R1137   
 L  R1138   
 L  R1139   
 L  R1140   
 L  R1141   
 L  R1142   
 L  R1143   
 L  R1144   
 L  R1145   
 L  R1146   
 L  R1147   
 L  R1148   
 L  R1149   
 L  R1150   
 L  R1151   
 L  R1152   
 L  R1153   
 L  R1154   
 L  R1155   
 L  R1156   
 L  R1157   
 L  R1158   
 L  R1159   
 L  R1160   
 L  R1161   
 L  R1162   
 L  R1163   
 L  R1164   
 L  R1165   
 L  R1166   
 L  R1167   
 L  R1168   
 L  R1169   
 L  R1170   
 L  R1171   
 L  R1172   
 L  R1173   
 L  R1174   
 L  R1175   
 L  R1176   
 L  R1177   
 L  R1178   
 L  R1179   
 L  R1180   
 L  R1181   
 L  R1182   
 L  R1183   
 L  R1184   
 L  R1185   
 L  R1186   
 L  R1187   
 L  R1188   
 L  R1189   
 L  R1190   
 L  R1191   
 L  R1192   
 L  R1193   
 L  R1194   
 L  R1195   
 L  R1196   
 L  R1249   
 L  R1250   
 L  R1251   
 L  R1252   
 L  R1253   
 L  R1254   
 L  R1255   
 L  R1256   
 L  R1257   
 L  R1258   
 L  R1259   
 L  R1260   
 L  R1261   
 L  R1262   
 L  R1263   
 L  R1264   
 L  R1265   
 L  R1266   
 L  R1267   
 L  R1268   
 L  R1269   
 L  R1270   
 L  R1271   
 L  R1272   
 L  R1273   
 L  R1274   
 L  R1275   
 L  R1276   
 L  R1277   
 L  R1278   
 L  R1279   
 L  R1280   
 L  R1281   
 L  R1282   
 L  R1283   
 L  R1284   
 L  R1285   
 L  R1286   
 L  R1287   
 L  R1314   
 L  R1315   
 L  R1316   
 L  R1317   
 L  R1318   
 L  R1319   
 L  R1320   
 L  R1321   
 L  R1322   
 L  R1323   
 L  R1324   
 L  R1325   
 L  R1326   
 L  R1340   
 L  R1341   
 L  R1342   
 L  R1343   
 L  R1344   
 L  R1345   
 L  R1346   
 L  R1347   
 L  R1348   
 L  R1349   
 L  R1350   
 L  R1351   
 L  R1352   
COLUMNS
    C0001     OBJ       -1
    C0001     R0001     1
    C0001     R0014     1
    C0001     R0027     1
    C0001     R0040     1
    C0001     R0378     1
    C0001     R0755     1
    C0001     R1093     1
    C0001     R1106     1
    C0001     R1145     1
    C0001     R1158     1
    C0001     R1171     1
    C0001     R1184     1
    C0001     R1249     1
    C0001     R1314     1
    C0002     OBJ       -1
    C0002     R0002     1
    C0002     R0015     1
    C0002     R0028     1
    C0002     R0041     1
    C0002     R0378     1
    C0002     R0756     1
    C0002     R1094     1
    C0002     R1107     1
    C0002     R1146     1
    C0002     R1159     1
    C0002     R1172     1
    C0002     R1185     1
    C0002     R1250     1
    C0002     R1315     1
    C0003     OBJ       -1
    C0003     R0003     1
    C0003     R0016     1
    C0003     R0029     1
    C0003     R0042     1
    C0003     R0378     1
    C0003     R0757     1
    C0003     R1095     1
    C0003     R1108     1
    C0003     R1147     1
    C0003     R1160     1
    C0003     R1173     1
    C0003     R1186     1
    C0003     R1251     1
    C0003     R1316     1
    C0004     OBJ       -1
    C0004     R0004     1
    C0004     R0017     1
    C0004     R0030     1
    C0004     R0043     1
    C0004     R0378     1
    C0004     R0758     1
    C0004     R1096     1
    C0004     R1109     1
    C0004     R1148     1
    C0004     R1161     1
    C0004     R1174     1
    C0004     R1187     1
    C0004     R1252     1
    C0004     R1317     1
    C0005     OBJ       -1
    C0005     R0005     1
    C0005     R0018     1
    C0005     R0031     1
    C0005     R0044     1
    C0005     R0378     1
    C0005     R0759     1
    C0005     R1097     1
    C0005     R1110     1
    C0005     R1149     1
    C0005     R1162     1
    C0005     R1175     1
    C0005     R1188     1
    C0005     R1253     1
    C0005     R1318     1
    C0006     OBJ       -1
    C0006     R0006     1
    C0006     R0019     1
    C0006     R0032     1
    C0006     R0045     1
    C0006     R0378     1
    C0006     R0760     1
    C0006     R1098     1
    C0006     R1111     1
    C0006     R1150     1
    C0006     R1163     1
    C0006     R1176     1
    C0006     R1189     1
    C0006     R1254     1
    C0006     R1319     1
    C0007     OBJ       -1
    C0007     R0007     1
    C0007     R0020     1
    C0007     R0033     1
    C0007     R0046     1
    C0007     R0378     1
    C0007     R0761     1
    C0007     R1099     1
    C0007     R1112     1
    C0007     R1151     1
    C0007     R1164     1
    C0007     R1177     1
    C0007     R1190     1
    C0007     R1255     1
    C0007     R1320     1
    C0008     OBJ       -1
    C0008     R0008     1
    C0008     R0021     1
    C0008     R0034     1
    C0008     R0047     1
    C0008     R0378     1
    C0008     R0762     1
    C0008     R1100     1
    C0008     R1113     1
    C0008     R1152     1
    C0008     R1165     1
    C0008     R1178     1
    C0008     R1191     1
    C0008     R1256     1
    C0008     R1321     1
    C0009     OBJ       -1
    C0009     R0009     1
    C0009     R0022     1
    C0009     R0035     1
    C0009     R0048     1
    C0009     R0378     1
    C0009     R0763     1
    C0009     R1101     1
    C0009     R1114     1
    C0009     R1153     1
    C0009     R1166     1
    C0009     R1179     1
    C0009     R1192     1
    C0009     R1257     1
    C0009     R1322     1
    C0010     OBJ       -1
    C0010     R0010     1
    C0010     R0023     1
    C0010     R0036     1
    C0010     R0049     1
    C0010     R0378     1
    C0010     R0764     1
    C0010     R1102     1
    C0010     R1115     1
    C0010     R1154     1
    C0010     R1167     1
    C0010     R1180     1
    C0010     R1193     1
    C0010     R1258     1
    C0010     R1323     1
    C0011     OBJ       -1
    C0011     R0011     1
    C0011     R0024     1
    C0011     R0037     1
    C0011     R0050     1
    C0011     R0378     1
    C0011     R0765     1
    C0011     R1103     1
    C0011     R1116     1
    C0011     R1155     1
    C0011     R1168     1
    C0011     R1181     1
    C0011     R1194     1
    C0011     R1259     1
    C0011     R1324     1
    C0012     OBJ       -1
    C0012     R0012     1
    C0012     R0025     1
    C0012     R0038     1
    C0012     R0051     1
    C0012     R0378     1
    C0012     R0766     1
    C0012     R1104     1
    C0012     R1117     1
    C0012     R1156     1
    C0012     R1169     1
    C0012     R1182     1
    C0012     R1195     1
    C0012     R1260     1
    C0012     R1325     1
    C0013     OBJ       -1
    C0013     R0013     1
    C0013     R0026     1
    C0013     R0039     1
    C0013     R0052     1
    C0013     R0378     1
    C0013     R0767     1
    C0013     R1105     1
    C0013     R1118     1
    C0013     R1157     1
    C0013     R1170     1
    C0013     R1183     1
    C0013     R1196     1
    C0013     R1261     1
    C0013     R1326     1
    C0014     OBJ       -1
    C0014     R0001     1
    C0014     R0014     1
    C0014     R0027     1
    C0014     R0040     1
    C0014     R0053     1
    C0014     R0066     1
    C0014     R0079     1
    C0014     R0092     1
    C0014     R0105     1
    C0014     R0118     1
    C0014     R0131     1
    C0014     R0144     1
    C0014     R0157     1
    C0014     R0170     1
    C0014     R0183     1
    C0014     R0196     1
    C0014     R0209     1
    C0014     R0222     1
    C0014     R0248     1
    C0014     R0261     1
    C0014     R0287     1
    C0014     R0300     1
    C0014     R0379     1
    C0014     R0768     1
    C0014     R1106     1
    C0014     R1119     1
    C0014     R1158     1
    C0014     R1249     1
    C0015     OBJ       -1
    C0015     R0002     1
    C0015     R0015     1
    C0015     R0028     1
    C0015     R0041     1
    C0015     R0054     1
    C0015     R0067     1
    C0015     R0080     1
    C0015     R0093     1
    C0015     R0106     1
    C0015     R0119     1
    C0015     R0132     1
    C0015     R0145     1
    C0015     R0158     1
    C0015     R0171     1
    C0015     R0184     1
    C0015     R0197     1
    C0015     R0210     1
    C0015     R0223     1
    C0015     R0249     1
    C0015     R0262     1
    C0015     R0288     1
    C0015     R0301     1
    C0015     R0379     1
    C0015     R0769     1
    C0015     R1107     1
    C0015     R1120     1
    C0015     R1159     1
    C0015     R1250     1
    C0016     OBJ       -1
    C0016     R0003     1
    C0016     R0016     1
    C0016     R0029     1
    C0016     R0042     1
    C0016     R0055     1
    C0016     R0068     1
    C0016     R0081     1
    C0016     R0094     1
    C0016     R0107     1
    C0016     R0120     1
    C0016     R0133     1
    C0016     R0146     1
    C0016     R0159     1
    C0016     R0172     1
    C0016     R0185     1
    C0016     R0198     1
    C0016     R0211     1
    C0016     R0224     1
    C0016     R0250     1
    C0016     R0263     1
    C0016     R0289     1
    C0016     R0302     1
    C0016     R0379     1
    C0016     R0770     1
    C0016     R1108     1
    C0016     R1121     1
    C0016     R1160     1
    C0016     R1251     1
    C0017     OBJ       -1
    C0017     R0004     1
    C0017     R0017     1
    C0017     R0030     1
    C0017     R0043     1
    C0017     R0056     1
    C0017     R0069     1
    C0017     R0082     1
    C0017     R0095     1
    C0017     R0108     1
    C0017     R0121     1
    C0017     R0134     1
    C0017     R0147     1
    C0017     R0160     1
    C0017     R0173     1
    C0017     R0186     1
    C0017     R0199     1
    C0017     R0212     1
    C0017     R0225     1
    C0017     R0251     1
    C0017     R0264     1
    C0017     R0290     1
    C0017     R0303     1
    C0017     R0379     1
    C0017     R0771     1
    C0017     R1109     1
    C0017     R1122     1
    C0017     R1161     1
    C0017     R1252     1
    C0018     OBJ       -1
    C0018     R0005     1
    C0018     R0018     1
    C0018     R0031     1
    C0018     R0044     1
    C0018     R0057     1
    C0018     R0070     1
    C0018     R0083     1
    C0018     R0096     1
    C0018     R0109     1
    C0018     R0122     1
    C0018     R0135     1
    C0018     R0148     1
    C0018     R0161     1
    C0018     R0174     1
    C0018     R0187     1
    C0018     R0200     1
    C0018     R0213     1
    C0018     R0226     1
    C0018     R0252     1
    C0018     R0265     1
    C0018     R0291     1
    C0018     R0304     1
    C0018     R0379     1
    C0018     R0772     1
    C0018     R1110     1
    C0018     R1123     1
    C0018     R1162     1
    C0018     R1253     1
    C0019     OBJ       -1
    C0019     R0006     1
    C0019     R0019     1
    C0019     R0032     1
    C0019     R0045     1
    C0019     R0058     1
    C0019     R0071     1
    C0019     R0084     1
    C0019     R0097     1
    C0019     R0110     1
    C0019     R0123     1
    C0019     R0136     1
    C0019     R0149     1
    C0019     R0162     1
    C0019     R0175     1
    C0019     R0188     1
    C0019     R0201     1
    C0019     R0214     1
    C0019     R0227     1
    C0019     R0253     1
    C0019     R0266     1
    C0019     R0292     1
    C0019     R0305     1
    C0019     R0379     1
    C0019     R0773     1
    C0019     R1111     1
    C0019     R1124     1
    C0019     R1163     1
    C0019     R1254     1
    C0020     OBJ       -1
    C0020     R0007     1
    C0020     R0020     1
    C0020     R0033     1
    C0020     R0046     1
    C0020     R0059     1
    C0020     R0072     1
    C0020     R0085     1
    C0020     R0098     1
    C0020     R0111     1
    C0020     R0124     1
    C0020     R0137     1
    C0020     R0150     1
    C0020     R0163     1
    C0020     R0176     1
    C0020     R0189     1
    C0020     R0202     1
    C0020     R0215     1
    C0020     R0228     1
    C0020     R0254     1
    C0020     R0267     1
    C0020     R0293     1
    C0020     R0306     1
    C0020     R0379     1
    C0020     R0774     1
    C0020     R1112     1
    C0020     R1125     1
    C0020     R1164     1
    C0020     R1255     1
    C0021     OBJ       -1
    C0021     R0008     1
    C0021     R0021     1
    C0021     R0034     1
    C0021     R0047     1
    C0021     R0060     1
    C0021     R0073     1
    C0021     R0086     1
    C0021     R0099     1
    C0021     R0112     1
    C0021     R0125     1
    C0021     R0138     1
    C0021     R0151     1
    C0021     R0164     1
    C0021     R0177     1
    C0021     R0190     1
    C0021     R0203     1
    C0021     R0216     1
    C0021     R0229     1
    C0021     R0255     1
    C0021     R0268     1
    C0021     R0294     1
    C0021     R0307     1
    C0021     R0379     1
    C0021     R0775     1
    C0021     R1113     1
    C0021     R1126     1
    C0021     R1165     1
    C0021     R1256     1
    C0022     OBJ       -1
    C0022     R0009     1
    C0022     R0022     1
    C0022     R0035     1
    C0022     R0048     1
    C0022     R0061     1
    C0022     R0074     1
    C0022     R0087     1
    C0022     R0100     1
    C0022     R0113     1
    C0022     R0126     1
    C0022     R0139     1
    C0022     R0152     1
    C0022     R0165     1
    C0022     R0178     1
    C0022     R0191     1
    C0022     R0204     1
    C0022     R0217     1
    C0022     R0230     1
    C0022     R0256     1
    C0022     R0269     1
    C0022     R0295     1
    C0022     R0308     1
    C0022     R0379     1
    C0022     R0776     1
    C0022     R1114     1
    C0022     R1127     1
    C0022     R1166     1
    C0022     R1257     1
    C0023     OBJ       -1
    C0023     R0010     1
    C0023     R0023     1
    C0023     R0036     1
    C0023     R0049     1
    C0023     R0062     1
    C0023     R0075     1
    C0023     R0088     1
    C0023     R0101     1
    C0023     R0114     1
    C0023     R0127     1
    C0023     R0140     1
    C0023     R0153     1
    C0023     R0166     1
    C0023     R0179     1
    C0023     R0192     1
    C0023     R0205     1
    C0023     R0218     1
    C0023     R0231     1
    C0023     R0257     1
    C0023     R0270     1
    C0023     R0296     1
    C0023     R0309     1
    C0023     R0379     1
    C0023     R0777     1
    C0023     R1115     1
    C0023     R1128     1
    C0023     R1167     1
    C0023     R1258     1
    C0024     OBJ       -1
    C0024     R0011     1
    C0024     R0024     1
    C0024     R0037     1
    C0024     R0050     1
    C0024     R0063     1
    C0024     R0076     1
    C0024     R0089     1
    C0024     R0102     1
    C0024     R0115     1
    C0024     R0128     1
    C0024     R0141     1
    C0024     R0154     1
    C0024     R0167     1
    C0024     R0180     1
    C0024     R0193     1
    C0024     R0206     1
    C0024     R0219     1
    C0024     R0232     1
    C0024     R0258     1
    C0024     R0271     1
    C0024     R0297     1
    C0024     R0310     1
    C0024     R0379     1
    C0024     R0778     1
    C0024     R1116     1
    C0024     R1129     1
    C0024     R1168     1
    C0024     R1259     1
    C0025     OBJ       -1
    C0025     R0012     1
    C0025     R0025     1
    C0025     R0038     1
    C0025     R0051     1
    C0025     R0064     1
    C0025     R0077     1
    C0025     R0090     1
    C0025     R0103     1
    C0025     R0116     1
    C0025     R0129     1
    C0025     R0142     1
    C0025     R0155     1
    C0025     R0168     1
    C0025     R0181     1
    C0025     R0194     1
    C0025     R0207     1
    C0025     R0220     1
    C0025     R0233     1
    C0025     R0259     1
    C0025     R0272     1
    C0025     R0298     1
    C0025     R0311     1
    C0025     R0379     1
    C0025     R0779     1
    C0025     R1117     1
    C0025     R1130     1
    C0025     R1169     1
    C0025     R1260     1
    C0026     OBJ       -1
    C0026     R0013     1
    C0026     R0026     1
    C0026     R0039     1
    C0026     R0052     1
    C0026     R0065     1
    C0026     R0078     1
    C0026     R0091     1
    C0026     R0104     1
    C0026     R0117     1
    C0026     R0130     1
    C0026     R0143     1
    C0026     R0156     1
    C0026     R0169     1
    C0026     R0182     1
    C0026     R0195     1
    C0026     R0208     1
    C0026     R0221     1
    C0026     R0234     1
    C0026     R0260     1
    C0026     R0273     1
    C0026     R0299     1
    C0026     R0312     1
    C0026     R0379     1
    C0026     R0780     1
    C0026     R1118     1
    C0026     R1131     1
    C0026     R1170     1
    C0026     R1261     1
    C0027     OBJ       -1
    C0027     R0053     1
    C0027     R0066     1
    C0027     R0079     1
    C0027     R0092     1
    C0027     R0105     1
    C0027     R0118     1
    C0027     R0131     1
    C0027     R0144     1
    C0027     R0380     1
    C0027     R0781     1
    C0027     R1106     1
    C0027     R1119     1
    C0027     R1145     1
    C0027     R1158     1
    C0027     R1171     1
    C0027     R1184     1
    C0027     R1249     1
    C0027     R1314     1
    C0028     OBJ       -1
    C0028     R0054     1
    C0028     R0067     1
    C0028     R0080     1
    C0028     R0093     1
    C0028     R0106     1
    C0028     R0119     1
    C0028     R0132     1
    C0028     R0145     1
    C0028     R0380     1
    C0028     R0782     1
    C0028     R1107     1
    C0028     R1120     1
    C0028     R1146     1
    C0028     R1159     1
    C0028     R1172     1
    C0028     R1185     1
    C0028     R1250     1
    C0028     R1315     1
    C0029     OBJ       -1
    C0029     R0055     1
    C0029     R0068     1
    C0029     R0081     1
    C0029     R0094     1
    C0029     R0107     1
    C0029     R0120     1
    C0029     R0133     1
    C0029     R0146     1
    C0029     R0380     1
    C0029     R0783     1
    C0029     R1108     1
    C0029     R1121     1
    C0029     R1147     1
    C0029     R1160     1
    C0029     R1173     1
    C0029     R1186     1
    C0029     R1251     1
    C0029     R1316     1
    C0030     OBJ       -1
    C0030     R0056     1
    C0030     R0069     1
    C0030     R0082     1
    C0030     R0095     1
    C0030     R0108     1
    C0030     R0121     1
    C0030     R0134     1
    C0030     R0147     1
    C0030     R0380     1
    C0030     R0784     1
    C0030     R1109     1
    C0030     R1122     1
    C0030     R1148     1
    C0030     R1161     1
    C0030     R1174     1
    C0030     R1187     1
    C0030     R1252     1
    C0030     R1317     1
    C0031     OBJ       -1
    C0031     R0057     1
    C0031     R0070     1
    C0031     R0083     1
    C0031     R0096     1
    C0031     R0109     1
    C0031     R0122     1
    C0031     R0135     1
    C0031     R0148     1
    C0031     R0380     1
    C0031     R0785     1
    C0031     R1110     1
    C0031     R1123     1
    C0031     R1149     1
    C0031     R1162     1
    C0031     R1175     1
    C0031     R1188     1
    C0031     R1253     1
    C0031     R1318     1
    C0032     OBJ       -1
    C0032     R0058     1
    C0032     R0071     1
    C0032     R0084     1
    C0032     R0097     1
    C0032     R0110     1
    C0032     R0123     1
    C0032     R0136     1
    C0032     R0149     1
    C0032     R0380     1
    C0032     R0786     1
    C0032     R1111     1
    C0032     R1124     1
    C0032     R1150     1
    C0032     R1163     1
    C0032     R1176     1
    C0032     R1189     1
    C0032     R1254     1
    C0032     R1319     1
    C0033     OBJ       -1
    C0033     R0059     1
    C0033     R0072     1
    C0033     R0085     1
    C0033     R0098     1
    C0033     R0111     1
    C0033     R0124     1
    C0033     R0137     1
    C0033     R0150     1
    C0033     R0380     1
    C0033     R0787     1
    C0033     R1112     1
    C0033     R1125     1
    C0033     R1151     1
    C0033     R1164     1
    C0033     R1177     1
    C0033     R1190     1
    C0033     R1255     1
    C0033     R1320     1
    C0034     OBJ       -1
    C0034     R0060     1
    C0034     R0073     1
    C0034     R0086     1
    C0034     R0099     1
    C0034     R0112     1
    C0034     R0125     1
    C0034     R0138     1
    C0034     R0151     1
    C0034     R0380     1
    C0034     R0788     1
    C0034     R1113     1
    C0034     R1126     1
    C0034     R1152     1
    C0034     R1165     1
    C0034     R1178     1
    C0034     R1191     1
    C0034     R1256     1
    C0034     R1321     1
    C0035     OBJ       -1
    C0035     R0061     1
    C0035     R0074     1
    C0035     R0087     1
    C0035     R0100     1
    C0035     R0113     1
    C0035     R0126     1
    C0035     R0139     1
    C0035     R0152     1
    C0035     R0380     1
    C0035     R0789     1
    C0035     R1114     1
    C0035     R1127     1
    C0035     R1153     1
    C0035     R1166     1
    C0035     R1179     1
    C0035     R1192     1
    C0035     R1257     1
    C0035     R1322     1
    C0036     OBJ       -1
    C0036     R0062     1
    C0036     R0075     1
    C0036     R0088     1
    C0036     R0101     1
    C0036     R0114     1
    C0036     R0127     1
    C0036     R0140     1
    C0036     R0153     1
    C0036     R0380     1
    C0036     R0790     1
    C0036     R1115     1
    C0036     R1128     1
    C0036     R1154     1
    C0036     R1167     1
    C0036     R1180     1
    C0036     R1193     1
    C0036     R1258     1
    C0036     R1323     1
    C0037     OBJ       -1
    C0037     R0063     1
    C0037     R0076     1
    C0037     R0089     1
    C0037     R0102     1
    C0037     R0115     1
    C0037     R0128     1
    C0037     R0141     1
    C0037     R0154     1
    C0037     R0380     1
    C0037     R0791     1
    C0037     R1116     1
    C0037     R1129     1
    C0037     R1155     1
    C0037     R1168     1
    C0037     R1181     1
    C0037     R1194     1
    C0037     R1259     1
    C0037     R1324     1
    C0038     OBJ       -1
    C0038     R0064     1
    C0038     R0077     1
    C0038     R0090     1
    C0038     R0103     1
    C0038     R0116     1
    C0038     R0129     1
    C0038     R0142     1
    C0038     R0155     1
    C0038     R0380     1
    C0038     R0792     1
    C0038     R1117     1
    C0038     R1130     1
    C0038     R1156     1
    C0038     R1169     1
    C0038     R1182     1
    C0038     R1195     1
    C0038     R1260     1
    C0038     R1325     1
    C0039     OBJ       -1
    C0039     R0065     1
    C0039     R0078     1
    C0039     R0091     1
    C0039     R0104     1
    C0039     R0117     1
    C0039     R0130     1
    C0039     R0143     1
    C0039     R0156     1
    C0039     R0380     1
    C0039     R0793     1
    C0039     R1118     1
    C0039     R1131     1
    C0039     R1157     1
    C0039     R1170     1
    C0039     R1183     1
    C0039     R1196     1
    C0039     R1261     1
    C0039     R1326     1
    C0040     OBJ       -1
    C0040     R0157     1
    C0040     R0170     1
    C0040     R0183     1
    C0040     R0196     1
    C0040     R0209     1
    C0040     R0222     1
    C0040     R0248     1
    C0040     R0287     1
    C0040     R0381     1
    C0040     R0794     1
    C0040     R1106     1
    C0040     R1132     1
    C0040     R1145     1
    C0040     R1158     1
    C0040     R1184     1
    C0040     R1249     1
    C0041     OBJ       -1
    C0041     R0158     1
    C0041     R0171     1
    C0041     R0184     1
    C0041     R0197     1
    C0041     R0210     1
    C0041     R0223     1
    C0041     R0249     1
    C0041     R0288     1
    C0041     R0381     1
    C0041     R0795     1
    C0041     R1107     1
    C0041     R1133     1
    C0041     R1146     1
    C0041     R1159     1
    C0041     R1185     1
    C0041     R1250     1
    C0042     OBJ       -1
    C0042     R0159     1
    C0042     R0172     1
    C0042     R0185     1
    C0042     R0198     1
    C0042     R0211     1
    C0042     R0224     1
    C0042     R0250     1
    C0042     R0289     1
    C0042     R0381     1
    C0042     R0796     1
    C0042     R1108     1
    C0042     R1134     1
    C0042     R1147     1
    C0042     R1160     1
    C0042     R1186     1
    C0042     R1251     1
    C0043     OBJ       -1
    C0043     R0160     1
    C0043     R0173     1
    C0043     R0186     1
    C0043     R0199     1
    C0043     R0212     1
    C0043     R0225     1
    C0043     R0251     1
    C0043     R0290     1
    C0043     R0381     1
    C0043     R0797     1
    C0043     R1109     1
    C0043     R1135     1
    C0043     R1148     1
    C0043     R1161     1
    C0043     R1187     1
    C0043     R1252     1
    C0044     OBJ       -1
    C0044     R0161     1
    C0044     R0174     1
    C0044     R0187     1
    C0044     R0200     1
    C0044     R0213     1
    C0044     R0226     1
    C0044     R0252     1
    C0044     R0291     1
    C0044     R0381     1
    C0044     R0798     1
    C0044     R1110     1
    C0044     R1136     1
    C0044     R1149     1
    C0044     R1162     1
    C0044     R1188     1
    C0044     R1253     1
    C0045     OBJ       -1
    C0045     R0162     1
    C0045     R0175     1
    C0045     R0188     1
    C0045     R0201     1
    C0045     R0214     1
    C0045     R0227     1
    C0045     R0253     1
    C0045     R0292     1
    C0045     R0381     1
    C0045     R0799     1
    C0045     R1111     1
    C0045     R1137     1
    C0045     R1150     1
    C0045     R1163     1
    C0045     R1189     1
    C0045     R1254     1
    C0046     OBJ       -1
    C0046     R0163     1
    C0046     R0176     1
    C0046     R0189     1
    C0046     R0202     1
    C0046     R0215     1
    C0046     R0228     1
    C0046     R0254     1
    C0046     R0293     1
    C0046     R0381     1
    C0046     R0800     1
    C0046     R1112     1
    C0046     R1138     1
    C0046     R1151     1
    C0046     R1164     1
    C0046     R1190     1
    C0046     R1255     1
    C0047     OBJ       -1
    C0047     R0164     1
    C0047     R0177     1
    C0047     R0190     1
    C0047     R0203     1
    C0047     R0216     1
    C0047     R0229     1
    C0047     R0255     1
    C0047     R0294     1
    C0047     R0381     1
    C0047     R0801     1
    C0047     R1113     1
    C0047     R1139     1
    C0047     R1152     1
    C0047     R1165     1
    C0047     R1191     1
    C0047     R1256     1
    C0048     OBJ       -1
    C0048     R0165     1
    C0048     R0178     1
    C0048     R0191     1
    C0048     R0204     1
    C0048     R0217     1
    C0048     R0230     1
    C0048     R0256     1
    C0048     R0295     1
    C0048     R0381     1
    C0048     R0802     1
    C0048     R1114     1
    C0048     R1140     1
    C0048     R1153     1
    C0048     R1166     1
    C0048     R1192     1
    C0048     R1257     1
    C0049     OBJ       -1
    C0049     R0166     1
    C0049     R0179     1
    C0049     R0192     1
    C0049     R0205     1
    C0049     R0218     1
    C0049     R0231     1
    C0049     R0257     1
    C0049     R0296     1
    C0049     R0381     1
    C0049     R0803     1
    C0049     R1115     1
    C0049     R1141     1
    C0049     R1154     1
    C0049     R1167     1
    C0049     R1193     1
    C0049     R1258     1
    C0050     OBJ       -1
    C0050     R0167     1
    C0050     R0180     1
    C0050     R0193     1
    C0050     R0206     1
    C0050     R0219     1
    C0050     R0232     1
    C0050     R0258     1
    C0050     R0297     1
    C0050     R0381     1
    C0050     R0804     1
    C0050     R1116     1
    C0050     R1142     1
    C0050     R1155     1
    C0050     R1168     1
    C0050     R1194     1
    C0050     R1259     1
    C0051     OBJ       -1
    C0051     R0168     1
    C0051     R0181     1
    C0051     R0194     1
    C0051     R0207     1
    C0051     R0220     1
    C0051     R0233     1
    C0051     R0259     1
    C0051     R0298     1
    C0051     R0381     1
    C0051     R0805     1
    C0051     R1117     1
    C0051     R1143     1
    C0051     R1156     1
    C0051     R1169     1
    C0051     R1195     1
    C0051     R1260     1
    C0052     OBJ       -1
    C0052     R0169     1
    C0052     R0182     1
    C0052     R0195     1
    C0052     R0208     1
    C0052     R0221     1
    C0052     R0234     1
    C0052     R0260     1
    C0052     R0299     1
    C0052     R0381     1
    C0052     R0806     1
    C0052     R1118     1
    C0052     R1144     1
    C0052     R1157     1
    C0052     R1170     1
    C0052     R1196     1
    C0052     R1261     1
    C0053     OBJ       -1
    C0053     R0001     1
    C0053     R0014     1
    C0053     R0053     1
    C0053     R0066     1
    C0053     R0157     1
    C0053     R0170     1
    C0053     R0382     1
    C0053     R0807     1
    C0053     R1093     1
    C0053     R1106     1
    C0053     R1132     1
    C0053     R1145     1
    C0053     R1171     1
    C0053     R1184     1
    C0053     R1249     1
    C0053     R1262     1
    C0053     R1275     1
    C0053     R1314     1
    C0054     OBJ       -1
    C0054     R0002     1
    C0054     R0015     1
    C0054     R0054     1
    C0054     R0067     1
    C0054     R0158     1
    C0054     R0171     1
    C0054     R0382     1
    C0054     R0808     1
    C0054     R1094     1
    C0054     R1107     1
    C0054     R1133     1
    C0054     R1146     1
    C0054     R1172     1
    C0054     R1185     1
    C0054     R1250     1
    C0054     R1263     1
    C0054     R1276     1
    C0054     R1315     1
    C0055     OBJ       -1
    C0055     R0003     1
    C0055     R0016     1
    C0055     R0055     1
    C0055     R0068     1
    C0055     R0159     1
    C0055     R0172     1
    C0055     R0382     1
    C0055     R0809     1
    C0055     R1095     1
    C0055     R1108     1
    C0055     R1134     1
    C0055     R1147     1
    C0055     R1173     1
    C0055     R1186     1
    C0055     R1251     1
    C0055     R1264     1
    C0055     R1277     1
    C0055     R1316     1
    C0056     OBJ       -1
    C0056     R0004     1
    C0056     R0017     1
    C0056     R0056     1
    C0056     R0069     1
    C0056     R0160     1
    C0056     R0173     1
    C0056     R0382     1
    C0056     R0810     1
    C0056     R1096     1
    C0056     R1109     1
    C0056     R1135     1
    C0056     R1148     1
    C0056     R1174     1
    C0056     R1187     1
    C0056     R1252     1
    C0056     R1265     1
    C0056     R1278     1
    C0056     R1317     1
    C0057     OBJ       -1
    C0057     R0005     1
    C0057     R0018     1
    C0057     R0057     1
    C0057     R0070     1
    C0057     R0161     1
    C0057     R0174     1
    C0057     R0382     1
    C0057     R0811     1
    C0057     R1097     1
    C0057     R1110     1
    C0057     R1136     1
    C0057     R1149     1
    C0057     R1175     1
    C0057     R1188     1
    C0057     R1253     1
    C0057     R1266     1
    C0057     R1279     1
    C0057     R1318     1
    C0058     OBJ       -1
    C0058     R0006     1
    C0058     R0019     1
    C0058     R0058     1
    C0058     R0071     1
    C0058     R0162     1
    C0058     R0175     1
    C0058     R0382     1
    C0058     R0812     1
    C0058     R1098     1
    C0058     R1111     1
    C0058     R1137     1
    C0058     R1150     1
    C0058     R1176     1
    C0058     R1189     1
    C0058     R1254     1
    C0058     R1267     1
    C0058     R1280     1
    C0058     R1319     1
    C0059     OBJ       -1
    C0059     R0007     1
    C0059     R0020     1
    C0059     R0059     1
    C0059     R0072     1
    C0059     R0163     1
    C0059     R0176     1
    C0059     R0382     1
    C0059     R0813     1
    C0059     R1099     1
    C0059     R1112     1
    C0059     R1138     1
    C0059     R1151     1
    C0059     R1177     1
    C0059     R1190     1
    C0059     R1255     1
    C0059     R1268     1
    C0059     R1281     1
    C0059     R1320     1
    C0060     OBJ       -1
    C0060     R0008     1
    C0060     R0021     1
    C0060     R0060     1
    C0060     R0073     1
    C0060     R0164     1
    C0060     R0177     1
    C0060     R0382     1
    C0060     R0814     1
    C0060     R1100     1
    C0060     R1113     1
    C0060     R1139     1
    C0060     R1152     1
    C0060     R1178     1
    C0060     R1191     1
    C0060     R1256     1
    C0060     R1269     1
    C0060     R1282     1
    C0060     R1321     1
    C0061     OBJ       -1
    C0061     R0009     1
    C0061     R0022     1
    C0061     R0061     1
    C0061     R0074     1
    C0061     R0165     1
    C0061     R0178     1
    C0061     R0382     1
    C0061     R0815     1
    C0061     R1101     1
    C0061     R1114     1
    C0061     R1140     1
    C0061     R1153     1
    C0061     R1179     1
    C0061     R1192     1
    C0061     R1257     1
    C0061     R1270     1
    C0061     R1283     1
    C0061     R1322     1
    C0062     OBJ       -1
    C0062     R0010     1
    C0062     R0023     1
    C0062     R0062     1
    C0062     R0075     1
    C0062     R0166     1
    C0062     R0179     1
    C0062     R0382     1
    C0062     R0816     1
    C0062     R1102     1
    C0062     R1115     1
    C0062     R1141     1
    C0062     R1154     1
    C0062     R1180     1
    C0062     R1193     1
    C0062     R1258     1
    C0062     R1271     1
    C0062     R1284     1
    C0062     R1323     1
    C0063     OBJ       -1
    C0063     R0011     1
    C0063     R0024     1
    C0063     R0063     1
    C0063     R0076     1
    C0063     R0167     1
    C0063     R0180     1
    C0063     R0382     1
    C0063     R0817     1
    C0063     R1103     1
    C0063     R1116     1
    C0063     R1142     1
    C0063     R1155     1
    C0063     R1181     1
    C0063     R1194     1
    C0063     R1259     1
    C0063     R1272     1
    C0063     R1285     1
    C0063     R1324     1
    C0064     OBJ       -1
    C0064     R0012     1
    C0064     R0025     1
    C0064     R0064     1
    C0064     R0077     1
    C0064     R0168     1
    C0064     R0181     1
    C0064     R0382     1
    C0064     R0818     1
    C0064     R1104     1
    C0064     R1117     1
    C0064     R1143     1
    C0064     R1156     1
    C0064     R1182     1
    C0064     R1195     1
    C0064     R1260     1
    C0064     R1273     1
    C0064     R1286     1
    C0064     R1325     1
    C0065     OBJ       -1
    C0065     R0013     1
    C0065     R0026     1
    C0065     R0065     1
    C0065     R0078     1
    C0065     R0169     1
    C0065     R0182     1
    C0065     R0382     1
    C0065     R0819     1
    C0065     R1105     1
    C0065     R1118     1
    C0065     R1144     1
    C0065     R1157     1
    C0065     R1183     1
    C0065     R1196     1
    C0065     R1261     1
    C0065     R1274     1
    C0065     R1287     1
    C0065     R1326     1
    C0066     OBJ       -1
    C0066     R0027     1
    C0066     R0040     1
    C0066     R0079     1
    C0066     R0092     1
    C0066     R0105     1
    C0066     R0118     1
    C0066     R0131     1
    C0066     R0144     1
    C0066     R0183     1
    C0066     R0196     1
    C0066     R0209     1
    C0066     R0222     1
    C0066     R0248     1
    C0066     R0287     1
    C0066     R0383     1
    C0066     R0820     1
    C0066     R1093     1
    C0066     R1106     1
    C0066     R1132     1
    C0066     R1158     1
    C0066     R1171     1
    C0066     R1184     1
    C0066     R1262     1
    C0066     R1275     1
    C0066     R1314     1
    C0067     OBJ       -1
    C0067     R0028     1
    C0067     R0041     1
    C0067     R0080     1
    C0067     R0093     1
    C0067     R0106     1
    C0067     R0119     1
    C0067     R0132     1
    C0067     R0145     1
    C0067     R0184     1
    C0067     R0197     1
    C0067     R0210     1
    C0067     R0223     1
    C0067     R0249     1
    C0067     R0288     1
    C0067     R0383     1
    C0067     R0821     1
    C0067     R1094     1
    C0067     R1107     1
    C0067     R1133     1
    C0067     R1159     1
    C0067     R1172     1
    C0067     R1185     1
    C0067     R1263     1
    C0067     R1276     1
    C0067     R1315     1
    C0068     OBJ       -1
    C0068     R0029     1
    C0068     R0042     1
    C0068     R0081     1
    C0068     R0094     1
    C0068     R0107     1
    C0068     R0120     1
    C0068     R0133     1
    C0068     R0146     1
    C0068     R0185     1
    C0068     R0198     1
    C0068     R0211     1
    C0068     R0224     1
    C0068     R0250     1
    C0068     R0289     1
    C0068     R0383     1
    C0068     R0822     1
    C0068     R1095     1
    C0068     R1108     1
    C0068     R1134     1
    C0068     R1160     1
    C0068     R1173     1
    C0068     R1186     1
    C0068     R1264     1
    C0068     R1277     1
    C0068     R1316     1
    C0069     OBJ       -1
    C0069     R0030     1
    C0069     R0043     1
    C0069     R0082     1
    C0069     R0095     1
    C0069     R0108     1
    C0069     R0121     1
    C0069     R0134     1
    C0069     R0147     1
    C0069     R0186     1
    C0069     R0199     1
    C0069     R0212     1
    C0069     R0225     1
    C0069     R0251     1
    C0069     R0290     1
    C0069     R0383     1
    C0069     R0823     1
    C0069     R1096     1
    C0069     R1109     1
    C0069     R1135     1
    C0069     R1161     1
    C0069     R1174     1
    C0069     R1187     1
    C0069     R1265     1
    C0069     R1278     1
    C0069     R1317     1
    C0070     OBJ       -1
    C0070     R0031     1
    C0070     R0044     1
    C0070     R0083     1
    C0070     R0096     1
    C0070     R0109     1
    C0070     R0122     1
    C0070     R0135     1
    C0070     R0148     1
    C0070     R0187     1
    C0070     R0200     1
    C0070     R0213     1
    C0070     R0226     1
    C0070     R0252     1
    C0070     R0291     1
    C0070     R0383     1
    C0070     R0824     1
    C0070     R1097     1
    C0070     R1110     1
    C0070     R1136     1
    C0070     R1162     1
    C0070     R1175     1
    C0070     R1188     1
    C0070     R1266     1
    C0070     R1279     1
    C0070     R1318     1
    C0071     OBJ       -1
    C0071     R0032     1
    C0071     R0045     1
    C0071     R0084     1
    C0071     R0097     1
    C0071     R0110     1
    C0071     R0123     1
    C0071     R0136     1
    C0071     R0149     1
    C0071     R0188     1
    C0071     R0201     1
    C0071     R0214     1
    C0071     R0227     1
    C0071     R0253     1
    C0071     R0292     1
    C0071     R0383     1
    C0071     R0825     1
    C0071     R1098     1
    C0071     R1111     1
    C0071     R1137     1
    C0071     R1163     1
    C0071     R1176     1
    C0071     R1189     1
    C0071     R1267     1
    C0071     R1280     1
    C0071     R1319     1
    C0072     OBJ       -1
    C0072     R0033     1
    C0072     R0046     1
    C0072     R0085     1
    C0072     R0098     1
    C0072     R0111     1
    C0072     R0124     1
    C0072     R0137     1
    C0072     R0150     1
    C0072     R0189     1
    C0072     R0202     1
    C0072     R0215     1
    C0072     R0228     1
    C0072     R0254     1
    C0072     R0293     1
    C0072     R0383     1
    C0072     R0826     1
    C0072     R1099     1
    C0072     R1112     1
    C0072     R1138     1
    C0072     R1164     1
    C0072     R1177     1
    C0072     R1190     1
    C0072     R1268     1
    C0072     R1281     1
    C0072     R1320     1
    C0073     OBJ       -1
    C0073     R0034     1
    C0073     R0047     1
    C0073     R0086     1
    C0073     R0099     1
    C0073     R0112     1
    C0073     R0125     1
    C0073     R0138     1
    C0073     R0151     1
    C0073     R0190     1
    C0073     R0203     1
    C0073     R0216     1
    C0073     R0229     1
    C0073     R0255     1
    C0073     R0294     1
    C0073     R0383     1
    C0073     R0827     1
    C0073     R1100     1
    C0073     R1113     1
    C0073     R1139     1
    C0073     R1165     1
    C0073     R1178     1
    C0073     R1191     1
    C0073     R1269     1
    C0073     R1282     1
    C0073     R1321     1
    C0074     OBJ       -1
    C0074     R0035     1
    C0074     R0048     1
    C0074     R0087     1
    C0074     R0100     1
    C0074     R0113     1
    C0074     R0126     1
    C0074     R0139     1
    C0074     R0152     1
    C0074     R0191     1
    C0074     R0204     1
    C0074     R0217     1
    C0074     R0230     1
    C0074     R0256     1
    C0074     R0295     1
    C0074     R0383     1
    C0074     R0828     1
    C0074     R1101     1
    C0074     R1114     1
    C0074     R1140     1
    C0074     R1166     1
    C0074     R1179     1
    C0074     R1192     1
    C0074     R1270     1
    C0074     R1283     1
    C0074     R1322     1
    C0075     OBJ       -1
    C0075     R0036     1
    C0075     R0049     1
    C0075     R0088     1
    C0075     R0101     1
    C0075     R0114     1
    C0075     R0127     1
    C0075     R0140     1
    C0075     R0153     1
    C0075     R0192     1
    C0075     R0205     1
    C0075     R0218     1
    C0075     R0231     1
    C0075     R0257     1
    C0075     R0296     1
    C0075     R0383     1
    C0075     R0829     1
    C0075     R1102     1
    C0075     R1115     1
    C0075     R1141     1
    C0075     R1167     1
    C0075     R1180     1
    C0075     R1193     1
    C0075     R1271     1
    C0075     R1284     1
    C0075     R1323     1
    C0076     OBJ       -1
    C0076     R0037     1
    C0076     R0050     1
    C0076     R0089     1
    C0076     R0102     1
    C0076     R0115     1
    C0076     R0128     1
    C0076     R0141     1
    C0076     R0154     1
    C0076     R0193     1
    C0076     R0206     1
    C0076     R0219     1
    C0076     R0232     1
    C0076     R0258     1
    C0076     R0297     1
    C0076     R0383     1
    C0076     R0830     1
    C0076     R1103     1
    C0076     R1116     1
    C0076     R1142     1
    C0076     R1168     1
    C0076     R1181     1
    C0076     R1194     1
    C0076     R1272     1
    C0076     R1285     1
    C0076     R1324     1
    C0077     OBJ       -1
    C0077     R0038     1
    C0077     R0051     1
    C0077     R0090     1
    C0077     R0103     1
    C0077     R0116     1
    C0077     R0129     1
    C0077     R0142     1
    C0077     R0155     1
    C0077     R0194     1
    C0077     R0207     1
    C0077     R0220     1
    C0077     R0233     1
    C0077     R0259     1
    C0077     R0298     1
    C0077     R0383     1
    C0077     R0831     1
    C0077     R1104     1
    C0077     R1117     1
    C0077     R1143     1
    C0077     R1169     1
    C0077     R1182     1
    C0077     R1195     1
    C0077     R1273     1
    C0077     R1286     1
    C0077     R1325     1
    C0078     OBJ       -1
    C0078     R0039     1
    C0078     R0052     1
    C0078     R0091     1
    C0078     R0104     1
    C0078     R0117     1
    C0078     R0130     1
    C0078     R0143     1
    C0078     R0156     1
    C0078     R0195     1
    C0078     R0208     1
    C0078     R0221     1
    C0078     R0234     1
    C0078     R0260     1
    C0078     R0299     1
    C0078     R0383     1
    C0078     R0832     1
    C0078     R1105     1
    C0078     R1118     1
    C0078     R1144     1
    C0078     R1170     1
    C0078     R1183     1
    C0078     R1196     1
    C0078     R1274     1
    C0078     R1287     1
    C0078     R1326     1
    C0079     OBJ       -1
    C0079     R0001     1
    C0079     R0027     1
    C0079     R0053     1
    C0079     R0079     1
    C0079     R0092     1
    C0079     R0105     1
    C0079     R0157     1
    C0079     R0183     1
    C0079     R0196     1
    C0079     R0209     1
    C0079     R0384     1
    C0079     R0833     1
    C0079     R1106     1
    C0079     R1119     1
    C0079     R1171     1
    C0080     OBJ       -1
    C0080     R0002     1
    C0080     R0028     1
    C0080     R0054     1
    C0080     R0080     1
    C0080     R0093     1
    C0080     R0106     1
    C0080     R0158     1
    C0080     R0184     1
    C0080     R0197     1
    C0080     R0210     1
    C0080     R0384     1
    C0080     R0834     1
    C0080     R1107     1
    C0080     R1120     1
    C0080     R1172     1
    C0081     OBJ       -1
    C0081     R0003     1
    C0081     R0029     1
    C0081     R0055     1
    C0081     R0081     1
    C0081     R0094     1
    C0081     R0107     1
    C0081     R0159     1
    C0081     R0185     1
    C0081     R0198     1
    C0081     R0211     1
    C0081     R0384     1
    C0081     R0835     1
    C0081     R1108     1
    C0081     R1121     1
    C0081     R1173     1
    C0082     OBJ       -1
    C0082     R0004     1
    C0082     R0030     1
    C0082     R0056     1
    C0082     R0082     1
    C0082     R0095     1
    C0082     R0108     1
    C0082     R0160     1
    C0082     R0186     1
    C0082     R0199     1
    C0082     R0212     1
    C0082     R0384     1
    C0082     R0836     1
    C0082     R1109     1
    C0082     R1122     1
    C0082     R1174     1
    C0083     OBJ       -1
    C0083     R0005     1
    C0083     R0031     1
    C0083     R0057     1
    C0083     R0083     1
    C0083     R0096     1
    C0083     R0109     1
    C0083     R0161     1
    C0083     R0187     1
    C0083     R0200     1
    C0083     R0213     1
    C0083     R0384     1
    C0083     R0837     1
    C0083     R1110     1
    C0083     R1123     1
    C0083     R1175     1
    C0084     OBJ       -1
    C0084     R0006     1
    C0084     R0032     1
    C0084     R0058     1
    C0084     R0084     1
    C0084     R0097     1
    C0084     R0110     1
    C0084     R0162     1
    C0084     R0188     1
    C0084     R0201     1
    C0084     R0214     1
    C0084     R0384     1
    C0084     R0838     1
    C0084     R1111     1
    C0084     R1124     1
    C0084     R1176     1
    C0085     OBJ       -1
    C0085     R0007     1
    C0085     R0033     1
    C0085     R0059     1
    C0085     R0085     1
    C0085     R0098     1
    C0085     R0111     1
    C0085     R0163     1
    C0085     R0189     1
    C0085     R0202     1
    C0085     R0215     1
    C0085     R0384     1
    C0085     R0839     1
    C0085     R1112     1
    C0085     R1125     1
    C0085     R1177     1
    C0086     OBJ       -1
    C0086     R0008     1
    C0086     R0034     1
    C0086     R0060     1
    C0086     R0086     1
    C0086     R0099     1
    C0086     R0112     1
    C0086     R0164     1
    C0086     R0190     1
    C0086     R0203     1
    C0086     R0216     1
    C0086     R0384     1
    C0086     R0840     1
    C0086     R1113     1
    C0086     R1126     1
    C0086     R1178     1
    C0087     OBJ       -1
    C0087     R0009     1
    C0087     R0035     1
    C0087     R0061     1
    C0087     R0087     1
    C0087     R0100     1
    C0087     R0113     1
    C0087     R0165     1
    C0087     R0191     1
    C0087     R0204     1
    C0087     R0217     1
    C0087     R0384     1
    C0087     R0841     1
    C0087     R1114     1
    C0087     R1127     1
    C0087     R1179     1
    C0088     OBJ       -1
    C0088     R0010     1
    C0088     R0036     1
    C0088     R0062     1
    C0088     R0088     1
    C0088     R0101     1
    C0088     R0114     1
    C0088     R0166     1
    C0088     R0192     1
    C0088     R0205     1
    C0088     R0218     1
    C0088     R0384     1
    C0088     R0842     1
    C0088     R1115     1
    C0088     R1128     1
    C0088     R1180     1
    C0089     OBJ       -1
    C0089     R0011     1
    C0089     R0037     1
    C0089     R0063     1
    C0089     R0089     1
    C0089     R0102     1
    C0089     R0115     1
    C0089     R0167     1
    C0089     R0193     1
    C0089     R0206     1
    C0089     R0219     1
    C0089     R0384     1
    C0089     R0843     1
    C0089     R1116     1
    C0089     R1129     1
    C0089     R1181     1
    C0090     OBJ       -1
    C0090     R0012     1
    C0090     R0038     1
    C0090     R0064     1
    C0090     R0090     1
    C0090     R0103     1
    C0090     R0116     1
    C0090     R0168     1
    C0090     R0194     1
    C0090     R0207     1
    C0090     R0220     1
    C0090     R0384     1
    C0090     R0844     1
    C0090     R1117     1
    C0090     R1130     1
    C0090     R1182     1
    C0091     OBJ       -1
    C0091     R0013     1
    C0091     R0039     1
    C0091     R0065     1
    C0091     R0091     1
    C0091     R0104     1
    C0091     R0117     1
    C0091     R0169     1
    C0091     R0195     1
    C0091     R0208     1
    C0091     R0221     1
    C0091     R0384     1
    C0091     R0845     1
    C0091     R1118     1
    C0091     R1131     1
    C0091     R1183     1
    C0092     OBJ       -1
    C0092     R0014     1
    C0092     R0040     1
    C0092     R0066     1
    C0092     R0118     1
    C0092     R0131     1
    C0092     R0144     1
    C0092     R0170     1
    C0092     R0222     1
    C0092     R0248     1
    C0092     R0261     1
    C0092     R0287     1
    C0092     R0300     1
    C0092     R0385     1
    C0092     R0846     1
    C0092     R1119     1
    C0092     R1132     1
    C0092     R1184     1
    C0092     R1314     1
    C0093     OBJ       -1
    C0093     R0015     1
    C0093     R0041     1
    C0093     R0067     1
    C0093     R0119     1
    C0093     R0132     1
    C0093     R0145     1
    C0093     R0171     1
    C0093     R0223     1
    C0093     R0249     1
    C0093     R0262     1
    C0093     R0288     1
    C0093     R0301     1
    C0093     R0385     1
    C0093     R0847     1
    C0093     R1120     1
    C0093     R1133     1
    C0093     R1185     1
    C0093     R1315     1
    C0094     OBJ       -1
    C0094     R0016     1
    C0094     R0042     1
    C0094     R0068     1
    C0094     R0120     1
    C0094     R0133     1
    C0094     R0146     1
    C0094     R0172     1
    C0094     R0224     1
    C0094     R0250     1
    C0094     R0263     1
    C0094     R0289     1
    C0094     R0302     1
    C0094     R0385     1
    C0094     R0848     1
    C0094     R1121     1
    C0094     R1134     1
    C0094     R1186     1
    C0094     R1316     1
    C0095     OBJ       -1
    C0095     R0017     1
    C0095     R0043     1
    C0095     R0069     1
    C0095     R0121     1
    C0095     R0134     1
    C0095     R0147     1
    C0095     R0173     1
    C0095     R0225     1
    C0095     R0251     1
    C0095     R0264     1
    C0095     R0290     1
    C0095     R0303     1
    C0095     R0385     1
    C0095     R0849     1
    C0095     R1122     1
    C0095     R1135     1
    C0095     R1187     1
    C0095     R1317     1
    C0096     OBJ       -1
    C0096     R0018     1
    C0096     R0044     1
    C0096     R0070     1
    C0096     R0122     1
    C0096     R0135     1
    C0096     R0148     1
    C0096     R0174     1
    C0096     R0226     1
    C0096     R0252     1
    C0096     R0265     1
    C0096     R0291     1
    C0096     R0304     1
    C0096     R0385     1
    C0096     R0850     1
    C0096     R1123     1
    C0096     R1136     1
    C0096     R1188     1
    C0096     R1318     1
    C0097     OBJ       -1
    C0097     R0019     1
    C0097     R0045     1
    C0097     R0071     1
    C0097     R0123     1
    C0097     R0136     1
    C0097     R0149     1
    C0097     R0175     1
    C0097     R0227     1
    C0097     R0253     1
    C0097     R0266     1
    C0097     R0292     1
    C0097     R0305     1
    C0097     R0385     1
    C0097     R0851     1
    C0097     R1124     1
    C0097     R1137     1
    C0097     R1189     1
    C0097     R1319     1
    C0098     OBJ       -1
    C0098     R0020     1
    C0098     R0046     1
    C0098     R0072     1
    C0098     R0124     1
    C0098     R0137     1
    C0098     R0150     1
    C0098     R0176     1
    C0098     R0228     1
    C0098     R0254     1
    C0098     R0267     1
    C0098     R0293     1
    C0098     R0306     1
    C0098     R0385     1
    C0098     R0852     1
    C0098     R1125     1
    C0098     R1138     1
    C0098     R1190     1
    C0098     R1320     1
    C0099     OBJ       -1
    C0099     R0021     1
    C0099     R0047     1
    C0099     R0073     1
    C0099     R0125     1
    C0099     R0138     1
    C0099     R0151     1
    C0099     R0177     1
    C0099     R0229     1
    C0099     R0255     1
    C0099     R0268     1
    C0099     R0294     1
    C0099     R0307     1
    C0099     R0385     1
    C0099     R0853     1
    C0099     R1126     1
    C0099     R1139     1
    C0099     R1191     1
    C0099     R1321     1
    C0100     OBJ       -1
    C0100     R0022     1
    C0100     R0048     1
    C0100     R0074     1
    C0100     R0126     1
    C0100     R0139     1
    C0100     R0152     1
    C0100     R0178     1
    C0100     R0230     1
    C0100     R0256     1
    C0100     R0269     1
    C0100     R0295     1
    C0100     R0308     1
    C0100     R0385     1
    C0100     R0854     1
    C0100     R1127     1
    C0100     R1140     1
    C0100     R1192     1
    C0100     R1322     1
    C0101     OBJ       -1
    C0101     R0023     1
    C0101     R0049     1
    C0101     R0075     1
    C0101     R0127     1
    C0101     R0140     1
    C0101     R0153     1
    C0101     R0179     1
    C0101     R0231     1
    C0101     R0257     1
    C0101     R0270     1
    C0101     R0296     1
    C0101     R0309     1
    C0101     R0385     1
    C0101     R0855     1
    C0101     R1128     1
    C0101     R1141     1
    C0101     R1193     1
    C0101     R1323     1
    C0102     OBJ       -1
    C0102     R0024     1
    C0102     R0050     1
    C0102     R0076     1
    C0102     R0128     1
    C0102     R0141     1
    C0102     R0154     1
    C0102     R0180     1
    C0102     R0232     1
    C0102     R0258     1
    C0102     R0271     1
    C0102     R0297     1
    C0102     R0310     1
    C0102     R0385     1
    C0102     R0856     1
    C0102     R1129     1
    C0102     R1142     1
    C0102     R1194     1
    C0102     R1324     1
    C0103     OBJ       -1
    C0103     R0025     1
    C0103     R0051     1
    C0103     R0077     1
    C0103     R0129     1
    C0103     R0142     1
    C0103     R0155     1
    C0103     R0181     1
    C0103     R0233     1
    C0103     R0259     1
    C0103     R0272     1
    C0103     R0298     1
    C0103     R0311     1
    C0103     R0385     1
    C0103     R0857     1
    C0103     R1130     1
    C0103     R1143     1
    C0103     R1195     1
    C0103     R1325     1
    C0104     OBJ       -1
    C0104     R0026     1
    C0104     R0052     1
    C0104     R0078     1
    C0104     R0130     1
    C0104     R0143     1
    C0104     R0156     1
    C0104     R0182     1
    C0104     R0234     1
    C0104     R0260     1
    C0104     R0273     1
    C0104     R0299     1
    C0104     R0312     1
    C0104     R0385     1
    C0104     R0858     1
    C0104     R1131     1
    C0104     R1144     1
    C0104     R1196     1
    C0104     R1326     1
    C0157     OBJ       -1
    C0157     R0001     1
    C0157     R0014     1
    C0157     R0027     1
    C0157     R0040     1
    C0157     R0053     1
    C0157     R0066     1
    C0157     R0079     1
    C0157     R0118     1
    C0157     R0157     1
    C0157     R0170     1
    C0157     R0183     1
    C0157     R0222     1
    C0157     R0235     1
    C0157     R0390     1
    C0157     R0911     1
    C0157     R1106     1
    C0157     R1119     1
    C0157     R1132     1
    C0157     R1171     1
    C0157     R1184     1
    C0157     R1249     1
    C0157     R1314     1
    C0157     R1340     1
    C0158     OBJ       -1
    C0158     R0002     1
    C0158     R0015     1
    C0158     R0028     1
    C0158     R0041     1
    C0158     R0054     1
    C0158     R0067     1
    C0158     R0080     1
    C0158     R0119     1
    C0158     R0158     1
    C0158     R0171     1
    C0158     R0184     1
    C0158     R0223     1
    C0158     R0236     1
    C0158     R0390     1
    C0158     R0912     1
    C0158     R1107     1
    C0158     R1120     1
    C0158     R1133     1
    C0158     R1172     1
    C0158     R1185     1
    C0158     R1250     1
    C0158     R1315     1
    C0158     R1341     1
    C0159     OBJ       -1
    C0159     R0003     1
    C0159     R0016     1
    C0159     R0029     1
    C0159     R0042     1
    C0159     R0055     1
    C0159     R0068     1
    C0159     R0081     1
    C0159     R0120     1
    C0159     R0159     1
    C0159     R0172     1
    C0159     R0185     1
    C0159     R0224     1
    C0159     R0237     1
    C0159     R0390     1
    C0159     R0913     1
    C0159     R1108     1
    C0159     R1121     1
    C0159     R1134     1
    C0159     R1173     1
    C0159     R1186     1
    C0159     R1251     1
    C0159     R1316     1
    C0159     R1342     1
    C0160     OBJ       -1
    C0160     R0004     1
    C0160     R0017     1
    C0160     R0030     1
    C0160     R0043     1
    C0160     R0056     1
    C0160     R0069     1
    C0160     R0082     1
    C0160     R0121     1
    C0160     R0160     1
    C0160     R0173     1
    C0160     R0186     1
    C0160     R0225     1
    C0160     R0238     1
    C0160     R0390     1
    C0160     R0914     1
    C0160     R1109     1
    C0160     R1122     1
    C0160     R1135     1
    C0160     R1174     1
    C0160     R1187     1
    C0160     R1252     1
    C0160     R1317     1
    C0160     R1343     1
    C0161     OBJ       -1
    C0161     R0005     1
    C0161     R0018     1
    C0161     R0031     1
    C0161     R0044     1
    C0161     R0057     1
    C0161     R0070     1
    C0161     R0083     1
    C0161     R0122     1
    C0161     R0161     1
    C0161     R0174     1
    C0161     R0187     1
    C0161     R0226     1
    C0161     R0239     1
    C0161     R0390     1
    C0161     R0915     1
    C0161     R1110     1
    C0161     R1123     1
    C0161     R1136     1
    C0161     R1175     1
    C0161     R1188     1
    C0161     R1253     1
    C0161     R1318     1
    C0161     R1344     1
    C0162     OBJ       -1
    C0162     R0006     1
    C0162     R0019     1
    C0162     R0032     1
    C0162     R0045     1
    C0162     R0058     1
    C0162     R0071     1
    C0162     R0084     1
    C0162     R0123     1
    C0162     R0162     1
    C0162     R0175     1
    C0162     R0188     1
    C0162     R0227     1
    C0162     R0240     1
    C0162     R0390     1
    C0162     R0916     1
    C0162     R1111     1
    C0162     R1124     1
    C0162     R1137     1
    C0162     R1176     1
    C0162     R1189     1
    C0162     R1254     1
    C0162     R1319     1
    C0162     R1345     1
    C0163     OBJ       -1
    C0163     R0007     1
    C0163     R0020     1
    C0163     R0033     1
    C0163     R0046     1
    C0163     R0059     1
    C0163     R0072     1
    C0163     R0085     1
    C0163     R0124     1
    C0163     R0163     1
    C0163     R0176     1
    C0163     R0189     1
    C0163     R0228     1
    C0163     R0241     1
    C0163     R0390     1
    C0163     R0917     1
    C0163     R1112     1
    C0163     R1125     1
    C0163     R1138     1
    C0163     R1177     1
    C0163     R1190     1
    C0163     R1255     1
    C0163     R1320     1
    C0163     R1346     1
    C0164     OBJ       -1
    C0164     R0008     1
    C0164     R0021     1
    C0164     R0034     1
    C0164     R0047     1
    C0164     R0060     1
    C0164     R0073     1
    C0164     R0086     1
    C0164     R0125     1
    C0164     R0164     1
    C0164     R0177     1
    C0164     R0190     1
    C0164     R0229     1
    C0164     R0242     1
    C0164     R0390     1
    C0164     R0918     1
    C0164     R1113     1
    C0164     R1126     1
    C0164     R1139     1
    C0164     R1178     1
    C0164     R1191     1
    C0164     R1256     1
    C0164     R1321     1
    C0164     R1347     1
    C0165     OBJ       -1
    C0165     R0009     1
    C0165     R0022     1
    C0165     R0035     1
    C0165     R0048     1
    C0165     R0061     1
    C0165     R0074     1
    C0165     R0087     1
    C0165     R0126     1
    C0165     R0165     1
    C0165     R0178     1
    C0165     R0191     1
    C0165     R0230     1
    C0165     R0243     1
    C0165     R0390     1
    C0165     R0919     1
    C0165     R1114     1
    C0165     R1127     1
    C0165     R1140     1
    C0165     R1179     1
    C0165     R1192     1
    C0165     R1257     1
    C0165     R1322     1
    C0165     R1348     1
    C0166     OBJ       -1
    C0166     R0010     1
    C0166     R0023     1
    C0166     R0036     1
    C0166     R0049     1
    C0166     R0062     1
    C0166     R0075     1
    C0166     R0088     1
    C0166     R0127     1
    C0166     R0166     1
    C0166     R0179     1
    C0166     R0192     1
    C0166     R0231     1
    C0166     R0244     1
    C0166     R0390     1
    C0166     R0920     1
    C0166     R1115     1
    C0166     R1128     1
    C0166     R1141     1
    C0166     R1180     1
    C0166     R1193     1
    C0166     R1258     1
    C0166     R1323     1
    C0166     R1349     1
    C0167     OBJ       -1
    C0167     R0011     1
    C0167     R0024     1
    C0167     R0037     1
    C0167     R0050     1
    C0167     R0063     1
    C0167     R0076     1
    C0167     R0089     1
    C0167     R0128     1
    C0167     R0167     1
    C0167     R0180     1
    C0167     R0193     1
    C0167     R0232     1
    C0167     R0245     1
    C0167     R0390     1
    C0167     R0921     1
    C0167     R1116     1
    C0167     R1129     1
    C0167     R1142     1
    C0167     R1181     1
    C0167     R1194     1
    C0167     R1259     1
    C0167     R1324     1
    C0167     R1350     1
    C0168     OBJ       -1
    C0168     R0012     1
    C0168     R0025     1
    C0168     R0038     1
    C0168     R0051     1
    C0168     R0064     1
    C0168     R0077     1
    C0168     R0090     1
    C0168     R0129     1
    C0168     R0168     1
    C0168     R0181     1
    C0168     R0194     1
    C0168     R0233     1
    C0168     R0246     1
    C0168     R0390     1
    C0168     R0922     1
    C0168     R1117     1
    C0168     R1130     1
    C0168     R1143     1
    C0168     R1182     1
    C0168     R1195     1
    C0168     R1260     1
    C0168     R1325     1
    C0168     R1351     1
    C0169     OBJ       -1
    C0169     R0013     1
    C0169     R0026     1
    C0169     R0039     1
    C0169     R0052     1
    C0169     R0065     1
    C0169     R0078     1
    C0169     R0091     1
    C0169     R0130     1
    C0169     R0169     1
    C0169     R0182     1
    C0169     R0195     1
    C0169     R0234     1
    C0169     R0247     1
    C0169     R0390     1
    C0169     R0923     1
    C0169     R1118     1
    C0169     R1131     1
    C0169     R1144     1
    C0169     R1183     1
    C0169     R1196     1
    C0169     R1261     1
    C0169     R1326     1
    C0169     R1352     1
    C0170     OBJ       -1
    C0170     R0053     1
    C0170     R0066     1
    C0170     R0079     1
    C0170     R0092     1
    C0170     R0105     1
    C0170     R0118     1
    C0170     R0131     1
    C0170     R0144     1
    C0170     R0157     1
    C0170     R0170     1
    C0170     R0183     1
    C0170     R0196     1
    C0170     R0209     1
    C0170     R0222     1
    C0170     R0248     1
    C0170     R0261     1
    C0170     R0287     1
    C0170     R0300     1
    C0170     R0391     1
    C0170     R0924     1
    C0170     R1106     1
    C0170     R1119     1
    C0170     R1145     1
    C0170     R1158     1
    C0170     R1184     1
    C0170     R1249     1
    C0170     R1262     1
    C0171     OBJ       -1
    C0171     R0054     1
    C0171     R0067     1
    C0171     R0080     1
    C0171     R0093     1
    C0171     R0106     1
    C0171     R0119     1
    C0171     R0132     1
    C0171     R0145     1
    C0171     R0158     1
    C0171     R0171     1
    C0171     R0184     1
    C0171     R0197     1
    C0171     R0210     1
    C0171     R0223     1
    C0171     R0249     1
    C0171     R0262     1
    C0171     R0288     1
    C0171     R0301     1
    C0171     R0391     1
    C0171     R0925     1
    C0171     R1107     1
    C0171     R1120     1
    C0171     R1146     1
    C0171     R1159     1
    C0171     R1185     1
    C0171     R1250     1
    C0171     R1263     1
    C0172     OBJ       -1
    C0172     R0055     1
    C0172     R0068     1
    C0172     R0081     1
    C0172     R0094     1
    C0172     R0107     1
    C0172     R0120     1
    C0172     R0133     1
    C0172     R0146     1
    C0172     R0159     1
    C0172     R0172     1
    C0172     R0185     1
    C0172     R0198     1
    C0172     R0211     1
    C0172     R0224     1
    C0172     R0250     1
    C0172     R0263     1
    C0172     R0289     1
    C0172     R0302     1
    C0172     R0391     1
    C0172     R0926     1
    C0172     R1108     1
    C0172     R1121     1
    C0172     R1147     1
    C0172     R1160     1
    C0172     R1186     1
    C0172     R1251     1
    C0172     R1264     1
    C0173     OBJ       -1
    C0173     R0056     1
    C0173     R0069     1
    C0173     R0082     1
    C0173     R0095     1
    C0173     R0108     1
    C0173     R0121     1
    C0173     R0134     1
    C0173     R0147     1
    C0173     R0160     1
    C0173     R0173     1
    C0173     R0186     1
    C0173     R0199     1
    C0173     R0212     1
    C0173     R0225     1
    C0173     R0251     1
    C0173     R0264     1
    C0173     R0290     1
    C0173     R0303     1
    C0173     R0391     1
    C0173     R0927     1
    C0173     R1109     1
    C0173     R1122     1
    C0173     R1148     1
    C0173     R1161     1
    C0173     R1187     1
    C0173     R1252     1
    C0173     R1265     1
    C0174     OBJ       -1
    C0174     R0057     1
    C0174     R0070     1
    C0174     R0083     1
    C0174     R0096     1
    C0174     R0109     1
    C0174     R0122     1
    C0174     R0135     1
    C0174     R0148     1
    C0174     R0161     1
    C0174     R0174     1
    C0174     R0187     1
    C0174     R0200     1
    C0174     R0213     1
    C0174     R0226     1
    C0174     R0252     1
    C0174     R0265     1
    C0174     R0291     1
    C0174     R0304     1
    C0174     R0391     1
    C0174     R0928     1
    C0174     R1110     1
    C0174     R1123     1
    C0174     R1149     1
    C0174     R1162     1
    C0174     R1188     1
    C0174     R1253     1
    C0174     R1266     1
    C0175     OBJ       -1
    C0175     R0058     1
    C0175     R0071     1
    C0175     R0084     1
    C0175     R0097     1
    C0175     R0110     1
    C0175     R0123     1
    C0175     R0136     1
    C0175     R0149     1
    C0175     R0162     1
    C0175     R0175     1
    C0175     R0188     1
    C0175     R0201     1
    C0175     R0214     1
    C0175     R0227     1
    C0175     R0253     1
    C0175     R0266     1
    C0175     R0292     1
    C0175     R0305     1
    C0175     R0391     1
    C0175     R0929     1
    C0175     R1111     1
    C0175     R1124     1
    C0175     R1150     1
    C0175     R1163     1
    C0175     R1189     1
    C0175     R1254     1
    C0175     R1267     1
    C0176     OBJ       -1
    C0176     R0059     1
    C0176     R0072     1
    C0176     R0085     1
    C0176     R0098     1
    C0176     R0111     1
    C0176     R0124     1
    C0176     R0137     1
    C0176     R0150     1
    C0176     R0163     1
    C0176     R0176     1
    C0176     R0189     1
    C0176     R0202     1
    C0176     R0215     1
    C0176     R0228     1
    C0176     R0254     1
    C0176     R0267     1
    C0176     R0293     1
    C0176     R0306     1
    C0176     R0391     1
    C0176     R0930     1
    C0176     R1112     1
    C0176     R1125     1
    C0176     R1151     1
    C0176     R1164     1
    C0176     R1190     1
    C0176     R1255     1
    C0176     R1268     1
    C0177     OBJ       -1
    C0177     R0060     1
    C0177     R0073     1
    C0177     R0086     1
    C0177     R0099     1
    C0177     R0112     1
    C0177     R0125     1
    C0177     R0138     1
    C0177     R0151     1
    C0177     R0164     1
    C0177     R0177     1
    C0177     R0190     1
    C0177     R0203     1
    C0177     R0216     1
    C0177     R0229     1
    C0177     R0255     1
    C0177     R0268     1
    C0177     R0294     1
    C0177     R0307     1
    C0177     R0391     1
    C0177     R0931     1
    C0177     R1113     1
    C0177     R1126     1
    C0177     R1152     1
    C0177     R1165     1
    C0177     R1191     1
    C0177     R1256     1
    C0177     R1269     1
    C0178     OBJ       -1
    C0178     R0061     1
    C0178     R0074     1
    C0178     R0087     1
    C0178     R0100     1
    C0178     R0113     1
    C0178     R0126     1
    C0178     R0139     1
    C0178     R0152     1
    C0178     R0165     1
    C0178     R0178     1
    C0178     R0191     1
    C0178     R0204     1
    C0178     R0217     1
    C0178     R0230     1
    C0178     R0256     1
    C0178     R0269     1
    C0178     R0295     1
    C0178     R0308     1
    C0178     R0391     1
    C0178     R0932     1
    C0178     R1114     1
    C0178     R1127     1
    C0178     R1153     1
    C0178     R1166     1
    C0178     R1192     1
    C0178     R1257     1
    C0178     R1270     1
    C0179     OBJ       -1
    C0179     R0062     1
    C0179     R0075     1
    C0179     R0088     1
    C0179     R0101     1
    C0179     R0114     1
    C0179     R0127     1
    C0179     R0140     1
    C0179     R0153     1
    C0179     R0166     1
    C0179     R0179     1
    C0179     R0192     1
    C0179     R0205     1
    C0179     R0218     1
    C0179     R0231     1
    C0179     R0257     1
    C0179     R0270     1
    C0179     R0296     1
    C0179     R0309     1
    C0179     R0391     1
    C0179     R0933     1
    C0179     R1115     1
    C0179     R1128     1
    C0179     R1154     1
    C0179     R1167     1
    C0179     R1193     1
    C0179     R1258     1
    C0179     R1271     1
    C0180     OBJ       -1
    C0180     R0063     1
    C0180     R0076     1
    C0180     R0089     1
    C0180     R0102     1
    C0180     R0115     1
    C0180     R0128     1
    C0180     R0141     1
    C0180     R0154     1
    C0180     R0167     1
    C0180     R0180     1
    C0180     R0193     1
    C0180     R0206     1
    C0180     R0219     1
    C0180     R0232     1
    C0180     R0258     1
    C0180     R0271     1
    C0180     R0297     1
    C0180     R0310     1
    C0180     R0391     1
    C0180     R0934     1
    C0180     R1116     1
    C0180     R1129     1
    C0180     R1155     1
    C0180     R1168     1
    C0180     R1194     1
    C0180     R1259     1
    C0180     R1272     1
    C0181     OBJ       -1
    C0181     R0064     1
    C0181     R0077     1
    C0181     R0090     1
    C0181     R0103     1
    C0181     R0116     1
    C0181     R0129     1
    C0181     R0142     1
    C0181     R0155     1
    C0181     R0168     1
    C0181     R0181     1
    C0181     R0194     1
    C0181     R0207     1
    C0181     R0220     1
    C0181     R0233     1
    C0181     R0259     1
    C0181     R0272     1
    C0181     R0298     1
    C0181     R0311     1
    C0181     R0391     1
    C0181     R0935     1
    C0181     R1117     1
    C0181     R1130     1
    C0181     R1156     1
    C0181     R1169     1
    C0181     R1195     1
    C0181     R1260     1
    C0181     R1273     1
    C0182     OBJ       -1
    C0182     R0065     1
    C0182     R0078     1
    C0182     R0091     1
    C0182     R0104     1
    C0182     R0117     1
    C0182     R0130     1
    C0182     R0143     1
    C0182     R0156     1
    C0182     R0169     1
    C0182     R0182     1
    C0182     R0195     1
    C0182     R0208     1
    C0182     R0221     1
    C0182     R0234     1
    C0182     R0260     1
    C0182     R0273     1
    C0182     R0299     1
    C0182     R0312     1
    C0182     R0391     1
    C0182     R0936     1
    C0182     R1118     1
    C0182     R1131     1
    C0182     R1157     1
    C0182     R1170     1
    C0182     R1196     1
    C0182     R1261     1
    C0182     R1274     1
    C0183     OBJ       -1
    C0183     R0001     1
    C0183     R0014     1
    C0183     R0027     1
    C0183     R0040     1
    C0183     R0053     1
    C0183     R0066     1
    C0183     R0079     1
    C0183     R0092     1
    C0183     R0105     1
    C0183     R0118     1
    C0183     R0131     1
    C0183     R0144     1
    C0183     R0157     1
    C0183     R0170     1
    C0183     R0183     1
    C0183     R0196     1
    C0183     R0209     1
    C0183     R0222     1
    C0183     R0235     1
    C0183     R0248     1
    C0183     R0261     1
    C0183     R0274     1
    C0183     R0287     1
    C0183     R0300     1
    C0183     R0313     1
    C0183     R0392     1
    C0183     R0937     1
    C0183     R1093     1
    C0183     R1119     1
    C0183     R1132     1
    C0183     R1145     1
    C0183     R1158     1
    C0183     R1171     1
    C0183     R1249     1
    C0183     R1275     1
    C0183     R1314     1
    C0183     R1340     1
    C0184     OBJ       -1
    C0184     R0002     1
    C0184     R0015     1
    C0184     R0028     1
    C0184     R0041     1
    C0184     R0054     1
    C0184     R0067     1
    C0184     R0080     1
    C0184     R0093     1
    C0184     R0106     1
    C0184     R0119     1
    C0184     R0132     1
    C0184     R0145     1
    C0184     R0158     1
    C0184     R0171     1
    C0184     R0184     1
    C0184     R0197     1
    C0184     R0210     1
    C0184     R0223     1
    C0184     R0236     1
    C0184     R0249     1
    C0184     R0262     1
    C0184     R0275     1
    C0184     R0288     1
    C0184     R0301     1
    C0184     R0314     1
    C0184     R0392     1
    C0184     R0938     1
    C0184     R1094     1
    C0184     R1120     1
    C0184     R1133     1
    C0184     R1146     1
    C0184     R1159     1
    C0184     R1172     1
    C0184     R1250     1
    C0184     R1276     1
    C0184     R1315     1
    C0184     R1341     1
    C0185     OBJ       -1
    C0185     R0003     1
    C0185     R0016     1
    C0185     R0029     1
    C0185     R0042     1
    C0185     R0055     1
    C0185     R0068     1
    C0185     R0081     1
    C0185     R0094     1
    C0185     R0107     1
    C0185     R0120     1
    C0185     R0133     1
    C0185     R0146     1
    C0185     R0159     1
    C0185     R0172     1
    C0185     R0185     1
    C0185     R0198     1
    C0185     R0211     1
    C0185     R0224     1
    C0185     R0237     1
    C0185     R0250     1
    C0185     R0263     1
    C0185     R0276     1
    C0185     R0289     1
    C0185     R0302     1
    C0185     R0315     1
    C0185     R0392     1
    C0185     R0939     1
    C0185     R1095     1
    C0185     R1121     1
    C0185     R1134     1
    C0185     R1147     1
    C0185     R1160     1
    C0185     R1173     1
    C0185     R1251     1
    C0185     R1277     1
    C0185     R1316     1
    C0185     R1342     1
    C0186     OBJ       -1
    C0186     R0004     1
    C0186     R0017     1
    C0186     R0030     1
    C0186     R0043     1
    C0186     R0056     1
    C0186     R0069     1
    C0186     R0082     1
    C0186     R0095     1
    C0186     R0108     1
    C0186     R0121     1
    C0186     R0134     1
    C0186     R0147     1
    C0186     R0160     1
    C0186     R0173     1
    C0186     R0186     1
    C0186     R0199     1
    C0186     R0212     1
    C0186     R0225     1
    C0186     R0238     1
    C0186     R0251     1
    C0186     R0264     1
    C0186     R0277     1
    C0186     R0290     1
    C0186     R0303     1
    C0186     R0316     1
    C0186     R0392     1
    C0186     R0940     1
    C0186     R1096     1
    C0186     R1122     1
    C0186     R1135     1
    C0186     R1148     1
    C0186     R1161     1
    C0186     R1174     1
    C0186     R1252     1
    C0186     R1278     1
    C0186     R1317     1
    C0186     R1343     1
    C0187     OBJ       -1
    C0187     R0005     1
    C0187     R0018     1
    C0187     R0031     1
    C0187     R0044     1
    C0187     R0057     1
    C0187     R0070     1
    C0187     R0083     1
    C0187     R0096     1
    C0187     R0109     1
    C0187     R0122     1
    C0187     R0135     1
    C0187     R0148     1
    C0187     R0161     1
    C0187     R0174     1
    C0187     R0187     1
    C0187     R0200     1
    C0187     R0213     1
    C0187     R0226     1
    C0187     R0239     1
    C0187     R0252     1
    C0187     R0265     1
    C0187     R0278     1
    C0187     R0291     1
    C0187     R0304     1
    C0187     R0317     1
    C0187     R0392     1
    C0187     R0941     1
    C0187     R1097     1
    C0187     R1123     1
    C0187     R1136     1
    C0187     R1149     1
    C0187     R1162     1
    C0187     R1175     1
    C0187     R1253     1
    C0187     R1279     1
    C0187     R1318     1
    C0187     R1344     1
    C0188     OBJ       -1
    C0188     R0006     1
    C0188     R0019     1
    C0188     R0032     1
    C0188     R0045     1
    C0188     R0058     1
    C0188     R0071     1
    C0188     R0084     1
    C0188     R0097     1
    C0188     R0110     1
    C0188     R0123     1
    C0188     R0136     1
    C0188     R0149     1
    C0188     R0162     1
    C0188     R0175     1
    C0188     R0188     1
    C0188     R0201     1
    C0188     R0214     1
    C0188     R0227     1
    C0188     R0240     1
    C0188     R0253     1
    C0188     R0266     1
    C0188     R0279     1
    C0188     R0292     1
    C0188     R0305     1
    C0188     R0318     1
    C0188     R0392     1
    C0188     R0942     1
    C0188     R1098     1
    C0188     R1124     1
    C0188     R1137     1
    C0188     R1150     1
    C0188     R1163     1
    C0188     R1176     1
    C0188     R1254     1
    C0188     R1280     1
    C0188     R1319     1
    C0188     R1345     1
    C0189     OBJ       -1
    C0189     R0007     1
    C0189     R0020     1
    C0189     R0033     1
    C0189     R0046     1
    C0189     R0059     1
    C0189     R0072     1
    C0189     R0085     1
    C0189     R0098     1
    C0189     R0111     1
    C0189     R0124     1
    C0189     R0137     1
    C0189     R0150     1
    C0189     R0163     1
    C0189     R0176     1
    C0189     R0189     1
    C0189     R0202     1
    C0189     R0215     1
    C0189     R0228     1
    C0189     R0241     1
    C0189     R0254     1
    C0189     R0267     1
    C0189     R0280     1
    C0189     R0293     1
    C0189     R0306     1
    C0189     R0319     1
    C0189     R0392     1
    C0189     R0943     1
    C0189     R1099     1
    C0189     R1125     1
    C0189     R1138     1
    C0189     R1151     1
    C0189     R1164     1
    C0189     R1177     1
    C0189     R1255     1
    C0189     R1281     1
    C0189     R1320     1
    C0189     R1346     1
    C0190     OBJ       -1
    C0190     R0008     1
    C0190     R0021     1
    C0190     R0034     1
    C0190     R0047     1
    C0190     R0060     1
    C0190     R0073     1
    C0190     R0086     1
    C0190     R0099     1
    C0190     R0112     1
    C0190     R0125     1
    C0190     R0138     1
    C0190     R0151     1
    C0190     R0164     1
    C0190     R0177     1
    C0190     R0190     1
    C0190     R0203     1
    C0190     R0216     1
    C0190     R0229     1
    C0190     R0242     1
    C0190     R0255     1
    C0190     R0268     1
    C0190     R0281     1
    C0190     R0294     1
    C0190     R0307     1
    C0190     R0320     1
    C0190     R0392     1
    C0190     R0944     1
    C0190     R1100     1
    C0190     R1126     1
    C0190     R1139     1
    C0190     R1152     1
    C0190     R1165     1
    C0190     R1178     1
    C0190     R1256     1
    C0190     R1282     1
    C0190     R1321     1
    C0190     R1347     1
    C0191     OBJ       -1
    C0191     R0009     1
    C0191     R0022     1
    C0191     R0035     1
    C0191     R0048     1
    C0191     R0061     1
    C0191     R0074     1
    C0191     R0087     1
    C0191     R0100     1
    C0191     R0113     1
    C0191     R0126     1
    C0191     R0139     1
    C0191     R0152     1
    C0191     R0165     1
    C0191     R0178     1
    C0191     R0191     1
    C0191     R0204     1
    C0191     R0217     1
    C0191     R0230     1
    C0191     R0243     1
    C0191     R0256     1
    C0191     R0269     1
    C0191     R0282     1
    C0191     R0295     1
    C0191     R0308     1
    C0191     R0321     1
    C0191     R0392     1
    C0191     R0945     1
    C0191     R1101     1
    C0191     R1127     1
    C0191     R1140     1
    C0191     R1153     1
    C0191     R1166     1
    C0191     R1179     1
    C0191     R1257     1
    C0191     R1283     1
    C0191     R1322     1
    C0191     R1348     1
    C0192     OBJ       -1
    C0192     R0010     1
    C0192     R0023     1
    C0192     R0036     1
    C0192     R0049     1
    C0192     R0062     1
    C0192     R0075     1
    C0192     R0088     1
    C0192     R0101     1
    C0192     R0114     1
    C0192     R0127     1
    C0192     R0140     1
    C0192     R0153     1
    C0192     R0166     1
    C0192     R0179     1
    C0192     R0192     1
    C0192     R0205     1
    C0192     R0218     1
    C0192     R0231     1
    C0192     R0244     1
    C0192     R0257     1
    C0192     R0270     1
    C0192     R0283     1
    C0192     R0296     1
    C0192     R0309     1
    C0192     R0322     1
    C0192     R0392     1
    C0192     R0946     1
    C0192     R1102     1
    C0192     R1128     1
    C0192     R1141     1
    C0192     R1154     1
    C0192     R1167     1
    C0192     R1180     1
    C0192     R1258     1
    C0192     R1284     1
    C0192     R1323     1
    C0192     R1349     1
    C0193     OBJ       -1
    C0193     R0011     1
    C0193     R0024     1
    C0193     R0037     1
    C0193     R0050     1
    C0193     R0063     1
    C0193     R0076     1
    C0193     R0089     1
    C0193     R0102     1
    C0193     R0115     1
    C0193     R0128     1
    C0193     R0141     1
    C0193     R0154     1
    C0193     R0167     1
    C0193     R0180     1
    C0193     R0193     1
    C0193     R0206     1
    C0193     R0219     1
    C0193     R0232     1
    C0193     R0245     1
    C0193     R0258     1
    C0193     R0271     1
    C0193     R0284     1
    C0193     R0297     1
    C0193     R0310     1
    C0193     R0323     1
    C0193     R0392     1
    C0193     R0947     1
    C0193     R1103     1
    C0193     R1129     1
    C0193     R1142     1
    C0193     R1155     1
    C0193     R1168     1
    C0193     R1181     1
    C0193     R1259     1
    C0193     R1285     1
    C0193     R1324     1
    C0193     R1350     1
    C0194     OBJ       -1
    C0194     R0012     1
    C0194     R0025     1
    C0194     R0038     1
    C0194     R0051     1
    C0194     R0064     1
    C0194     R0077     1
    C0194     R0090     1
    C0194     R0103     1
    C0194     R0116     1
    C0194     R0129     1
    C0194     R0142     1
    C0194     R0155     1
    C0194     R0168     1
    C0194     R0181     1
    C0194     R0194     1
    C0194     R0207     1
    C0194     R0220     1
    C0194     R0233     1
    C0194     R0246     1
    C0194     R0259     1
    C0194     R0272     1
    C0194     R0285     1
    C0194     R0298     1
    C0194     R0311     1
    C0194     R0324     1
    C0194     R0392     1
    C0194     R0948     1
    C0194     R1104     1
    C0194     R1130     1
    C0194     R1143     1
    C0194     R1156     1
    C0194     R1169     1
    C0194     R1182     1
    C0194     R1260     1
    C0194     R1286     1
    C0194     R1325     1
    C0194     R1351     1
    C0195     OBJ       -1
    C0195     R0013     1
    C0195     R0026     1
    C0195     R0039     1
    C0195     R0052     1
    C0195     R0065     1
    C0195     R0078     1
    C0195     R0091     1
    C0195     R0104     1
    C0195     R0117     1
    C0195     R0130     1
    C0195     R0143     1
    C0195     R0156     1
    C0195     R0169     1
    C0195     R0182     1
    C0195     R0195     1
    C0195     R0208     1
    C0195     R0221     1
    C0195     R0234     1
    C0195     R0247     1
    C0195     R0260     1
    C0195     R0273     1
    C0195     R0286     1
    C0195     R0299     1
    C0195     R0312     1
    C0195     R0325     1
    C0195     R0392     1
    C0195     R0949     1
    C0195     R1105     1
    C0195     R1131     1
    C0195     R1144     1
    C0195     R1157     1
    C0195     R1170     1
    C0195     R1183     1
    C0195     R1261     1
    C0195     R1287     1
    C0195     R1326     1
    C0195     R1352     1
    C0196     OBJ       -1
    C0196     R0092     1
    C0196     R0131     1
    C0196     R0196     1
    C0196     R0248     1
    C0196     R0261     1
    C0196     R0274     1
    C0196     R0393     1
    C0196     R0950     1
    C0196     R1106     1
    C0196     R1119     1
    C0196     R1132     1
    C0196     R1158     1
    C0196     R1171     1
    C0196     R1184     1
    C0196     R1314     1
    C0196     R1340     1
    C0197     OBJ       -1
    C0197     R0093     1
    C0197     R0132     1
    C0197     R0197     1
    C0197     R0249     1
    C0197     R0262     1
    C0197     R0275     1
    C0197     R0393     1
    C0197     R0951     1
    C0197     R1107     1
    C0197     R1120     1
    C0197     R1133     1
    C0197     R1159     1
    C0197     R1172     1
    C0197     R1185     1
    C0197     R1315     1
    C0197     R1341     1
    C0198     OBJ       -1
    C0198     R0094     1
    C0198     R0133     1
    C0198     R0198     1
    C0198     R0250     1
    C0198     R0263     1
    C0198     R0276     1
    C0198     R0393     1
    C0198     R0952     1
    C0198     R1108     1
    C0198     R1121     1
    C0198     R1134     1
    C0198     R1160     1
    C0198     R1173     1
    C0198     R1186     1
    C0198     R1316     1
    C0198     R1342     1
    C0199     OBJ       -1
    C0199     R0095     1
    C0199     R0134     1
    C0199     R0199     1
    C0199     R0251     1
    C0199     R0264     1
    C0199     R0277     1
    C0199     R0393     1
    C0199     R0953     1
    C0199     R1109     1
    C0199     R1122     1
    C0199     R1135     1
    C0199     R1161     1
    C0199     R1174     1
    C0199     R1187     1
    C0199     R1317     1
    C0199     R1343     1
    C0200     OBJ       -1
    C0200     R0096     1
    C0200     R0135     1
    C0200     R0200     1
    C0200     R0252     1
    C0200     R0265     1
    C0200     R0278     1
    C0200     R0393     1
    C0200     R0954     1
    C0200     R1110     1
    C0200     R1123     1
    C0200     R1136     1
    C0200     R1162     1
    C0200     R1175     1
    C0200     R1188     1
    C0200     R1318     1
    C0200     R1344     1
    C0201     OBJ       -1
    C0201     R0097     1
    C0201     R0136     1
    C0201     R0201     1
    C0201     R0253     1
    C0201     R0266     1
    C0201     R0279     1
    C0201     R0393     1
    C0201     R0955     1
    C0201     R1111     1
    C0201     R1124     1
    C0201     R1137     1
    C0201     R1163     1
    C0201     R1176     1
    C0201     R1189     1
    C0201     R1319     1
    C0201     R1345     1
    C0202     OBJ       -1
    C0202     R0098     1
    C0202     R0137     1
    C0202     R0202     1
    C0202     R0254     1
    C0202     R0267     1
    C0202     R0280     1
    C0202     R0393     1
    C0202     R0956     1
    C0202     R1112     1
    C0202     R1125     1
    C0202     R1138     1
    C0202     R1164     1
    C0202     R1177     1
    C0202     R1190     1
    C0202     R1320     1
    C0202     R1346     1
    C0203     OBJ       -1
    C0203     R0099     1
    C0203     R0138     1
    C0203     R0203     1
    C0203     R0255     1
    C0203     R0268     1
    C0203     R0281     1
    C0203     R0393     1
    C0203     R0957     1
    C0203     R1113     1
    C0203     R1126     1
    C0203     R1139     1
    C0203     R1165     1
    C0203     R1178     1
    C0203     R1191     1
    C0203     R1321     1
    C0203     R1347     1
    C0204     OBJ       -1
    C0204     R0100     1
    C0204     R0139     1
    C0204     R0204     1
    C0204     R0256     1
    C0204     R0269     1
    C0204     R0282     1
    C0204     R0393     1
    C0204     R0958     1
    C0204     R1114     1
    C0204     R1127     1
    C0204     R1140     1
    C0204     R1166     1
    C0204     R1179     1
    C0204     R1192     1
    C0204     R1322     1
    C0204     R1348     1
    C0205     OBJ       -1
    C0205     R0101     1
    C0205     R0140     1
    C0205     R0205     1
    C0205     R0257     1
    C0205     R0270     1
    C0205     R0283     1
    C0205     R0393     1
    C0205     R0959     1
    C0205     R1115     1
    C0205     R1128     1
    C0205     R1141     1
    C0205     R1167     1
    C0205     R1180     1
    C0205     R1193     1
    C0205     R1323     1
    C0205     R1349     1
    C0206     OBJ       -1
    C0206     R0102     1
    C0206     R0141     1
    C0206     R0206     1
    C0206     R0258     1
    C0206     R0271     1
    C0206     R0284     1
    C0206     R0393     1
    C0206     R0960     1
    C0206     R1116     1
    C0206     R1129     1
    C0206     R1142     1
    C0206     R1168     1
    C0206     R1181     1
    C0206     R1194     1
    C0206     R1324     1
    C0206     R1350     1
    C0207     OBJ       -1
    C0207     R0103     1
    C0207     R0142     1
    C0207     R0207     1
    C0207     R0259     1
    C0207     R0272     1
    C0207     R0285     1
    C0207     R0393     1
    C0207     R0961     1
    C0207     R1117     1
    C0207     R1130     1
    C0207     R1143     1
    C0207     R1169     1
    C0207     R1182     1
    C0207     R1195     1
    C0207     R1325     1
    C0207     R1351     1
    C0208     OBJ       -1
    C0208     R0104     1
    C0208     R0143     1
    C0208     R0208     1
    C0208     R0260     1
    C0208     R0273     1
    C0208     R0286     1
    C0208     R0393     1
    C0208     R0962     1
    C0208     R1118     1
    C0208     R1131     1
    C0208     R1144     1
    C0208     R1170     1
    C0208     R1183     1
    C0208     R1196     1
    C0208     R1326     1
    C0208     R1352     1
    C0209     OBJ       -1
    C0209     R0105     1
    C0209     R0144     1
    C0209     R0209     1
    C0209     R0287     1
    C0209     R0300     1
    C0209     R0313     1
    C0209     R0394     1
    C0209     R0963     1
    C0209     R1106     1
    C0209     R1119     1
    C0209     R1132     1
    C0209     R1158     1
    C0209     R1171     1
    C0209     R1184     1
    C0209     R1314     1
    C0210     OBJ       -1
    C0210     R0106     1
    C0210     R0145     1
    C0210     R0210     1
    C0210     R0288     1
    C0210     R0301     1
    C0210     R0314     1
    C0210     R0394     1
    C0210     R0964     1
    C0210     R1107     1
    C0210     R1120     1
    C0210     R1133     1
    C0210     R1159     1
    C0210     R1172     1
    C0210     R1185     1
    C0210     R1315     1
    C0211     OBJ       -1
    C0211     R0107     1
    C0211     R0146     1
    C0211     R0211     1
    C0211     R0289     1
    C0211     R0302     1
    C0211     R0315     1
    C0211     R0394     1
    C0211     R0965     1
    C0211     R1108     1
    C0211     R1121     1
    C0211     R1134     1
    C0211     R1160     1
    C0211     R1173     1
    C0211     R1186     1
    C0211     R1316     1
    C0212     OBJ       -1
    C0212     R0108     1
    C0212     R0147     1
    C0212     R0212     1
    C0212     R0290     1
    C0212     R0303     1
    C0212     R0316     1
    C0212     R0394     1
    C0212     R0966     1
    C0212     R1109     1
    C0212     R1122     1
    C0212     R1135     1
    C0212     R1161     1
    C0212     R1174     1
    C0212     R1187     1
    C0212     R1317     1
    C0213     OBJ       -1
    C0213     R0109     1
    C0213     R0148     1
    C0213     R0213     1
    C0213     R0291     1
    C0213     R0304     1
    C0213     R0317     1
    C0213     R0394     1
    C0213     R0967     1
    C0213     R1110     1
    C0213     R1123     1
    C0213     R1136     1
    C0213     R1162     1
    C0213     R1175     1
    C0213     R1188     1
    C0213     R1318     1
    C0214     OBJ       -1
    C0214     R0110     1
    C0214     R0149     1
    C0214     R0214     1
    C0214     R0292     1
    C0214     R0305     1
    C0214     R0318     1
    C0214     R0394     1
    C0214     R0968     1
    C0214     R1111     1
    C0214     R1124     1
    C0214     R1137     1
    C0214     R1163     1
    C0214     R1176     1
    C0214     R1189     1
    C0214     R1319     1
    C0215     OBJ       -1
    C0215     R0111     1
    C0215     R0150     1
    C0215     R0215     1
    C0215     R0293     1
    C0215     R0306     1
    C0215     R0319     1
    C0215     R0394     1
    C0215     R0969     1
    C0215     R1112     1
    C0215     R1125     1
    C0215     R1138     1
    C0215     R1164     1
    C0215     R1177     1
    C0215     R1190     1
    C0215     R1320     1
    C0216     OBJ       -1
    C0216     R0112     1
    C0216     R0151     1
    C0216     R0216     1
    C0216     R0294     1
    C0216     R0307     1
    C0216     R0320     1
    C0216     R0394     1
    C0216     R0970     1
    C0216     R1113     1
    C0216     R1126     1
    C0216     R1139     1
    C0216     R1165     1
    C0216     R1178     1
    C0216     R1191     1
    C0216     R1321     1
    C0217     OBJ       -1
    C0217     R0113     1
    C0217     R0152     1
    C0217     R0217     1
    C0217     R0295     1
    C0217     R0308     1
    C0217     R0321     1
    C0217     R0394     1
    C0217     R0971     1
    C0217     R1114     1
    C0217     R1127     1
    C0217     R1140     1
    C0217     R1166     1
    C0217     R1179     1
    C0217     R1192     1
    C0217     R1322     1
    C0218     OBJ       -1
    C0218     R0114     1
    C0218     R0153     1
    C0218     R0218     1
    C0218     R0296     1
    C0218     R0309     1
    C0218     R0322     1
    C0218     R0394     1
    C0218     R0972     1
    C0218     R1115     1
    C0218     R1128     1
    C0218     R1141     1
    C0218     R1167     1
    C0218     R1180     1
    C0218     R1193     1
    C0218     R1323     1
    C0219     OBJ       -1
    C0219     R0115     1
    C0219     R0154     1
    C0219     R0219     1
    C0219     R0297     1
    C0219     R0310     1
    C0219     R0323     1
    C0219     R0394     1
    C0219     R0973     1
    C0219     R1116     1
    C0219     R1129     1
    C0219     R1142     1
    C0219     R1168     1
    C0219     R1181     1
    C0219     R1194     1
    C0219     R1324     1
    C0220     OBJ       -1
    C0220     R0116     1
    C0220     R0155     1
    C0220     R0220     1
    C0220     R0298     1
    C0220     R0311     1
    C0220     R0324     1
    C0220     R0394     1
    C0220     R0974     1
    C0220     R1117     1
    C0220     R1130     1
    C0220     R1143     1
    C0220     R1169     1
    C0220     R1182     1
    C0220     R1195     1
    C0220     R1325     1
    C0221     OBJ       -1
    C0221     R0117     1
    C0221     R0156     1
    C0221     R0221     1
    C0221     R0299     1
    C0221     R0312     1
    C0221     R0325     1
    C0221     R0394     1
    C0221     R0975     1
    C0221     R1118     1
    C0221     R1131     1
    C0221     R1144     1
    C0221     R1170     1
    C0221     R1183     1
    C0221     R1196     1
    C0221     R1326     1
    C0222     OBJ       -1
    C0222     R0001     1
    C0222     R0014     1
    C0222     R0027     1
    C0222     R0040     1
    C0222     R0053     1
    C0222     R0066     1
    C0222     R0079     1
    C0222     R0092     1
    C0222     R0105     1
    C0222     R0118     1
    C0222     R0131     1
    C0222     R0144     1
    C0222     R0157     1
    C0222     R0170     1
    C0222     R0183     1
    C0222     R0196     1
    C0222     R0209     1
    C0222     R0222     1
    C0222     R0248     1
    C0222     R0287     1
    C0222     R0395     1
    C0222     R0976     1
    C0222     R1093     1
    C0222     R1106     1
    C0222     R1119     1
    C0222     R1184     1
    C0222     R1262     1
    C0222     R1275     1
    C0222     R1314     1
    C0223     OBJ       -1
    C0223     R0002     1
    C0223     R0015     1
    C0223     R0028     1
    C0223     R0041     1
    C0223     R0054     1
    C0223     R0067     1
    C0223     R0080     1
    C0223     R0093     1
    C0223     R0106     1
    C0223     R0119     1
    C0223     R0132     1
    C0223     R0145     1
    C0223     R0158     1
    C0223     R0171     1
    C0223     R0184     1
    C0223     R0197     1
    C0223     R0210     1
    C0223     R0223     1
    C0223     R0249     1
    C0223     R0288     1
    C0223     R0395     1
    C0223     R0977     1
    C0223     R1094     1
    C0223     R1107     1
    C0223     R1120     1
    C0223     R1185     1
    C0223     R1263     1
    C0223     R1276     1
    C0223     R1315     1
    C0224     OBJ       -1
    C0224     R0003     1
    C0224     R0016     1
    C0224     R0029     1
    C0224     R0042     1
    C0224     R0055     1
    C0224     R0068     1
    C0224     R0081     1
    C0224     R0094     1
    C0224     R0107     1
    C0224     R0120     1
    C0224     R0133     1
    C0224     R0146     1
    C0224     R0159     1
    C0224     R0172     1
    C0224     R0185     1
    C0224     R0198     1
    C0224     R0211     1
    C0224     R0224     1
    C0224     R0250     1
    C0224     R0289     1
    C0224     R0395     1
    C0224     R0978     1
    C0224     R1095     1
    C0224     R1108     1
    C0224     R1121     1
    C0224     R1186     1
    C0224     R1264     1
    C0224     R1277     1
    C0224     R1316     1
    C0225     OBJ       -1
    C0225     R0004     1
    C0225     R0017     1
    C0225     R0030     1
    C0225     R0043     1
    C0225     R0056     1
    C0225     R0069     1
    C0225     R0082     1
    C0225     R0095     1
    C0225     R0108     1
    C0225     R0121     1
    C0225     R0134     1
    C0225     R0147     1
    C0225     R0160     1
    C0225     R0173     1
    C0225     R0186     1
    C0225     R0199     1
    C0225     R0212     1
    C0225     R0225     1
    C0225     R0251     1
    C0225     R0290     1
    C0225     R0395     1
    C0225     R0979     1
    C0225     R1096     1
    C0225     R1109     1
    C0225     R1122     1
    C0225     R1187     1
    C0225     R1265     1
    C0225     R1278     1
    C0225     R1317     1
    C0226     OBJ       -1
    C0226     R0005     1
    C0226     R0018     1
    C0226     R0031     1
    C0226     R0044     1
    C0226     R0057     1
    C0226     R0070     1
    C0226     R0083     1
    C0226     R0096     1
    C0226     R0109     1
    C0226     R0122     1
    C0226     R0135     1
    C0226     R0148     1
    C0226     R0161     1
    C0226     R0174     1
    C0226     R0187     1
    C0226     R0200     1
    C0226     R0213     1
    C0226     R0226     1
    C0226     R0252     1
    C0226     R0291     1
    C0226     R0395     1
    C0226     R0980     1
    C0226     R1097     1
    C0226     R1110     1
    C0226     R1123     1
    C0226     R1188     1
    C0226     R1266     1
    C0226     R1279     1
    C0226     R1318     1
    C0227     OBJ       -1
    C0227     R0006     1
    C0227     R0019     1
    C0227     R0032     1
    C0227     R0045     1
    C0227     R0058     1
    C0227     R0071     1
    C0227     R0084     1
    C0227     R0097     1
    C0227     R0110     1
    C0227     R0123     1
    C0227     R0136     1
    C0227     R0149     1
    C0227     R0162     1
    C0227     R0175     1
    C0227     R0188     1
    C0227     R0201     1
    C0227     R0214     1
    C0227     R0227     1
    C0227     R0253     1
    C0227     R0292     1
    C0227     R0395     1
    C0227     R0981     1
    C0227     R1098     1
    C0227     R1111     1
    C0227     R1124     1
    C0227     R1189     1
    C0227     R1267     1
    C0227     R1280     1
    C0227     R1319     1
    C0228     OBJ       -1
    C0228     R0007     1
    C0228     R0020     1
    C0228     R0033     1
    C0228     R0046     1
    C0228     R0059     1
    C0228     R0072     1
    C0228     R0085     1
    C0228     R0098     1
    C0228     R0111     1
    C0228     R0124     1
    C0228     R0137     1
    C0228     R0150     1
    C0228     R0163     1
    C0228     R0176     1
    C0228     R0189     1
    C0228     R0202     1
    C0228     R0215     1
    C0228     R0228     1
    C0228     R0254     1
    C0228     R0293     1
    C0228     R0395     1
    C0228     R0982     1
    C0228     R1099     1
    C0228     R1112     1
    C0228     R1125     1
    C0228     R1190     1
    C0228     R1268     1
    C0228     R1281     1
    C0228     R1320     1
    C0229     OBJ       -1
    C0229     R0008     1
    C0229     R0021     1
    C0229     R0034     1
    C0229     R0047     1
    C0229     R0060     1
    C0229     R0073     1
    C0229     R0086     1
    C0229     R0099     1
    C0229     R0112     1
    C0229     R0125     1
    C0229     R0138     1
    C0229     R0151     1
    C0229     R0164     1
    C0229     R0177     1
    C0229     R0190     1
    C0229     R0203     1
    C0229     R0216     1
    C0229     R0229     1
    C0229     R0255     1
    C0229     R0294     1
    C0229     R0395     1
    C0229     R0983     1
    C0229     R1100     1
    C0229     R1113     1
    C0229     R1126     1
    C0229     R1191     1
    C0229     R1269     1
    C0229     R1282     1
    C0229     R1321     1
    C0230     OBJ       -1
    C0230     R0009     1
    C0230     R0022     1
    C0230     R0035     1
    C0230     R0048     1
    C0230     R0061     1
    C0230     R0074     1
    C0230     R0087     1
    C0230     R0100     1
    C0230     R0113     1
    C0230     R0126     1
    C0230     R0139     1
    C0230     R0152     1
    C0230     R0165     1
    C0230     R0178     1
    C0230     R0191     1
    C0230     R0204     1
    C0230     R0217     1
    C0230     R0230     1
    C0230     R0256     1
    C0230     R0295     1
    C0230     R0395     1
    C0230     R0984     1
    C0230     R1101     1
    C0230     R1114     1
    C0230     R1127     1
    C0230     R1192     1
    C0230     R1270     1
    C0230     R1283     1
    C0230     R1322     1
    C0231     OBJ       -1
    C0231     R0010     1
    C0231     R0023     1
    C0231     R0036     1
    C0231     R0049     1
    C0231     R0062     1
    C0231     R0075     1
    C0231     R0088     1
    C0231     R0101     1
    C0231     R0114     1
    C0231     R0127     1
    C0231     R0140     1
    C0231     R0153     1
    C0231     R0166     1
    C0231     R0179     1
    C0231     R0192     1
    C0231     R0205     1
    C0231     R0218     1
    C0231     R0231     1
    C0231     R0257     1
    C0231     R0296     1
    C0231     R0395     1
    C0231     R0985     1
    C0231     R1102     1
    C0231     R1115     1
    C0231     R1128     1
    C0231     R1193     1
    C0231     R1271     1
    C0231     R1284     1
    C0231     R1323     1
    C0232     OBJ       -1
    C0232     R0011     1
    C0232     R0024     1
    C0232     R0037     1
    C0232     R0050     1
    C0232     R0063     1
    C0232     R0076     1
    C0232     R0089     1
    C0232     R0102     1
    C0232     R0115     1
    C0232     R0128     1
    C0232     R0141     1
    C0232     R0154     1
    C0232     R0167     1
    C0232     R0180     1
    C0232     R0193     1
    C0232     R0206     1
    C0232     R0219     1
    C0232     R0232     1
    C0232     R0258     1
    C0232     R0297     1
    C0232     R0395     1
    C0232     R0986     1
    C0232     R1103     1
    C0232     R1116     1
    C0232     R1129     1
    C0232     R1194     1
    C0232     R1272     1
    C0232     R1285     1
    C0232     R1324     1
    C0233     OBJ       -1
    C0233     R0012     1
    C0233     R0025     1
    C0233     R0038     1
    C0233     R0051     1
    C0233     R0064     1
    C0233     R0077     1
    C0233     R0090     1
    C0233     R0103     1
    C0233     R0116     1
    C0233     R0129     1
    C0233     R0142     1
    C0233     R0155     1
    C0233     R0168     1
    C0233     R0181     1
    C0233     R0194     1
    C0233     R0207     1
    C0233     R0220     1
    C0233     R0233     1
    C0233     R0259     1
    C0233     R0298     1
    C0233     R0395     1
    C0233     R0987     1
    C0233     R1104     1
    C0233     R1117     1
    C0233     R1130     1
    C0233     R1195     1
    C0233     R1273     1
    C0233     R1286     1
    C0233     R1325     1
    C0234     OBJ       -1
    C0234     R0013     1
    C0234     R0026     1
    C0234     R0039     1
    C0234     R0052     1
    C0234     R0065     1
    C0234     R0078     1
    C0234     R0091     1
    C0234     R0104     1
    C0234     R0117     1
    C0234     R0130     1
    C0234     R0143     1
    C0234     R0156     1
    C0234     R0169     1
    C0234     R0182     1
    C0234     R0195     1
    C0234     R0208     1
    C0234     R0221     1
    C0234     R0234     1
    C0234     R0260     1
    C0234     R0299     1
    C0234     R0395     1
    C0234     R0988     1
    C0234     R1105     1
    C0234     R1118     1
    C0234     R1131     1
    C0234     R1196     1
    C0234     R1274     1
    C0234     R1287     1
    C0234     R1326     1
    C0235     OBJ       -1
    C0235     R0261     1
    C0235     R0274     1
    C0235     R0300     1
    C0235     R0313     1
    C0235     R0396     1
    C0235     R0989     1
    C0235     R1106     1
    C0235     R1184     1
    C0235     R1262     1
    C0235     R1275     1
    C0236     OBJ       -1
    C0236     R0262     1
    C0236     R0275     1
    C0236     R0301     1
    C0236     R0314     1
    C0236     R0396     1
    C0236     R0990     1
    C0236     R1107     1
    C0236     R1185     1
    C0236     R1263     1
    C0236     R1276     1
    C0237     OBJ       -1
    C0237     R0263     1
    C0237     R0276     1
    C0237     R0302     1
    C0237     R0315     1
    C0237     R0396     1
    C0237     R0991     1
    C0237     R1108     1
    C0237     R1186     1
    C0237     R1264     1
    C0237     R1277     1
    C0238     OBJ       -1
    C0238     R0264     1
    C0238     R0277     1
    C0238     R0303     1
    C0238     R0316     1
    C0238     R0396     1
    C0238     R0992     1
    C0238     R1109     1
    C0238     R1187     1
    C0238     R1265     1
    C0238     R1278     1
    C0239     OBJ       -1
    C0239     R0265     1
    C0239     R0278     1
    C0239     R0304     1
    C0239     R0317     1
    C0239     R0396     1
    C0239     R0993     1
    C0239     R1110     1
    C0239     R1188     1
    C0239     R1266     1
    C0239     R1279     1
    C0240     OBJ       -1
    C0240     R0266     1
    C0240     R0279     1
    C0240     R0305     1
    C0240     R0318     1
    C0240     R0396     1
    C0240     R0994     1
    C0240     R1111     1
    C0240     R1189     1
    C0240     R1267     1
    C0240     R1280     1
    C0241     OBJ       -1
    C0241     R0267     1
    C0241     R0280     1
    C0241     R0306     1
    C0241     R0319     1
    C0241     R0396     1
    C0241     R0995     1
    C0241     R1112     1
    C0241     R1190     1
    C0241     R1268     1
    C0241     R1281     1
    C0242     OBJ       -1
    C0242     R0268     1
    C0242     R0281     1
    C0242     R0307     1
    C0242     R0320     1
    C0242     R0396     1
    C0242     R0996     1
    C0242     R1113     1
    C0242     R1191     1
    C0242     R1269     1
    C0242     R1282     1
    C0243     OBJ       -1
    C0243     R0269     1
    C0243     R0282     1
    C0243     R0308     1
    C0243     R0321     1
    C0243     R0396     1
    C0243     R0997     1
    C0243     R1114     1
    C0243     R1192     1
    C0243     R1270     1
    C0243     R1283     1
    C0244     OBJ       -1
    C0244     R0270     1
    C0244     R0283     1
    C0244     R0309     1
    C0244     R0322     1
    C0244     R0396     1
    C0244     R0998     1
    C0244     R1115     1
    C0244     R1193     1
    C0244     R1271     1
    C0244     R1284     1
    C0245     OBJ       -1
    C0245     R0271     1
    C0245     R0284     1
    C0245     R0310     1
    C0245     R0323     1
    C0245     R0396     1
    C0245     R0999     1
    C0245     R1116     1
    C0245     R1194     1
    C0245     R1272     1
    C0245     R1285     1
    C0246     OBJ       -1
    C0246     R0272     1
    C0246     R0285     1
    C0246     R0311     1
    C0246     R0324     1
    C0246     R0396     1
    C0246     R1000     1
    C0246     R1117     1
    C0246     R1195     1
    C0246     R1273     1
    C0246     R1286     1
    C0247     OBJ       -1
    C0247     R0273     1
    C0247     R0286     1
    C0247     R0312     1
    C0247     R0325     1
    C0247     R0396     1
    C0247     R1001     1
    C0247     R1118     1
    C0247     R1196     1
    C0247     R1274     1
    C0247     R1287     1
    C0248     OBJ       -1
    C0248     R0235     1
    C0248     R0274     1
    C0248     R0313     1
    C0248     R0397     1
    C0248     R1002     1
    C0248     R1340     1
    C0249     OBJ       -1
    C0249     R0236     1
    C0249     R0275     1
    C0249     R0314     1
    C0249     R0397     1
    C0249     R1003     1
    C0249     R1341     1
    C0250     OBJ       -1
    C0250     R0237     1
    C0250     R0276     1
    C0250     R0315     1
    C0250     R0397     1
    C0250     R1004     1
    C0250     R1342     1
    C0251     OBJ       -1
    C0251     R0238     1
    C0251     R0277     1
    C0251     R0316     1
    C0251     R0397     1
    C0251     R1005     1
    C0251     R1343     1
    C0252     OBJ       -1
    C0252     R0239     1
    C0252     R0278     1
    C0252     R0317     1
    C0252     R0397     1
    C0252     R1006     1
    C0252     R1344     1
    C0253     OBJ       -1
    C0253     R0240     1
    C0253     R0279     1
    C0253     R0318     1
    C0253     R0397     1
    C0253     R1007     1
    C0253     R1345     1
    C0254     OBJ       -1
    C0254     R0241     1
    C0254     R0280     1
    C0254     R0319     1
    C0254     R0397     1
    C0254     R1008     1
    C0254     R1346     1
    C0255     OBJ       -1
    C0255     R0242     1
    C0255     R0281     1
    C0255     R0320     1
    C0255     R0397     1
    C0255     R1009     1
    C0255     R1347     1
    C0256     OBJ       -1
    C0256     R0243     1
    C0256     R0282     1
    C0256     R0321     1
    C0256     R0397     1
    C0256     R1010     1
    C0256     R1348     1
    C0257     OBJ       -1
    C0257     R0244     1
    C0257     R0283     1
    C0257     R0322     1
    C0257     R0397     1
    C0257     R1011     1
    C0257     R1349     1
    C0258     OBJ       -1
    C0258     R0245     1
    C0258     R0284     1
    C0258     R0323     1
    C0258     R0397     1
    C0258     R1012     1
    C0258     R1350     1
    C0259     OBJ       -1
    C0259     R0246     1
    C0259     R0285     1
    C0259     R0324     1
    C0259     R0397     1
    C0259     R1013     1
    C0259     R1351     1
    C0260     OBJ       -1
    C0260     R0247     1
    C0260     R0286     1
    C0260     R0325     1
    C0260     R0397     1
    C0260     R1014     1
    C0260     R1352     1
    MARKER    'MARKER'                 'INTORG'
    C0339     R0404     1
    C0339     R0755     -3
    C0339     R1093     3
    C0340     R0405     1
    C0340     R0756     -3
    C0340     R1094     3
    C0341     R0406     1
    C0341     R0757     -3
    C0341     R1095     3
    C0342     R0407     1
    C0342     R0758     -3
    C0342     R1096     3
    C0343     R0408     1
    C0343     R0759     -3
    C0343     R1097     3
    C0344     R0409     1
    C0344     R0760     -3
    C0344     R1098     3
    C0345     R0410     1
    C0345     R0761     -3
    C0345     R1099     3
    C0346     R0411     1
    C0346     R0762     -3
    C0346     R1100     3
    C0347     R0412     1
    C0347     R0763     -3
    C0347     R1101     3
    C0348     R0413     1
    C0348     R0764     -3
    C0348     R1102     3
    C0349     R0414     1
    C0349     R0765     -3
    C0349     R1103     3
    C0350     R0415     1
    C0350     R0766     -3
    C0350     R1104     3
    C0351     R0416     1
    C0351     R0767     -3
    C0351     R1105     3
    C0352     R0404     1
    C0352     R0586     1
    C0352     R0768     -3
    C0352     R1106     9
    C0353     R0405     1
    C0353     R0587     1
    C0353     R0769     -3
    C0353     R1107     9
    C0354     R0406     1
    C0354     R0588     1
    C0354     R0770     -3
    C0354     R1108     9
    C0355     R0407     1
    C0355     R0589     1
    C0355     R0771     -3
    C0355     R1109     9
    C0356     R0408     1
    C0356     R0590     1
    C0356     R0772     -3
    C0356     R1110     9
    C0357     R0409     1
    C0357     R0591     1
    C0357     R0773     -3
    C0357     R1111     9
    C0358     R0410     1
    C0358     R0592     1
    C0358     R0774     -3
    C0358     R1112     9
    C0359     R0411     1
    C0359     R0593     1
    C0359     R0775     -3
    C0359     R1113     9
    C0360     R0412     1
    C0360     R0594     1
    C0360     R0776     -3
    C0360     R1114     9
    C0361     R0413     1
    C0361     R0595     1
    C0361     R0777     -3
    C0361     R1115     9
    C0362     R0414     1
    C0362     R0596     1
    C0362     R0778     -3
    C0362     R1116     9
    C0363     R0415     1
    C0363     R0597     1
    C0363     R0779     -3
    C0363     R1117     9
    C0364     R0416     1
    C0364     R0598     1
    C0364     R0780     -3
    C0364     R1118     9
    C0365     R0417     1
    C0365     R0430     1
    C0365     R0781     -3
    C0365     R1119     6
    C0366     R0418     1
    C0366     R0431     1
    C0366     R0782     -3
    C0366     R1120     6
    C0367     R0419     1
    C0367     R0432     1
    C0367     R0783     -3
    C0367     R1121     6
    C0368     R0420     1
    C0368     R0433     1
    C0368     R0784     -3
    C0368     R1122     6
    C0369     R0421     1
    C0369     R0434     1
    C0369     R0785     -3
    C0369     R1123     6
    C0370     R0422     1
    C0370     R0435     1
    C0370     R0786     -3
    C0370     R1124     6
    C0371     R0423     1
    C0371     R0436     1
    C0371     R0787     -3
    C0371     R1125     6
    C0372     R0424     1
    C0372     R0437     1
    C0372     R0788     -3
    C0372     R1126     6
    C0373     R0425     1
    C0373     R0438     1
    C0373     R0789     -3
    C0373     R1127     6
    C0374     R0426     1
    C0374     R0439     1
    C0374     R0790     -3
    C0374     R1128     6
    C0375     R0427     1
    C0375     R0440     1
    C0375     R0791     -3
    C0375     R1129     6
    C0376     R0428     1
    C0376     R0441     1
    C0376     R0792     -3
    C0376     R1130     6
    C0377     R0429     1
    C0377     R0442     1
    C0377     R0793     -3
    C0377     R1131     6
    C0378     R0547     1
    C0378     R0794     -3
    C0378     R1132     6
    C0379     R0548     1
    C0379     R0795     -3
    C0379     R1133     6
    C0380     R0549     1
    C0380     R0796     -3
    C0380     R1134     6
    C0381     R0550     1
    C0381     R0797     -3
    C0381     R1135     6
    C0382     R0551     1
    C0382     R0798     -3
    C0382     R1136     6
    C0383     R0552     1
    C0383     R0799     -3
    C0383     R1137     6
    C0384     R0553     1
    C0384     R0800     -3
    C0384     R1138     6
    C0385     R0554     1
    C0385     R0801     -3
    C0385     R1139     6
    C0386     R0555     1
    C0386     R0802     -3
    C0386     R1140     6
    C0387     R0556     1
    C0387     R0803     -3
    C0387     R1141     6
    C0388     R0557     1
    C0388     R0804     -3
    C0388     R1142     6
    C0389     R0558     1
    C0389     R0805     -3
    C0389     R1143     6
    C0390     R0559     1
    C0390     R0806     -3
    C0390     R1144     6
    C0391     R0417     1
    C0391     R0443     1
    C0391     R0456     1
    C0391     R0807     -3
    C0391     R1145     6
    C0392     R0418     1
    C0392     R0444     1
    C0392     R0457     1
    C0392     R0808     -3
    C0392     R1146     6
    C0393     R0419     1
    C0393     R0445     1
    C0393     R0458     1
    C0393     R0809     -3
    C0393     R1147     6
    C0394     R0420     1
    C0394     R0446     1
    C0394     R0459     1
    C0394     R0810     -3
    C0394     R1148     6
    C0395     R0421     1
    C0395     R0447     1
    C0395     R0460     1
    C0395     R0811     -3
    C0395     R1149     6
    C0396     R0422     1
    C0396     R0448     1
    C0396     R0461     1
    C0396     R0812     -3
    C0396     R1150     6
    C0397     R0423     1
    C0397     R0449     1
    C0397     R0462     1
    C0397     R0813     -3
    C0397     R1151     6
    C0398     R0424     1
    C0398     R0450     1
    C0398     R0463     1
    C0398     R0814     -3
    C0398     R1152     6
    C0399     R0425     1
    C0399     R0451     1
    C0399     R0464     1
    C0399     R0815     -3
    C0399     R1153     6
    C0400     R0426     1
    C0400     R0452     1
    C0400     R0465     1
    C0400     R0816     -3
    C0400     R1154     6
    C0401     R0427     1
    C0401     R0453     1
    C0401     R0466     1
    C0401     R0817     -3
    C0401     R1155     6
    C0402     R0428     1
    C0402     R0454     1
    C0402     R0467     1
    C0402     R0818     -3
    C0402     R1156     6
    C0403     R0429     1
    C0403     R0455     1
    C0403     R0468     1
    C0403     R0819     -3
    C0403     R1157     6
    C0404     R0430     1
    C0404     R0664     1
    C0404     R0820     -3
    C0404     R1158     6
    C0405     R0431     1
    C0405     R0665     1
    C0405     R0821     -3
    C0405     R1159     6
    C0406     R0432     1
    C0406     R0666     1
    C0406     R0822     -3
    C0406     R1160     6
    C0407     R0433     1
    C0407     R0667     1
    C0407     R0823     -3
    C0407     R1161     6
    C0408     R0434     1
    C0408     R0668     1
    C0408     R0824     -3
    C0408     R1162     6
    C0409     R0435     1
    C0409     R0669     1
    C0409     R0825     -3
    C0409     R1163     6
    C0410     R0436     1
    C0410     R0670     1
    C0410     R0826     -3
    C0410     R1164     6
    C0411     R0437     1
    C0411     R0671     1
    C0411     R0827     -3
    C0411     R1165     6
    C0412     R0438     1
    C0412     R0672     1
    C0412     R0828     -3
    C0412     R1166     6
    C0413     R0439     1
    C0413     R0673     1
    C0413     R0829     -3
    C0413     R1167     6
    C0414     R0440     1
    C0414     R0674     1
    C0414     R0830     -3
    C0414     R1168     6
    C0415     R0441     1
    C0415     R0675     1
    C0415     R0831     -3
    C0415     R1169     6
    C0416     R0442     1
    C0416     R0676     1
    C0416     R0832     -3
    C0416     R1170     6
    C0417     R0443     1
    C0417     R0560     1
    C0417     R0833     -3
    C0417     R1171     6
    C0418     R0444     1
    C0418     R0561     1
    C0418     R0834     -3
    C0418     R1172     6
    C0419     R0445     1
    C0419     R0562     1
    C0419     R0835     -3
    C0419     R1173     6
    C0420     R0446     1
    C0420     R0563     1
    C0420     R0836     -3
    C0420     R1174     6
    C0421     R0447     1
    C0421     R0564     1
    C0421     R0837     -3
    C0421     R1175     6
    C0422     R0448     1
    C0422     R0565     1
    C0422     R0838     -3
    C0422     R1176     6
    C0423     R0449     1
    C0423     R0566     1
    C0423     R0839     -3
    C0423     R1177     6
    C0424     R0450     1
    C0424     R0567     1
    C0424     R0840     -3
    C0424     R1178     6
    C0425     R0451     1
    C0425     R0568     1
    C0425     R0841     -3
    C0425     R1179     6
    C0426     R0452     1
    C0426     R0569     1
    C0426     R0842     -3
    C0426     R1180     6
    C0427     R0453     1
    C0427     R0570     1
    C0427     R0843     -3
    C0427     R1181     6
    C0428     R0454     1
    C0428     R0571     1
    C0428     R0844     -3
    C0428     R1182     6
    C0429     R0455     1
    C0429     R0572     1
    C0429     R0845     -3
    C0429     R1183     6
    C0430     R0456     1
    C0430     R0599     1
    C0430     R0846     -3
    C0430     R1184     9
    C0431     R0457     1
    C0431     R0600     1
    C0431     R0847     -3
    C0431     R1185     9
    C0432     R0458     1
    C0432     R0601     1
    C0432     R0848     -3
    C0432     R1186     9
    C0433     R0459     1
    C0433     R0602     1
    C0433     R0849     -3
    C0433     R1187     9
    C0434     R0460     1
    C0434     R0603     1
    C0434     R0850     -3
    C0434     R1188     9
    C0435     R0461     1
    C0435     R0604     1
    C0435     R0851     -3
    C0435     R1189     9
    C0436     R0462     1
    C0436     R0605     1
    C0436     R0852     -3
    C0436     R1190     9
    C0437     R0463     1
    C0437     R0606     1
    C0437     R0853     -3
    C0437     R1191     9
    C0438     R0464     1
    C0438     R0607     1
    C0438     R0854     -3
    C0438     R1192     9
    C0439     R0465     1
    C0439     R0608     1
    C0439     R0855     -3
    C0439     R1193     9
    C0440     R0466     1
    C0440     R0609     1
    C0440     R0856     -3
    C0440     R1194     9
    C0441     R0467     1
    C0441     R0610     1
    C0441     R0857     -3
    C0441     R1195     9
    C0442     R0468     1
    C0442     R0611     1
    C0442     R0858     -3
    C0442     R1196     9
    C0495     R0521     1
    C0495     R0534     1
    C0495     R0911     -3
    C0495     R1249     6
    C0496     R0522     1
    C0496     R0535     1
    C0496     R0912     -3
    C0496     R1250     6
    C0497     R0523     1
    C0497     R0536     1
    C0497     R0913     -3
    C0497     R1251     6
    C0498     R0524     1
    C0498     R0537     1
    C0498     R0914     -3
    C0498     R1252     6
    C0499     R0525     1
    C0499     R0538     1
    C0499     R0915     -3
    C0499     R1253     6
    C0500     R0526     1
    C0500     R0539     1
    C0500     R0916     -3
    C0500     R1254     6
    C0501     R0527     1
    C0501     R0540     1
    C0501     R0917     -3
    C0501     R1255     6
    C0502     R0528     1
    C0502     R0541     1
    C0502     R0918     -3
    C0502     R1256     6
    C0503     R0529     1
    C0503     R0542     1
    C0503     R0919     -3
    C0503     R1257     6
    C0504     R0530     1
    C0504     R0543     1
    C0504     R0920     -3
    C0504     R1258     6
    C0505     R0531     1
    C0505     R0544     1
    C0505     R0921     -3
    C0505     R1259     6
    C0506     R0532     1
    C0506     R0545     1
    C0506     R0922     -3
    C0506     R1260     6
    C0507     R0533     1
    C0507     R0546     1
    C0507     R0923     -3
    C0507     R1261     6
    C0508     R0521     1
    C0508     R0547     1
    C0508     R0560     1
    C0508     R0612     1
    C0508     R0638     1
    C0508     R0924     -3
    C0508     R1262     6
    C0509     R0522     1
    C0509     R0548     1
    C0509     R0561     1
    C0509     R0613     1
    C0509     R0639     1
    C0509     R0925     -3
    C0509     R1263     6
    C0510     R0523     1
    C0510     R0549     1
    C0510     R0562     1
    C0510     R0614     1
    C0510     R0640     1
    C0510     R0926     -3
    C0510     R1264     6
    C0511     R0524     1
    C0511     R0550     1
    C0511     R0563     1
    C0511     R0615     1
    C0511     R0641     1
    C0511     R0927     -3
    C0511     R1265     6
    C0512     R0525     1
    C0512     R0551     1
    C0512     R0564     1
    C0512     R0616     1
    C0512     R0642     1
    C0512     R0928     -3
    C0512     R1266     6
    C0513     R0526     1
    C0513     R0552     1
    C0513     R0565     1
    C0513     R0617     1
    C0513     R0643     1
    C0513     R0929     -3
    C0513     R1267     6
    C0514     R0527     1
    C0514     R0553     1
    C0514     R0566     1
    C0514     R0618     1
    C0514     R0644     1
    C0514     R0930     -3
    C0514     R1268     6
    C0515     R0528     1
    C0515     R0554     1
    C0515     R0567     1
    C0515     R0619     1
    C0515     R0645     1
    C0515     R0931     -3
    C0515     R1269     6
    C0516     R0529     1
    C0516     R0555     1
    C0516     R0568     1
    C0516     R0620     1
    C0516     R0646     1
    C0516     R0932     -3
    C0516     R1270     6
    C0517     R0530     1
    C0517     R0556     1
    C0517     R0569     1
    C0517     R0621     1
    C0517     R0647     1
    C0517     R0933     -3
    C0517     R1271     6
    C0518     R0531     1
    C0518     R0557     1
    C0518     R0570     1
    C0518     R0622     1
    C0518     R0648     1
    C0518     R0934     -3
    C0518     R1272     6
    C0519     R0532     1
    C0519     R0558     1
    C0519     R0571     1
    C0519     R0623     1
    C0519     R0649     1
    C0519     R0935     -3
    C0519     R1273     6
    C0520     R0533     1
    C0520     R0559     1
    C0520     R0572     1
    C0520     R0624     1
    C0520     R0650     1
    C0520     R0936     -3
    C0520     R1274     6
    C0521     R0534     1
    C0521     R0586     1
    C0521     R0599     1
    C0521     R0625     1
    C0521     R0651     1
    C0521     R0937     -3
    C0521     R1275     6
    C0522     R0535     1
    C0522     R0587     1
    C0522     R0600     1
    C0522     R0626     1
    C0522     R0652     1
    C0522     R0938     -3
    C0522     R1276     6
    C0523     R0536     1
    C0523     R0588     1
    C0523     R0601     1
    C0523     R0627     1
    C0523     R0653     1
    C0523     R0939     -3
    C0523     R1277     6
    C0524     R0537     1
    C0524     R0589     1
    C0524     R0602     1
    C0524     R0628     1
    C0524     R0654     1
    C0524     R0940     -3
    C0524     R1278     6
    C0525     R0538     1
    C0525     R0590     1
    C0525     R0603     1
    C0525     R0629     1
    C0525     R0655     1
    C0525     R0941     -3
    C0525     R1279     6
    C0526     R0539     1
    C0526     R0591     1
    C0526     R0604     1
    C0526     R0630     1
    C0526     R0656     1
    C0526     R0942     -3
    C0526     R1280     6
    C0527     R0540     1
    C0527     R0592     1
    C0527     R0605     1
    C0527     R0631     1
    C0527     R0657     1
    C0527     R0943     -3
    C0527     R1281     6
    C0528     R0541     1
    C0528     R0593     1
    C0528     R0606     1
    C0528     R0632     1
    C0528     R0658     1
    C0528     R0944     -3
    C0528     R1282     6
    C0529     R0542     1
    C0529     R0594     1
    C0529     R0607     1
    C0529     R0633     1
    C0529     R0659     1
    C0529     R0945     -3
    C0529     R1283     6
    C0530     R0543     1
    C0530     R0595     1
    C0530     R0608     1
    C0530     R0634     1
    C0530     R0660     1
    C0530     R0946     -3
    C0530     R1284     6
    C0531     R0544     1
    C0531     R0596     1
    C0531     R0609     1
    C0531     R0635     1
    C0531     R0661     1
    C0531     R0947     -3
    C0531     R1285     6
    C0532     R0545     1
    C0532     R0597     1
    C0532     R0610     1
    C0532     R0636     1
    C0532     R0662     1
    C0532     R0948     -3
    C0532     R1286     6
    C0533     R0546     1
    C0533     R0598     1
    C0533     R0611     1
    C0533     R0637     1
    C0533     R0663     1
    C0533     R0949     -3
    C0533     R1287     6
    C0534     R0612     1
    C0534     R0625     1
    C0534     R0950     -3
    C0535     R0613     1
    C0535     R0626     1
    C0535     R0951     -3
    C0536     R0614     1
    C0536     R0627     1
    C0536     R0952     -3
    C0537     R0615     1
    C0537     R0628     1
    C0537     R0953     -3
    C0538     R0616     1
    C0538     R0629     1
    C0538     R0954     -3
    C0539     R0617     1
    C0539     R0630     1
    C0539     R0955     -3
    C0540     R0618     1
    C0540     R0631     1
    C0540     R0956     -3
    C0541     R0619     1
    C0541     R0632     1
    C0541     R0957     -3
    C0542     R0620     1
    C0542     R0633     1
    C0542     R0958     -3
    C0543     R0621     1
    C0543     R0634     1
    C0543     R0959     -3
    C0544     R0622     1
    C0544     R0635     1
    C0544     R0960     -3
    C0545     R0623     1
    C0545     R0636     1
    C0545     R0961     -3
    C0546     R0624     1
    C0546     R0637     1
    C0546     R0962     -3
    C0547     R0638     1
    C0547     R0651     1
    C0547     R0690     1
    C0547     R0963     -3
    C0548     R0639     1
    C0548     R0652     1
    C0548     R0691     1
    C0548     R0964     -3
    C0549     R0640     1
    C0549     R0653     1
    C0549     R0692     1
    C0549     R0965     -3
    C0550     R0641     1
    C0550     R0654     1
    C0550     R0693     1
    C0550     R0966     -3
    C0551     R0642     1
    C0551     R0655     1
    C0551     R0694     1
    C0551     R0967     -3
    C0552     R0643     1
    C0552     R0656     1
    C0552     R0695     1
    C0552     R0968     -3
    C0553     R0644     1
    C0553     R0657     1
    C0553     R0696     1
    C0553     R0969     -3
    C0554     R0645     1
    C0554     R0658     1
    C0554     R0697     1
    C0554     R0970     -3
    C0555     R0646     1
    C0555     R0659     1
    C0555     R0698     1
    C0555     R0971     -3
    C0556     R0647     1
    C0556     R0660     1
    C0556     R0699     1
    C0556     R0972     -3
    C0557     R0648     1
    C0557     R0661     1
    C0557     R0700     1
    C0557     R0973     -3
    C0558     R0649     1
    C0558     R0662     1
    C0558     R0701     1
    C0558     R0974     -3
    C0559     R0650     1
    C0559     R0663     1
    C0559     R0702     1
    C0559     R0975     -3
    C0560     R0521     1
    C0560     R0664     1
    C0560     R0976     -3
    C0560     R1314     6
    C0561     R0522     1
    C0561     R0665     1
    C0561     R0977     -3
    C0561     R1315     6
    C0562     R0523     1
    C0562     R0666     1
    C0562     R0978     -3
    C0562     R1316     6
    C0563     R0524     1
    C0563     R0667     1
    C0563     R0979     -3
    C0563     R1317     6
    C0564     R0525     1
    C0564     R0668     1
    C0564     R0980     -3
    C0564     R1318     6
    C0565     R0526     1
    C0565     R0669     1
    C0565     R0981     -3
    C0565     R1319     6
    C0566     R0527     1
    C0566     R0670     1
    C0566     R0982     -3
    C0566     R1320     6
    C0567     R0528     1
    C0567     R0671     1
    C0567     R0983     -3
    C0567     R1321     6
    C0568     R0529     1
    C0568     R0672     1
    C0568     R0984     -3
    C0568     R1322     6
    C0569     R0530     1
    C0569     R0673     1
    C0569     R0985     -3
    C0569     R1323     6
    C0570     R0531     1
    C0570     R0674     1
    C0570     R0986     -3
    C0570     R1324     6
    C0571     R0532     1
    C0571     R0675     1
    C0571     R0987     -3
    C0571     R1325     6
    C0572     R0533     1
    C0572     R0676     1
    C0572     R0988     -3
    C0572     R1326     6
    C0573     R0690     1
    C0573     R0703     1
    C0573     R0989     -3
    C0574     R0691     1
    C0574     R0704     1
    C0574     R0990     -3
    C0575     R0692     1
    C0575     R0705     1
    C0575     R0991     -3
    C0576     R0693     1
    C0576     R0706     1
    C0576     R0992     -3
    C0577     R0694     1
    C0577     R0707     1
    C0577     R0993     -3
    C0578     R0695     1
    C0578     R0708     1
    C0578     R0994     -3
    C0579     R0696     1
    C0579     R0709     1
    C0579     R0995     -3
    C0580     R0697     1
    C0580     R0710     1
    C0580     R0996     -3
    C0581     R0698     1
    C0581     R0711     1
    C0581     R0997     -3
    C0582     R0699     1
    C0582     R0712     1
    C0582     R0998     -3
    C0583     R0700     1
    C0583     R0713     1
    C0583     R0999     -3
    C0584     R0701     1
    C0584     R0714     1
    C0584     R1000     -3
    C0585     R0702     1
    C0585     R0715     1
    C0585     R1001     -3
    C0586     R0703     1
    C0586     R1002     -3
    C0586     R1340     3
    C0587     R0704     1
    C0587     R1003     -3
    C0587     R1341     3
    C0588     R0705     1
    C0588     R1004     -3
    C0588     R1342     3
    C0589     R0706     1
    C0589     R1005     -3
    C0589     R1343     3
    C0590     R0707     1
    C0590     R1006     -3
    C0590     R1344     3
    C0591     R0708     1
    C0591     R1007     -3
    C0591     R1345     3
    C0592     R0709     1
    C0592     R1008     -3
    C0592     R1346     3
    C0593     R0710     1
    C0593     R1009     -3
    C0593     R1347     3
    C0594     R0711     1
    C0594     R1010     -3
    C0594     R1348     3
    C0595     R0712     1
    C0595     R1011     -3
    C0595     R1349     3
    C0596     R0713     1
    C0596     R1012     -3
    C0596     R1350     3
    C0597     R0714     1
    C0597     R1013     -3
    C0597     R1351     3
    C0598     R0715     1
    C0598     R1014     -3
    C0598     R1352     3
    MARKER    'MARKER'                 'INTEND'
RHS
    RHS1      OBJ       50
    RHS1      R0001     3
    RHS1      R0002     3
    RHS1      R0003     3
    RHS1      R0004     3
    RHS1      R0005     3
    RHS1      R0006     3
    RHS1      R0007     3
    RHS1      R0008     3
    RHS1      R0009     3
    RHS1      R0010     3
    RHS1      R0011     3
    RHS1      R0012     3
    RHS1      R0013     3
    RHS1      R0014     3
    RHS1      R0015     3
    RHS1      R0016     3
    RHS1      R0017     3
    RHS1      R0018     3
    RHS1      R0019     3
    RHS1      R0020     3
    RHS1      R0021     3
    RHS1      R0022     3
    RHS1      R0023     3
    RHS1      R0024     3
    RHS1      R0025     3
    RHS1      R0026     3
    RHS1      R0027     3
    RHS1      R0028     3
    RHS1      R0029     3
    RHS1      R0030     3
    RHS1      R0031     3
    RHS1      R0032     3
    RHS1      R0033     3
    RHS1      R0034     3
    RHS1      R0035     3
    RHS1      R0036     3
    RHS1      R0037     3
    RHS1      R0038     3
    RHS1      R0039     3
    RHS1      R0040     3
    RHS1      R0041     3
    RHS1      R0042     3
    RHS1      R0043     3
    RHS1      R0044     3
    RHS1      R0045     3
    RHS1      R0046     3
    RHS1      R0047     3
    RHS1      R0048     3
    RHS1      R0049     3
    RHS1      R0050     3
    RHS1      R0051     3
    RHS1      R0052     3
    RHS1      R0053     3
    RHS1      R0054     3
    RHS1      R0055     3
    RHS1      R0056     3
    RHS1      R0057     3
    RHS1      R0058     3
    RHS1      R0059     3
    RHS1      R0060     3
    RHS1      R0061     3
    RHS1      R0062     3
    RHS1      R0063     3
    RHS1      R0064     3
    RHS1      R0065     3
    RHS1      R0066     3
    RHS1      R0067     3
    RHS1      R0068     3
    RHS1      R0069     3
    RHS1      R0070     3
    RHS1      R0071     3
    RHS1      R0072     3
    RHS1      R0073     3
    RHS1      R0074     3
    RHS1      R0075     3
    RHS1      R0076     3
    RHS1      R0077     3
    RHS1      R0078     3
    RHS1      R0079     3
    RHS1      R0080     3
    RHS1      R0081     3
    RHS1      R0082     3
    RHS1      R0083     3
    RHS1      R0084     3
    RHS1      R0085     3
    RHS1      R0086     3
    RHS1      R0087     3
    RHS1      R0088     3
    RHS1      R0089     3
    RHS1      R0090     3
    RHS1      R0091     3
    RHS1      R0092     3
    RHS1      R0093     3
    RHS1      R0094     3
    RHS1      R0095     3
    RHS1      R0096     3
    RHS1      R0097     3
    RHS1      R0098     3
    RHS1      R0099     3
    RHS1      R0100     3
    RHS1      R0101     3
    RHS1      R0102     3
    RHS1      R0103     3
    RHS1      R0104     3
    RHS1      R0105     3
    RHS1      R0106     3
    RHS1      R0107     3
    RHS1      R0108     3
    RHS1      R0109     3
    RHS1      R0110     3
    RHS1      R0111     3
    RHS1      R0112     3
    RHS1      R0113     3
    RHS1      R0114     3
    RHS1      R0115     3
    RHS1      R0116     3
    RHS1      R0117     3
    RHS1      R0118     3
    RHS1      R0119     3
    RHS1      R0120     3
    RHS1      R0121     3
    RHS1      R0122     3
    RHS1      R0123     3
    RHS1      R0124     3
    RHS1      R0125     3
    RHS1      R0126     3
    RHS1      R0127     3
    RHS1      R0128     3
    RHS1      R0129     3
    RHS1      R0130     3
    RHS1      R0131     3
    RHS1      R0132     3
    RHS1      R0133     3
    RHS1      R0134     3
    RHS1      R0135     3
    RHS1      R0136     3
    RHS1      R0137     3
    RHS1      R0138     3
    RHS1      R0139     3
    RHS1      R0140     3
    RHS1      R0141     3
    RHS1      R0142     3
    RHS1      R0143     3
    RHS1      R0144     3
    RHS1      R0145     3
    RHS1      R0146     3
    RHS1      R0147     3
    RHS1      R0148     3
    RHS1      R0149     3
    RHS1      R0150     3
    RHS1      R0151     3
    RHS1      R0152     3
    RHS1      R0153     3
    RHS1      R0154     3
    RHS1      R0155     3
    RHS1      R0156     3
    RHS1      R0157     3
    RHS1      R0158     3
    RHS1      R0159     3
    RHS1      R0160     3
    RHS1      R0161     3
    RHS1      R0162     3
    RHS1      R0163     3
    RHS1      R0164     3
    RHS1      R0165     3
    RHS1      R0166     3
    RHS1      R0167     3
    RHS1      R0168     3
    RHS1      R0169     3
    RHS1      R0170     3
    RHS1      R0171     3
    RHS1      R0172     3
    RHS1      R0173     3
    RHS1      R0174     3
    RHS1      R0175     3
    RHS1      R0176     3
    RHS1      R0177     3
    RHS1      R0178     3
    RHS1      R0179     3
    RHS1      R0180     3
    RHS1      R0181     3
    RHS1      R0182     3
    RHS1      R0183     3
    RHS1      R0184     3
    RHS1      R0185     3
    RHS1      R0186     3
    RHS1      R0187     3
    RHS1      R0188     3
    RHS1      R0189     3
    RHS1      R0190     3
    RHS1      R0191     3
    RHS1      R0192     3
    RHS1      R0193     3
    RHS1      R0194     3
    RHS1      R0195     3
    RHS1      R0196     3
    RHS1      R0197     3
    RHS1      R0198     3
    RHS1      R0199     3
    RHS1      R0200     3
    RHS1      R0201     3
    RHS1      R0202     3
    RHS1      R0203     3
    RHS1      R0204     3
    RHS1      R0205     3
    RHS1      R0206     3
    RHS1      R0207     3
    RHS1      R0208     3
    RHS1      R0209     3
    RHS1      R0210     3
    RHS1      R0211     3
    RHS1      R0212     3
    RHS1      R0213     3
    RHS1      R0214     3
    RHS1      R0215     3
    RHS1      R0216     3
    RHS1      R0217     3
    RHS1      R0218     3
    RHS1      R0219     3
    RHS1      R0220     3
    RHS1      R0221     3
    RHS1      R0222     3
    RHS1      R0223     3
    RHS1      R0224     3
    RHS1      R0225     3
    RHS1      R0226     3
    RHS1      R0227     3
    RHS1      R0228     3
    RHS1      R0229     3
    RHS1      R0230     3
    RHS1      R0231     3
    RHS1      R0232     3
    RHS1      R0233     3
    RHS1      R0234     3
    RHS1      R0235     3
    RHS1      R0236     3
    RHS1      R0237     3
    RHS1      R0238     3
    RHS1      R0239     3
    RHS1      R0240     3
    RHS1      R0241     3
    RHS1      R0242     3
    RHS1      R0243     3
    RHS1      R0244     3
    RHS1      R0245     3
    RHS1      R0246     3
    RHS1      R0247     3
    RHS1      R0248     3
    RHS1      R0249     3
    RHS1      R0250     3
    RHS1      R0251     3
    RHS1      R0252     3
    RHS1      R0253     3
    RHS1      R0254     3
    RHS1      R0255     3
    RHS1      R0256     3
    RHS1      R0257     3
    RHS1      R0258     3
    RHS1      R0259     3
    RHS1      R0260     3
    RHS1      R0261     3
    RHS1      R0262     3
    RHS1      R0263     3
    RHS1      R0264     3
    RHS1      R0265     3
    RHS1      R0266     3
    RHS1      R0267     3
    RHS1      R0268     3
    RHS1      R0269     3
    RHS1      R0270     3
    RHS1      R0271     3
    RHS1      R0272     3
    RHS1      R0273     3
    RHS1      R0274     3
    RHS1      R0275     3
    RHS1      R0276     3
    RHS1      R0277     3
    RHS1      R0278     3
    RHS1      R0279     3
    RHS1      R0280     3
    RHS1      R0281     3
    RHS1      R0282     3
    RHS1      R0283     3
    RHS1      R0284     3
    RHS1      R0285     3
    RHS1      R0286     3
    RHS1      R0287     3
    RHS1      R0288     3
    RHS1      R0289     3
    RHS1      R0290     3
    RHS1      R0291     3
    RHS1      R0292     3
    RHS1      R0293     3
    RHS1      R0294     3
    RHS1      R0295     3
    RHS1      R0296     3
    RHS1      R0297     3
    RHS1      R0298     3
    RHS1      R0299     3
    RHS1      R0300     3
    RHS1      R0301     3
    RHS1      R0302     3
    RHS1      R0303     3
    RHS1      R0304     3
    RHS1      R0305     3
    RHS1      R0306     3
    RHS1      R0307     3
    RHS1      R0308     3
    RHS1      R0309     3
    RHS1      R0310     3
    RHS1      R0311     3
    RHS1      R0312     3
    RHS1      R0313     3
    RHS1      R0314     3
    RHS1      R0315     3
    RHS1      R0316     3
    RHS1      R0317     3
    RHS1      R0318     3
    RHS1      R0319     3
    RHS1      R0320     3
    RHS1      R0321     3
    RHS1      R0322     3
    RHS1      R0323     3
    RHS1      R0324     3
    RHS1      R0325     3
    RHS1      R0378     5
    RHS1      R0379     5
    RHS1      R0380     5
    RHS1      R0381     5
    RHS1      R0382     5
    RHS1      R0383     5
    RHS1      R0384     5
    RHS1      R0385     5
    RHS1      R0390     5
    RHS1      R0391     5
    RHS1      R0392     5
    RHS1      R0393     5
    RHS1      R0394     5
    RHS1      R0395     5
    RHS1      R0396     5
    RHS1      R0397     5
    RHS1      R0404     1
    RHS1      R0405     1
    RHS1      R0406     1
    RHS1      R0407     1
    RHS1      R0408     1
    RHS1      R0409     1
    RHS1      R0410     1
    RHS1      R0411     1
    RHS1      R0412     1
    RHS1      R0413     1
    RHS1      R0414     1
    RHS1      R0415     1
    RHS1      R0416     1
    RHS1      R0417     1
    RHS1      R0418     1
    RHS1      R0419     1
    RHS1      R0420     1
    RHS1      R0421     1
    RHS1      R0422     1
    RHS1      R0423     1
    RHS1      R0424     1
    RHS1      R0425     1
    RHS1      R0426     1
    RHS1      R0427     1
    RHS1      R0428     1
    RHS1      R0429     1
    RHS1      R0430     1
    RHS1      R0431     1
    RHS1      R0432     1
    RHS1      R0433     1
    RHS1      R0434     1
    RHS1      R0435     1
    RHS1      R0436     1
    RHS1      R0437     1
    RHS1      R0438     1
    RHS1      R0439     1
    RHS1      R0440     1
    RHS1      R0441     1
    RHS1      R0442     1
    RHS1      R0443     1
    RHS1      R0444     1
    RHS1      R0445     1
    RHS1      R0446     1
    RHS1      R0447     1
    RHS1      R0448     1
    RHS1      R0449     1
    RHS1      R0450     1
    RHS1      R0451     1
    RHS1      R0452     1
    RHS1      R0453     1
    RHS1      R0454     1
    RHS1      R0455     1
    RHS1      R0456     1
    RHS1      R0457     1
    RHS1      R0458     1
    RHS1      R0459     1
    RHS1      R0460     1
    RHS1      R0461     1
    RHS1      R0462     1
    RHS1      R0463     1
    RHS1      R0464     1
    RHS1      R0465     1
    RHS1      R0466     1
    RHS1      R0467     1
    RHS1      R0468     1
    RHS1      R0521     1
    RHS1      R0522     1
    RHS1      R0523     1
    RHS1      R0524     1
    RHS1      R0525     1
    RHS1      R0526     1
    RHS1      R0527     1
    RHS1      R0528     1
    RHS1      R0529     1
    RHS1      R0530     1
    RHS1      R0531     1
    RHS1      R0532     1
    RHS1      R0533     1
    RHS1      R0534     1
    RHS1      R0535     1
    RHS1      R0536     1
    RHS1      R0537     1
    RHS1      R0538     1
    RHS1      R0539     1
    RHS1      R0540     1
    RHS1      R0541     1
    RHS1      R0542     1
    RHS1      R0543     1
    RHS1      R0544     1
    RHS1      R0545     1
    RHS1      R0546     1
    RHS1      R0547     1
    RHS1      R0548     1
    RHS1      R0549     1
    RHS1      R0550     1
    RHS1      R0551     1
    RHS1      R0552     1
    RHS1      R0553     1
    RHS1      R0554     1
    RHS1      R0555     1
    RHS1      R0556     1
    RHS1      R0557     1
    RHS1      R0558     1
    RHS1      R0559     1
    RHS1      R0560     1
    RHS1      R0561     1
    RHS1      R0562     1
    RHS1      R0563     1
    RHS1      R0564     1
    RHS1      R0565     1
    RHS1      R0566     1
    RHS1      R0567     1
    RHS1      R0568     1
    RHS1      R0569     1
    RHS1      R0570     1
    RHS1      R0571     1
    RHS1      R0572     1
    RHS1      R0586     1
    RHS1      R0587     1
    RHS1      R0588     1
    RHS1      R0589     1
    RHS1      R0590     1
    RHS1      R0591     1
    RHS1      R0592     1
    RHS1      R0593     1
    RHS1      R0594     1
    RHS1      R0595     1
    RHS1      R0596     1
    RHS1      R0597     1
    RHS1      R0598     1
    RHS1      R0599     1
    RHS1      R0600     1
    RHS1      R0601     1
    RHS1      R0602     1
    RHS1      R0603     1
    RHS1      R0604     1
    RHS1      R0605     1
    RHS1      R0606     1
    RHS1      R0607     1
    RHS1      R0608     1
    RHS1      R0609     1
    RHS1      R0610     1
    RHS1      R0611     1
    RHS1      R0612     1
    RHS1      R0613     1
    RHS1      R0614     1
    RHS1      R0615     1
    RHS1      R0616     1
    RHS1      R0617     1
    RHS1      R0618     1
    RHS1      R0619     1
    RHS1      R0620     1
    RHS1      R0621     1
    RHS1      R0622     1
    RHS1      R0623     1
    RHS1      R0624     1
    RHS1      R0625     1
    RHS1      R0626     1
    RHS1      R0627     1
    RHS1      R0628     1
    RHS1      R0629     1
    RHS1      R0630     1
    RHS1      R0631     1
    RHS1      R0632     1
    RHS1      R0633     1
    RHS1      R0634     1
    RHS1      R0635     1
    RHS1      R0636     1
    RHS1      R0637     1
    RHS1      R0638     1
    RHS1      R0639     1
    RHS1      R0640     1
    RHS1      R0641     1
    RHS1      R0642     1
    RHS1      R0643     1
    RHS1      R0644     1
    RHS1      R0645     1
    RHS1      R0646     1
    RHS1      R0647     1
    RHS1      R0648     1
    RHS1      R0649     1
    RHS1      R0650     1
    RHS1      R0651     1
    RHS1      R0652     1
    RHS1      R0653     1
    RHS1      R0654     1
    RHS1      R0655     1
    RHS1      R0656     1
    RHS1      R0657     1
    RHS1      R0658     1
    RHS1      R0659     1
    RHS1      R0660     1
    RHS1      R0661     1
    RHS1      R0662     1
    RHS1      R0663     1
    RHS1      R0664     1
    RHS1      R0665     1
    RHS1      R0666     1
    RHS1      R0667     1
    RHS1      R0668     1
    RHS1      R0669     1
    RHS1      R0670     1
    RHS1      R0671     1
    RHS1      R0672     1
    RHS1      R0673     1
    RHS1      R0674     1
    RHS1      R0675     1
    RHS1      R0676     1
    RHS1      R0690     1
    RHS1      R0691     1
    RHS1      R0692     1
    RHS1      R0693     1
    RHS1      R0694     1
    RHS1      R0695     1
    RHS1      R0696     1
    RHS1      R0697     1
    RHS1      R0698     1
    RHS1      R0699     1
    RHS1      R0700     1
    RHS1      R0701     1
    RHS1      R0702     1
    RHS1      R0703     1
    RHS1      R0704     1
    RHS1      R0705     1
    RHS1      R0706     1
    RHS1      R0707     1
    RHS1      R0708     1
    RHS1      R0709     1
    RHS1      R0710     1
    RHS1      R0711     1
    RHS1      R0712     1
    RHS1      R0713     1
    RHS1      R0714     1
    RHS1      R0715     1
    RHS1      R1093     6
    RHS1      R1094     6
    RHS1      R1095     6
    RHS1      R1096     6
    RHS1      R1097     6
    RHS1      R1098     6
    RHS1      R1099     6
    RHS1      R1100     6
    RHS1      R1101     6
    RHS1      R1102     6
    RHS1      R1103     6
    RHS1      R1104     6
    RHS1      R1105     6
    RHS1      R1106     12
    RHS1      R1107     12
    RHS1      R1108     12
    RHS1      R1109     12
    RHS1      R1110     12
    RHS1      R1111     12
    RHS1      R1112     12
    RHS1      R1113     12
    RHS1      R1114     12
    RHS1      R1115     12
    RHS1      R1116     12
    RHS1      R1117     12
    RHS1      R1118     12
    RHS1      R1119     9
    RHS1      R1120     9
    RHS1      R1121     9
    RHS1      R1122     9
    RHS1      R1123     9
    RHS1      R1124     9
    RHS1      R1125     9
    RHS1      R1126     9
    RHS1      R1127     9
    RHS1      R1128     9
    RHS1      R1129     9
    RHS1      R1130     9
    RHS1      R1131     9
    RHS1      R1132     9
    RHS1      R1133     9
    RHS1      R1134     9
    RHS1      R1135     9
    RHS1      R1136     9
    RHS1      R1137     9
    RHS1      R1138     9
    RHS1      R1139     9
    RHS1      R1140     9
    RHS1      R1141     9
    RHS1      R1142     9
    RHS1      R1143     9
    RHS1      R1144     9
    RHS1      R1145     9
    RHS1      R1146     9
    RHS1      R1147     9
    RHS1      R1148     9
    RHS1      R1149     9
    RHS1      R1150     9
    RHS1      R1151     9
    RHS1      R1152     9
    RHS1      R1153     9
    RHS1      R1154     9
    RHS1      R1155     9
    RHS1      R1156     9
    RHS1      R1157     9
    RHS1      R1158     9
    RHS1      R1159     9
    RHS1      R1160     9
    RHS1      R1161     9
    RHS1      R1162     9
    RHS1      R1163     9
    RHS1      R1164     9
    RHS1      R1165     9
    RHS1      R1166     9
    RHS1      R1167     9
    RHS1      R1168     9
    RHS1      R1169     9
    RHS1      R1170     9
    RHS1      R1171     9
    RHS1      R1172     9
    RHS1      R1173     9
    RHS1      R1174     9
    RHS1      R1175     9
    RHS1      R1176     9
    RHS1      R1177     9
    RHS1      R1178     9
    RHS1      R1179     9
    RHS1      R1180     9
    RHS1      R1181     9
    RHS1      R1182     9
    RHS1      R1183     9
    RHS1      R1184     12
    RHS1      R1185     12
    RHS1      R1186     12
    RHS1      R1187     12
    RHS1      R1188     12
    RHS1      R1189     12
    RHS1      R1190     12
    RHS1      R1191     12
    RHS1      R1192     12
    RHS1      R1193     12
    RHS1      R1194     12
    RHS1      R1195     12
    RHS1      R1196     12
    RHS1      R1249     9
    RHS1      R1250     9
    RHS1      R1251     9
    RHS1      R1252     9
    RHS1      R1253     9
    RHS1      R1254     9
    RHS1      R1255     9
    RHS1      R1256     9
    RHS1      R1257     9
    RHS1      R1258     9
    RHS1      R1259     9
    RHS1      R1260     9
    RHS1      R1261     9
    RHS1      R1262     9
    RHS1      R1263     9
    RHS1      R1264     9
    RHS1      R1265     9
    RHS1      R1266     9
    RHS1      R1267     9
    RHS1      R1268     9
    RHS1      R1269     9
    RHS1      R1270     9
    RHS1      R1271     9
    RHS1      R1272     9
    RHS1      R1273     9
    RHS1      R1274     9
    RHS1      R1275     9
    RHS1      R1276     9
    RHS1      R1277     9
    RHS1      R1278     9
    RHS1      R1279     9
    RHS1      R1280     9
    RHS1      R1281     9
    RHS1      R1282     9
    RHS1      R1283     9
    RHS1      R1284     9
    RHS1      R1285     9
    RHS1      R1286     9
    RHS1      R1287     9
    RHS1      R1314     9
    RHS1      R1315     9
    RHS1      R1316     9
    RHS1      R1317     9
    RHS1      R1318     9
    RHS1      R1319     9
    RHS1      R1320     9
    RHS1      R1321     9
    RHS1      R1322     9
    RHS1      R1323     9
    RHS1      R1324     9
    RHS1      R1325     9
    RHS1      R1326     9
    RHS1      R1340     6
    RHS1      R1341     6
    RHS1      R1342     6
    RHS1      R1343     6
    RHS1      R1344     6
    RHS1      R1345     6
    RHS1      R1346     6
    RHS1      R1347     6
    RHS1      R1348     6
    RHS1      R1349     6
    RHS1      R1350     6
    RHS1      R1351     6
    RHS1      R1352     6
BOUNDS
 UP BND1      C0001     3
 UP BND1      C0002     3
 UP BND1      C0003     3
 UP BND1      C0004     3
 UP BND1      C0005     3
 UP BND1      C0006     3
 UP BND1      C0007     3
 UP BND1      C0008     3
 UP BND1      C0009     3
 UP BND1      C0010     3
 UP BND1      C0011     3
 UP BND1      C0012     3
 UP BND1      C0013     3
 UP BND1      C0014     3
 UP BND1      C0015     3
 UP BND1      C0016     3
 UP BND1      C0017     3
 UP BND1      C0018     3
 UP BND1      C0019     3
 UP BND1      C0020     3
 UP BND1      C0021     3
 UP BND1      C0022     3
 UP BND1      C0023     3
 UP BND1      C0024     3
 UP BND1      C0025     3
 UP BND1      C0026     3
 UP BND1      C0027     3
 UP BND1      C0028     3
 UP BND1      C0029     3
 UP BND1      C0030     3
 UP BND1      C0031     3
 UP BND1      C0032     3
 UP BND1      C0033     3
 UP BND1      C0034     3
 UP BND1      C0035     3
 UP BND1      C0036     3
 UP BND1      C0037     3
 UP BND1      C0038     3
 UP BND1      C0039     3
 UP BND1      C0040     3
 UP BND1      C0041     3
 UP BND1      C0042     3
 UP BND1      C0043     3
 UP BND1      C0044     3
 UP BND1      C0045     3
 UP BND1      C0046     3
 UP BND1      C0047     3
 UP BND1      C0048     3
 UP BND1      C0049     3
 UP BND1      C0050     3
 UP BND1      C0051     3
 UP BND1      C0052     3
 UP BND1      C0053     3
 UP BND1      C0054     3
 UP BND1      C0055     3
 UP BND1      C0056     3
 UP BND1      C0057     3
 UP BND1      C0058     3
 UP BND1      C0059     3
 UP BND1      C0060     3
 UP BND1      C0061     3
 UP BND1      C0062     3
 UP BND1      C0063     3
 UP BND1      C0064     3
 UP BND1      C0065     3
 UP BND1      C0066     3
 UP BND1      C0067     3
 UP BND1      C0068     3
 UP BND1      C0069     3
 UP BND1      C0070     3
 UP BND1      C0071     3
 UP BND1      C0072     3
 UP BND1      C0073     3
 UP BND1      C0074     3
 UP BND1      C0075     3
 UP BND1      C0076     3
 UP BND1      C0077     3
 UP BND1      C0078     3
 UP BND1      C0079     3
 UP BND1      C0080     3
 UP BND1      C0081     3
 UP BND1      C0082     3
 UP BND1      C0083     3
 UP BND1      C0084     3
 UP BND1      C0085     3
 UP BND1      C0086     3
 UP BND1      C0087     3
 UP BND1      C0088     3
 UP BND1      C0089     3
 UP BND1      C0090     3
 UP BND1      C0091     3
 UP BND1      C0092     3
 UP BND1      C0093     3
 UP BND1      C0094     3
 UP BND1      C0095     3
 UP BND1      C0096     3
 UP BND1      C0097     3
 UP BND1      C0098     3
 UP BND1      C0099     3
 UP BND1      C0100     3
 UP BND1      C0101     3
 UP BND1      C0102     3
 UP BND1      C0103     3
 UP BND1      C0104     3
 UP BND1      C0157     3
 UP BND1      C0158     3
 UP BND1      C0159     3
 UP BND1      C0160     3
 UP BND1      C0161     3
 UP BND1      C0162     3
 UP BND1      C0163     3
 UP BND1      C0164     3
 UP BND1      C0165     3
 UP BND1      C0166     3
 UP BND1      C0167     3
 UP BND1      C0168     3
 UP BND1      C0169     3
 UP BND1      C0170     3
 UP BND1      C0171     3
 UP BND1      C0172     3
 UP BND1      C0173     3
 UP BND1      C0174     3
 UP BND1      C0175     3
 UP BND1      C0176     3
 UP BND1      C0177     3
 UP BND1      C0178     3
 UP BND1      C0179     3
 UP BND1      C0180     3
 UP BND1      C0181     3
 UP BND1      C0182     3
 UP BND1      C0183     3
 UP BND1      C0184     3
 UP BND1      C0185     3
 UP BND1      C0186     3
 UP BND1      C0187     3
 UP BND1      C0188     3
 UP BND1      C0189     3
 UP BND1      C0190     3
 UP BND1      C0191     3
 UP BND1      C0192     3
 UP BND1      C0193     3
 UP BND1      C0194     3
 UP BND1      C0195     3
 UP BND1      C0196     3
 UP BND1      C0197     3
 UP BND1      C0198     3
 UP BND1      C0199     3
 UP BND1      C0200     3
 UP BND1      C0201     3
 UP BND1      C0202     3
 UP BND1      C0203     3
 UP BND1      C0204     3
 UP BND1      C0205     3
 UP BND1      C0206     3
 UP BND1      C0207     3
 UP BND1      C0208     3
 UP BND1      C0209     3
 UP BND1      C0210     3
 UP BND1      C0211     3
 UP BND1      C0212     3
 UP BND1      C0213     3
 UP BND1      C0214     3
 UP BND1      C0215     3
 UP BND1      C0216     3
 UP BND1      C0217     3
 UP BND1      C0218     3
 UP BND1      C0219     3
 UP BND1      C0220     3
 UP BND1      C0221     3
 UP BND1      C0222     3
 UP BND1      C0223     3
 UP BND1      C0224     3
 UP BND1      C0225     3
 UP BND1      C0226     3
 UP BND1      C0227     3
 UP BND1      C0228     3
 UP BND1      C0229     3
 UP BND1      C0230     3
 UP BND1      C0231     3
 UP BND1      C0232     3
 UP BND1      C0233     3
 UP BND1      C0234     3
 UP BND1      C0235     3
 UP BND1      C0236     3
 UP BND1      C0237     3
 UP BND1      C0238     3
 UP BND1      C0239     3
 UP BND1      C0240     3
 UP BND1      C0241     3
 UP BND1      C0242     3
 UP BND1      C0243     3
 UP BND1      C0244     3
 UP BND1      C0245     3
 UP BND1      C0246     3
 UP BND1      C0247     3
 UP BND1      C0248     3
 UP BND1      C0249     3
 UP BND1      C0250     3
 UP BND1      C0251     3
 UP BND1      C0252     3
 UP BND1      C0253     3
 UP BND1      C0254     3
 UP BND1      C0255     3
 UP BND1      C0256     3
 UP BND1      C0257     3
 UP BND1      C0258     3
 UP BND1      C0259     3
 UP BND1      C0260     3
 BV BND1      C0339   
 BV BND1      C0340   
 BV BND1      C0341   
 BV BND1      C0342   
 BV BND1      C0343   
 BV BND1      C0344   
 BV BND1      C0345   
 BV BND1      C0346   
 BV BND1      C0347   
 BV BND1      C0348   
 BV BND1      C0349   
 BV BND1      C0350   
 BV BND1      C0351   
 BV BND1      C0352   
 BV BND1      C0353   
 BV BND1      C0354   
 BV BND1      C0355   
 BV BND1      C0356   
 BV BND1      C0357   
 BV BND1      C0358   
 BV BND1      C0359   
 BV BND1      C0360   
 BV BND1      C0361   
 BV BND1      C0362   
 BV BND1      C0363   
 BV BND1      C0364   
 BV BND1      C0365   
 BV BND1      C0366   
 BV BND1      C0367   
 BV BND1      C0368   
 BV BND1      C0369   
 BV BND1      C0370   
 BV BND1      C0371   
 BV BND1      C0372   
 BV BND1      C0373   
 BV BND1      C0374   
 BV BND1      C0375   
 BV BND1      C0376   
 BV BND1      C0377   
 BV BND1      C0378   
 BV BND1      C0379   
 BV BND1      C0380   
 BV BND1      C0381   
 BV BND1      C0382   
 BV BND1      C0383   
 BV BND1      C0384   
 BV BND1      C0385   
 BV BND1      C0386   
 BV BND1      C0387   
 BV BND1      C0388   
 BV BND1      C0389   
 BV BND1      C0390   
 BV BND1      C0391   
 BV BND1      C0392   
 BV BND1      C0393   
 BV BND1      C0394   
 BV BND1      C0395   
 BV BND1      C0396   
 BV BND1      C0397   
 BV BND1      C0398   
 BV BND1      C0399   
 BV BND1      C0400   
 BV BND1      C0401   
 BV BND1      C0402   
 BV BND1      C0403   
 BV BND1      C0404   
 BV BND1      C0405   
 BV BND1      C0406   
 BV BND1      C0407   
 BV BND1      C0408   
 BV BND1      C0409   
 BV BND1      C0410   
 BV BND1      C0411   
 BV BND1      C0412   
 BV BND1      C0413   
 BV BND1      C0414   
 BV BND1      C0415   
 BV BND1      C0416   
 BV BND1      C0417   
 BV BND1      C0418   
 BV BND1      C0419   
 BV BND1      C0420   
 BV BND1      C0421   
 BV BND1      C0422   
 BV BND1      C0423   
 BV BND1      C0424   
 BV BND1      C0425   
 BV BND1      C0426   
 BV BND1      C0427   
 BV BND1      C0428   
 BV BND1      C0429   
 BV BND1      C0430   
 BV BND1      C0431   
 BV BND1      C0432   
 BV BND1      C0433   
 BV BND1      C0434   
 BV BND1      C0435   
 BV BND1      C0436   
 BV BND1      C0437   
 BV BND1      C0438   
 BV BND1      C0439   
 BV BND1      C0440   
 BV BND1      C0441   
 BV BND1      C0442   
 BV BND1      C0495   
 BV BND1      C0496   
 BV BND1      C0497   
 BV BND1      C0498   
 BV BND1      C0499   
 BV BND1      C0500   
 BV BND1      C0501   
 BV BND1      C0502   
 BV BND1      C0503   
 BV BND1      C0504   
 BV BND1      C0505   
 BV BND1      C0506   
 BV BND1      C0507   
 BV BND1      C0508   
 BV BND1      C0509   
 BV BND1      C0510   
 BV BND1      C0511   
 BV BND1      C0512   
 BV BND1      C0513   
 BV BND1      C0514   
 BV BND1      C0515   
 BV BND1      C0516   
 BV BND1      C0517   
 BV BND1      C0518   
 BV BND1      C0519   
 BV BND1      C0520   
 BV BND1      C0521   
 BV BND1      C0522   
 BV BND1      C0523   
 BV BND1      C0524   
 BV BND1      C0525   
 BV BND1      C0526   
 BV BND1      C0527   
 BV BND1      C0528   
 BV BND1      C0529   
 BV BND1      C0530   
 BV BND1      C0531   
 BV BND1      C0532   
 BV BND1      C0533   
 BV BND1      C0534   
 BV BND1      C0535   
 BV BND1      C0536   
 BV BND1      C0537   
 BV BND1      C0538   
 BV BND1      C0539   
 BV BND1      C0540   
 BV BND1      C0541   
 BV BND1      C0542   
 BV BND1      C0543   
 BV BND1      C0544   
 BV BND1      C0545   
 BV BND1      C0546   
 BV BND1      C0547   
 BV BND1      C0548   
 BV BND1      C0549   
 BV BND1      C0550   
 BV BND1      C0551   
 BV BND1      C0552   
 BV BND1      C0553   
 BV BND1      C0554   
 BV BND1      C0555   
 BV BND1      C0556   
 BV BND1      C0557   
 BV BND1      C0558   
 BV BND1      C0559   
 BV BND1      C0560   
 BV BND1      C0561   
 BV BND1      C0562   
 BV BND1      C0563   
 BV BND1      C0564   
 BV BND1      C0565   
 BV BND1      C0566   
 BV BND1      C0567   
 BV BND1      C0568   
 BV BND1      C0569   
 BV BND1      C0570   
 BV BND1      C0571   
 BV BND1      C0572   
 BV BND1      C0573   
 BV BND1      C0574   
 BV BND1      C0575   
 BV BND1      C0576   
 BV BND1      C0577   
 BV BND1      C0578   
 BV BND1      C0579   
 BV BND1      C0580   
 BV BND1      C0581   
 BV BND1      C0582   
 BV BND1      C0583   
 BV BND1      C0584   
 BV BND1      C0585   
 BV BND1      C0586   
 BV BND1      C0587   
 BV BND1      C0588   
 BV BND1      C0589   
 BV BND1      C0590   
 BV BND1      C0591   
 BV BND1      C0592   
 BV BND1      C0593   
 BV BND1      C0594   
 BV BND1      C0595   
 BV BND1      C0596   
 BV BND1      C0597   
 BV BND1      C0598   
ENDATA
