NAME neos-1426635_pre
ROWS
 N  OBJ
 L  R0001   
 L  R0002   
 L  R0003   
 L  R0004   
 L  R0005   
 L  R0006   
 L  R0007   
 L  R0008   
 L  R0009   
 L  R0010   
 L  R0011   
 L  R0012   
 L  R0013   
 L  R0014   
 L  R0015   
 L  R0016   
 L  R0017   
 L  R0018   
 L  R0019   
 L  R0020   
 L  R0021   
 L  R0022   
 L  R0023   
 L  R0024   
 L  R0025   
 L  R0026   
 L  R0027   
 L  R0028   
 L  R0029   
 L  R0030   
 L  R0031   
 L  R0032   
 L  R0033   
 L  R0034   
 L  R0035   
 L  R0036   
 L  R0037   
 L  R0038   
 L  R0039   
 L  R0040   
 L  R0041   
 L  R0042   
 L  R0043   
 L  R0044   
 L  R0045   
 L  R0046   
 L  R0047   
 L  R0048   
 L  R0049   
 L  R0050   
 L  R0051   
 L  R0052   
 L  R0053   
 L  R0054   
 L  R0055   
 L  R0056   
 L  R0057   
 L  R0058   
 L  R0059   
 L  R0060   
 L  R0101   
 L  R0102   
 L  R0103   
 L  R0104   
 L  R0105   
 L  R0106   
 L  R0107   
 L  R0108   
 L  R0113   
 L  R0114   
 L  R0115   
 L  R0116   
 L  R0117   
 L  R0118   
 L  R0119   
 L  R0120   
 L  R0127   
 L  R0128   
 L  R0129   
 L  R0130   
 L  R0131   
 L  R0132   
 L  R0133   
 L  R0134   
 L  R0135   
 L  R0136   
 L  R0137   
 L  R0138   
 L  R0139   
 L  R0140   
 L  R0141   
 L  R0142   
 L  R0143   
 L  R0144   
 L  R0145   
 L  R0146   
 L  R0147   
 L  R0148   
 L  R0149   
 L  R0150   
 L  R0151   
 L  R0152   
 L  R0153   
 L  R0154   
 L  R0155   
 L  R0156   
 L  R0157   
 L  R0158   
 L  R0159   
 L  R0160   
 L  R0161   
 L  R0162   
 L  R0163   
 L  R0164   
 L  R0165   
 L  R0166   
 E  R0197   
 E  R0198   
 E  R0199   
 E  R0200   
 E  R0201   
 E  R0202   
 E  R0203   
 E  R0204   
 E  R0205   
 E  R0206   
 L  R0207   
 L  R0208   
 L  R0209   
 L  R0210   
 L  R0211   
 L  R0212   
 L  R0213   
 L  R0214   
 L  R0215   
 L  R0216   
 L  R0217   
 L  R0218   
 L  R0219   
 L  R0220   
 L  R0221   
 L  R0222   
 L  R0223   
 L  R0224   
 L  R0225   
 L  R0226   
 L  R0227   
 L  R0228   
 L  R0229   
 L  R0230   
 L  R0231   
 L  R0232   
 L  R0233   
 L  R0234   
 L  R0235   
 L  R0236   
 E  R0237   
 E  R0238   
 E  R0239   
 E  R0240   
 E  R0241   
 E  R0242   
 E  R0243   
 E  R0244   
 E  R0245   
 E  R0246   
 L  R0287   
 L  R0288   
 L  R0289   
 L  R0290   
 L  R0291   
 L  R0292   
 L  R0293   
 L  R0294   
 L  R0295   
 L  R0296   
 L  R0297   
 L  R0298   
 L  R0299   
 L  R0300   
 L  R0301   
 L  R0302   
 L  R0303   
 L  R0304   
 L  R0305   
 L  R0306   
 L  R0307   
 L  R0308   
 L  R0309   
 L  R0310   
 L  R0311   
 L  R0312   
 L  R0313   
 L  R0314   
 L  R0315   
 L  R0316   
 L  R0317   
 L  R0318   
 L  R0319   
 L  R0320   
 L  R0321   
 L  R0322   
 L  R0323   
 L  R0324   
 L  R0325   
 L  R0326   
 L  R0327   
 L  R0328   
 L  R0329   
 L  R0330   
 L  R0331   
 L  R0332   
 L  R0333   
 L  R0334   
 L  R0335   
 L  R0336   
 L  R0337   
 L  R0338   
 L  R0339   
 L  R0340   
 L  R0341   
 L  R0342   
 L  R0343   
 L  R0344   
 L  R0345   
 L  R0346   
 L  R0347   
 L  R0348   
 L  R0349   
 L  R0350   
 L  R0351   
 L  R0352   
 L  R0353   
 L  R0354   
 L  R0355   
 L  R0356   
 L  R0357   
 L  R0358   
 L  R0359   
 L  R0360   
 L  R0361   
 L  R0362   
 L  R0363   
 L  R0364   
 L  R0365   
 L  R0366   
 L  R0407   
 L  R0408   
 L  R0409   
 L  R0410   
 L  R0411   
 L  R0412   
 L  R0413   
 L  R0414   
 L  R0415   
 L  R0416   
 L  R0417   
 L  R0418   
 L  R0419   
 L  R0420   
 L  R0421   
 L  R0422   
 L  R0423   
 L  R0424   
 L  R0425   
 L  R0426   
 L  R0427   
 L  R0428   
 L  R0429   
 L  R0430   
 L  R0431   
 L  R0432   
 L  R0433   
 L  R0434   
 L  R0435   
 L  R0436   
 L  R0437   
 L  R0438   
 L  R0439   
 L  R0440   
 L  R0441   
 L  R0442   
 L  R0443   
 L  R0444   
 L  R0445   
 L  R0446   
 L  R0447   
 L  R0448   
 L  R0449   
 L  R0450   
 L  R0451   
 L  R0452   
 L  R0453   
 L  R0454   
 L  R0455   
 L  R0456   
 L  R0457   
 L  R0458   
 L  R0459   
 L  R0460   
 L  R0461   
 L  R0462   
 L  R0463   
 L  R0464   
 L  R0465   
 L  R0466   
 L  R0467   
 L  R0468   
 L  R0469   
 L  R0470   
 L  R0471   
 L  R0472   
 L  R0473   
 L  R0474   
 L  R0475   
 L  R0476   
 L  R0477   
 L  R0478   
 L  R0479   
 L  R0480   
 L  R0481   
 L  R0482   
 L  R0483   
 L  R0484   
 L  R0485   
 L  R0486   
 L  R0557   
 L  R0558   
 L  R0559   
 L  R0560   
 L  R0561   
 L  R0562   
 L  R0563   
 L  R0564   
 L  R0565   
 L  R0566   
 L  R0577   
 L  R0578   
 L  R0579   
 L  R0580   
 L  R0581   
 L  R0582   
 L  R0583   
 L  R0584   
 L  R0585   
 L  R0586   
 L  R0587   
 L  R0588   
 L  R0589   
 L  R0590   
 L  R0591   
 L  R0592   
 L  R0593   
 L  R0594   
 L  R0595   
 L  R0596   
 L  R0597   
 L  R0598   
 L  R0599   
 L  R0600   
 L  R0601   
 L  R0602   
 L  R0603   
 L  R0604   
 L  R0605   
 L  R0606   
 L  R0607   
 L  R0608   
 L  R0609   
 L  R0610   
 L  R0611   
 L  R0612   
 L  R0613   
 L  R0614   
 L  R0615   
 L  R0616   
 L  R0617   
 L  R0618   
 L  R0619   
 L  R0620   
 L  R0621   
 L  R0622   
 L  R0623   
 L  R0624   
 L  R0625   
 L  R0626   
 L  R0667   
 L  R0668   
 L  R0669   
 L  R0670   
 L  R0671   
 L  R0672   
 L  R0673   
 L  R0674   
 L  R0675   
 L  R0676   
 L  R0677   
 L  R0678   
 L  R0679   
 L  R0680   
 L  R0681   
 L  R0682   
 L  R0683   
 L  R0684   
 L  R0685   
 L  R0686   
 L  R0687   
 L  R0688   
 L  R0689   
 L  R0690   
 L  R0691   
 L  R0692   
 L  R0693   
 L  R0694   
 L  R0695   
 L  R0696   
 L  R0717   
 L  R0718   
 L  R0719   
 L  R0720   
 L  R0721   
 L  R0722   
 L  R0723   
 L  R0724   
 L  R0725   
 L  R0726   
COLUMNS
    C0001     OBJ       -1
    C0001     R0001     1
    C0001     R0101     1
    C0001     R0287     1
    C0001     R0557     1
    C0001     R0587     1
    C0001     R0597     1
    C0001     R0607     1
    C0001     R0617     1
    C0001     R0667     1
    C0001     R0717     1
    C0002     OBJ       -1
    C0002     R0002     1
    C0002     R0101     1
    C0002     R0288     1
    C0002     R0558     1
    C0002     R0588     1
    C0002     R0598     1
    C0002     R0608     1
    C0002     R0618     1
    C0002     R0668     1
    C0002     R0718     1
    C0003     OBJ       -1
    C0003     R0003     1
    C0003     R0101     1
    C0003     R0289     1
    C0003     R0559     1
    C0003     R0589     1
    C0003     R0599     1
    C0003     R0609     1
    C0003     R0619     1
    C0003     R0669     1
    C0003     R0719     1
    C0004     OBJ       -1
    C0004     R0004     1
    C0004     R0101     1
    C0004     R0290     1
    C0004     R0560     1
    C0004     R0590     1
    C0004     R0600     1
    C0004     R0610     1
    C0004     R0620     1
    C0004     R0670     1
    C0004     R0720     1
    C0005     OBJ       -1
    C0005     R0005     1
    C0005     R0101     1
    C0005     R0291     1
    C0005     R0561     1
    C0005     R0591     1
    C0005     R0601     1
    C0005     R0611     1
    C0005     R0621     1
    C0005     R0671     1
    C0005     R0721     1
    C0006     OBJ       -1
    C0006     R0006     1
    C0006     R0101     1
    C0006     R0292     1
    C0006     R0562     1
    C0006     R0592     1
    C0006     R0602     1
    C0006     R0612     1
    C0006     R0622     1
    C0006     R0672     1
    C0006     R0722     1
    C0007     OBJ       -1
    C0007     R0007     1
    C0007     R0101     1
    C0007     R0293     1
    C0007     R0563     1
    C0007     R0593     1
    C0007     R0603     1
    C0007     R0613     1
    C0007     R0623     1
    C0007     R0673     1
    C0007     R0723     1
    C0008     OBJ       -1
    C0008     R0008     1
    C0008     R0101     1
    C0008     R0294     1
    C0008     R0564     1
    C0008     R0594     1
    C0008     R0604     1
    C0008     R0614     1
    C0008     R0624     1
    C0008     R0674     1
    C0008     R0724     1
    C0009     OBJ       -1
    C0009     R0009     1
    C0009     R0101     1
    C0009     R0295     1
    C0009     R0565     1
    C0009     R0595     1
    C0009     R0605     1
    C0009     R0615     1
    C0009     R0625     1
    C0009     R0675     1
    C0009     R0725     1
    C0010     OBJ       -1
    C0010     R0010     1
    C0010     R0101     1
    C0010     R0296     1
    C0010     R0566     1
    C0010     R0596     1
    C0010     R0606     1
    C0010     R0616     1
    C0010     R0626     1
    C0010     R0676     1
    C0010     R0726     1
    C0011     OBJ       -1
    C0011     R0001     1
    C0011     R0011     1
    C0011     R0021     1
    C0011     R0041     1
    C0011     R0102     1
    C0011     R0297     1
    C0011     R0557     1
    C0011     R0597     1
    C0011     R0667     1
    C0012     OBJ       -1
    C0012     R0002     1
    C0012     R0012     1
    C0012     R0022     1
    C0012     R0042     1
    C0012     R0102     1
    C0012     R0298     1
    C0012     R0558     1
    C0012     R0598     1
    C0012     R0668     1
    C0013     OBJ       -1
    C0013     R0003     1
    C0013     R0013     1
    C0013     R0023     1
    C0013     R0043     1
    C0013     R0102     1
    C0013     R0299     1
    C0013     R0559     1
    C0013     R0599     1
    C0013     R0669     1
    C0014     OBJ       -1
    C0014     R0004     1
    C0014     R0014     1
    C0014     R0024     1
    C0014     R0044     1
    C0014     R0102     1
    C0014     R0300     1
    C0014     R0560     1
    C0014     R0600     1
    C0014     R0670     1
    C0015     OBJ       -1
    C0015     R0005     1
    C0015     R0015     1
    C0015     R0025     1
    C0015     R0045     1
    C0015     R0102     1
    C0015     R0301     1
    C0015     R0561     1
    C0015     R0601     1
    C0015     R0671     1
    C0016     OBJ       -1
    C0016     R0006     1
    C0016     R0016     1
    C0016     R0026     1
    C0016     R0046     1
    C0016     R0102     1
    C0016     R0302     1
    C0016     R0562     1
    C0016     R0602     1
    C0016     R0672     1
    C0017     OBJ       -1
    C0017     R0007     1
    C0017     R0017     1
    C0017     R0027     1
    C0017     R0047     1
    C0017     R0102     1
    C0017     R0303     1
    C0017     R0563     1
    C0017     R0603     1
    C0017     R0673     1
    C0018     OBJ       -1
    C0018     R0008     1
    C0018     R0018     1
    C0018     R0028     1
    C0018     R0048     1
    C0018     R0102     1
    C0018     R0304     1
    C0018     R0564     1
    C0018     R0604     1
    C0018     R0674     1
    C0019     OBJ       -1
    C0019     R0009     1
    C0019     R0019     1
    C0019     R0029     1
    C0019     R0049     1
    C0019     R0102     1
    C0019     R0305     1
    C0019     R0565     1
    C0019     R0605     1
    C0019     R0675     1
    C0020     OBJ       -1
    C0020     R0010     1
    C0020     R0020     1
    C0020     R0030     1
    C0020     R0050     1
    C0020     R0102     1
    C0020     R0306     1
    C0020     R0566     1
    C0020     R0606     1
    C0020     R0676     1
    C0021     OBJ       -1
    C0021     R0001     1
    C0021     R0011     1
    C0021     R0021     1
    C0021     R0103     1
    C0021     R0307     1
    C0021     R0557     1
    C0021     R0587     1
    C0021     R0597     1
    C0021     R0607     1
    C0021     R0617     1
    C0021     R0667     1
    C0021     R0717     1
    C0022     OBJ       -1
    C0022     R0002     1
    C0022     R0012     1
    C0022     R0022     1
    C0022     R0103     1
    C0022     R0308     1
    C0022     R0558     1
    C0022     R0588     1
    C0022     R0598     1
    C0022     R0608     1
    C0022     R0618     1
    C0022     R0668     1
    C0022     R0718     1
    C0023     OBJ       -1
    C0023     R0003     1
    C0023     R0013     1
    C0023     R0023     1
    C0023     R0103     1
    C0023     R0309     1
    C0023     R0559     1
    C0023     R0589     1
    C0023     R0599     1
    C0023     R0609     1
    C0023     R0619     1
    C0023     R0669     1
    C0023     R0719     1
    C0024     OBJ       -1
    C0024     R0004     1
    C0024     R0014     1
    C0024     R0024     1
    C0024     R0103     1
    C0024     R0310     1
    C0024     R0560     1
    C0024     R0590     1
    C0024     R0600     1
    C0024     R0610     1
    C0024     R0620     1
    C0024     R0670     1
    C0024     R0720     1
    C0025     OBJ       -1
    C0025     R0005     1
    C0025     R0015     1
    C0025     R0025     1
    C0025     R0103     1
    C0025     R0311     1
    C0025     R0561     1
    C0025     R0591     1
    C0025     R0601     1
    C0025     R0611     1
    C0025     R0621     1
    C0025     R0671     1
    C0025     R0721     1
    C0026     OBJ       -1
    C0026     R0006     1
    C0026     R0016     1
    C0026     R0026     1
    C0026     R0103     1
    C0026     R0312     1
    C0026     R0562     1
    C0026     R0592     1
    C0026     R0602     1
    C0026     R0612     1
    C0026     R0622     1
    C0026     R0672     1
    C0026     R0722     1
    C0027     OBJ       -1
    C0027     R0007     1
    C0027     R0017     1
    C0027     R0027     1
    C0027     R0103     1
    C0027     R0313     1
    C0027     R0563     1
    C0027     R0593     1
    C0027     R0603     1
    C0027     R0613     1
    C0027     R0623     1
    C0027     R0673     1
    C0027     R0723     1
    C0028     OBJ       -1
    C0028     R0008     1
    C0028     R0018     1
    C0028     R0028     1
    C0028     R0103     1
    C0028     R0314     1
    C0028     R0564     1
    C0028     R0594     1
    C0028     R0604     1
    C0028     R0614     1
    C0028     R0624     1
    C0028     R0674     1
    C0028     R0724     1
    C0029     OBJ       -1
    C0029     R0009     1
    C0029     R0019     1
    C0029     R0029     1
    C0029     R0103     1
    C0029     R0315     1
    C0029     R0565     1
    C0029     R0595     1
    C0029     R0605     1
    C0029     R0615     1
    C0029     R0625     1
    C0029     R0675     1
    C0029     R0725     1
    C0030     OBJ       -1
    C0030     R0010     1
    C0030     R0020     1
    C0030     R0030     1
    C0030     R0103     1
    C0030     R0316     1
    C0030     R0566     1
    C0030     R0596     1
    C0030     R0606     1
    C0030     R0616     1
    C0030     R0626     1
    C0030     R0676     1
    C0030     R0726     1
    C0031     OBJ       -1
    C0031     R0001     1
    C0031     R0011     1
    C0031     R0021     1
    C0031     R0104     1
    C0031     R0317     1
    C0031     R0557     1
    C0031     R0577     1
    C0031     R0587     1
    C0031     R0597     1
    C0031     R0617     1
    C0031     R0667     1
    C0032     OBJ       -1
    C0032     R0002     1
    C0032     R0012     1
    C0032     R0022     1
    C0032     R0104     1
    C0032     R0318     1
    C0032     R0558     1
    C0032     R0578     1
    C0032     R0588     1
    C0032     R0598     1
    C0032     R0618     1
    C0032     R0668     1
    C0033     OBJ       -1
    C0033     R0003     1
    C0033     R0013     1
    C0033     R0023     1
    C0033     R0104     1
    C0033     R0319     1
    C0033     R0559     1
    C0033     R0579     1
    C0033     R0589     1
    C0033     R0599     1
    C0033     R0619     1
    C0033     R0669     1
    C0034     OBJ       -1
    C0034     R0004     1
    C0034     R0014     1
    C0034     R0024     1
    C0034     R0104     1
    C0034     R0320     1
    C0034     R0560     1
    C0034     R0580     1
    C0034     R0590     1
    C0034     R0600     1
    C0034     R0620     1
    C0034     R0670     1
    C0035     OBJ       -1
    C0035     R0005     1
    C0035     R0015     1
    C0035     R0025     1
    C0035     R0104     1
    C0035     R0321     1
    C0035     R0561     1
    C0035     R0581     1
    C0035     R0591     1
    C0035     R0601     1
    C0035     R0621     1
    C0035     R0671     1
    C0036     OBJ       -1
    C0036     R0006     1
    C0036     R0016     1
    C0036     R0026     1
    C0036     R0104     1
    C0036     R0322     1
    C0036     R0562     1
    C0036     R0582     1
    C0036     R0592     1
    C0036     R0602     1
    C0036     R0622     1
    C0036     R0672     1
    C0037     OBJ       -1
    C0037     R0007     1
    C0037     R0017     1
    C0037     R0027     1
    C0037     R0104     1
    C0037     R0323     1
    C0037     R0563     1
    C0037     R0583     1
    C0037     R0593     1
    C0037     R0603     1
    C0037     R0623     1
    C0037     R0673     1
    C0038     OBJ       -1
    C0038     R0008     1
    C0038     R0018     1
    C0038     R0028     1
    C0038     R0104     1
    C0038     R0324     1
    C0038     R0564     1
    C0038     R0584     1
    C0038     R0594     1
    C0038     R0604     1
    C0038     R0624     1
    C0038     R0674     1
    C0039     OBJ       -1
    C0039     R0009     1
    C0039     R0019     1
    C0039     R0029     1
    C0039     R0104     1
    C0039     R0325     1
    C0039     R0565     1
    C0039     R0585     1
    C0039     R0595     1
    C0039     R0605     1
    C0039     R0625     1
    C0039     R0675     1
    C0040     OBJ       -1
    C0040     R0010     1
    C0040     R0020     1
    C0040     R0030     1
    C0040     R0104     1
    C0040     R0326     1
    C0040     R0566     1
    C0040     R0586     1
    C0040     R0596     1
    C0040     R0606     1
    C0040     R0626     1
    C0040     R0676     1
    C0041     OBJ       -1
    C0041     R0001     1
    C0041     R0011     1
    C0041     R0105     1
    C0041     R0327     1
    C0041     R0557     1
    C0041     R0577     1
    C0041     R0587     1
    C0041     R0607     1
    C0041     R0617     1
    C0041     R0667     1
    C0041     R0677     1
    C0041     R0687     1
    C0041     R0717     1
    C0042     OBJ       -1
    C0042     R0002     1
    C0042     R0012     1
    C0042     R0105     1
    C0042     R0328     1
    C0042     R0558     1
    C0042     R0578     1
    C0042     R0588     1
    C0042     R0608     1
    C0042     R0618     1
    C0042     R0668     1
    C0042     R0678     1
    C0042     R0688     1
    C0042     R0718     1
    C0043     OBJ       -1
    C0043     R0003     1
    C0043     R0013     1
    C0043     R0105     1
    C0043     R0329     1
    C0043     R0559     1
    C0043     R0579     1
    C0043     R0589     1
    C0043     R0609     1
    C0043     R0619     1
    C0043     R0669     1
    C0043     R0679     1
    C0043     R0689     1
    C0043     R0719     1
    C0044     OBJ       -1
    C0044     R0004     1
    C0044     R0014     1
    C0044     R0105     1
    C0044     R0330     1
    C0044     R0560     1
    C0044     R0580     1
    C0044     R0590     1
    C0044     R0610     1
    C0044     R0620     1
    C0044     R0670     1
    C0044     R0680     1
    C0044     R0690     1
    C0044     R0720     1
    C0045     OBJ       -1
    C0045     R0005     1
    C0045     R0015     1
    C0045     R0105     1
    C0045     R0331     1
    C0045     R0561     1
    C0045     R0581     1
    C0045     R0591     1
    C0045     R0611     1
    C0045     R0621     1
    C0045     R0671     1
    C0045     R0681     1
    C0045     R0691     1
    C0045     R0721     1
    C0046     OBJ       -1
    C0046     R0006     1
    C0046     R0016     1
    C0046     R0105     1
    C0046     R0332     1
    C0046     R0562     1
    C0046     R0582     1
    C0046     R0592     1
    C0046     R0612     1
    C0046     R0622     1
    C0046     R0672     1
    C0046     R0682     1
    C0046     R0692     1
    C0046     R0722     1
    C0047     OBJ       -1
    C0047     R0007     1
    C0047     R0017     1
    C0047     R0105     1
    C0047     R0333     1
    C0047     R0563     1
    C0047     R0583     1
    C0047     R0593     1
    C0047     R0613     1
    C0047     R0623     1
    C0047     R0673     1
    C0047     R0683     1
    C0047     R0693     1
    C0047     R0723     1
    C0048     OBJ       -1
    C0048     R0008     1
    C0048     R0018     1
    C0048     R0105     1
    C0048     R0334     1
    C0048     R0564     1
    C0048     R0584     1
    C0048     R0594     1
    C0048     R0614     1
    C0048     R0624     1
    C0048     R0674     1
    C0048     R0684     1
    C0048     R0694     1
    C0048     R0724     1
    C0049     OBJ       -1
    C0049     R0009     1
    C0049     R0019     1
    C0049     R0105     1
    C0049     R0335     1
    C0049     R0565     1
    C0049     R0585     1
    C0049     R0595     1
    C0049     R0615     1
    C0049     R0625     1
    C0049     R0675     1
    C0049     R0685     1
    C0049     R0695     1
    C0049     R0725     1
    C0050     OBJ       -1
    C0050     R0010     1
    C0050     R0020     1
    C0050     R0105     1
    C0050     R0336     1
    C0050     R0566     1
    C0050     R0586     1
    C0050     R0596     1
    C0050     R0616     1
    C0050     R0626     1
    C0050     R0676     1
    C0050     R0686     1
    C0050     R0696     1
    C0050     R0726     1
    C0051     OBJ       -1
    C0051     R0001     1
    C0051     R0011     1
    C0051     R0021     1
    C0051     R0106     1
    C0051     R0337     1
    C0051     R0557     1
    C0051     R0577     1
    C0051     R0597     1
    C0051     R0607     1
    C0051     R0617     1
    C0051     R0677     1
    C0051     R0687     1
    C0051     R0717     1
    C0052     OBJ       -1
    C0052     R0002     1
    C0052     R0012     1
    C0052     R0022     1
    C0052     R0106     1
    C0052     R0338     1
    C0052     R0558     1
    C0052     R0578     1
    C0052     R0598     1
    C0052     R0608     1
    C0052     R0618     1
    C0052     R0678     1
    C0052     R0688     1
    C0052     R0718     1
    C0053     OBJ       -1
    C0053     R0003     1
    C0053     R0013     1
    C0053     R0023     1
    C0053     R0106     1
    C0053     R0339     1
    C0053     R0559     1
    C0053     R0579     1
    C0053     R0599     1
    C0053     R0609     1
    C0053     R0619     1
    C0053     R0679     1
    C0053     R0689     1
    C0053     R0719     1
    C0054     OBJ       -1
    C0054     R0004     1
    C0054     R0014     1
    C0054     R0024     1
    C0054     R0106     1
    C0054     R0340     1
    C0054     R0560     1
    C0054     R0580     1
    C0054     R0600     1
    C0054     R0610     1
    C0054     R0620     1
    C0054     R0680     1
    C0054     R0690     1
    C0054     R0720     1
    C0055     OBJ       -1
    C0055     R0005     1
    C0055     R0015     1
    C0055     R0025     1
    C0055     R0106     1
    C0055     R0341     1
    C0055     R0561     1
    C0055     R0581     1
    C0055     R0601     1
    C0055     R0611     1
    C0055     R0621     1
    C0055     R0681     1
    C0055     R0691     1
    C0055     R0721     1
    C0056     OBJ       -1
    C0056     R0006     1
    C0056     R0016     1
    C0056     R0026     1
    C0056     R0106     1
    C0056     R0342     1
    C0056     R0562     1
    C0056     R0582     1
    C0056     R0602     1
    C0056     R0612     1
    C0056     R0622     1
    C0056     R0682     1
    C0056     R0692     1
    C0056     R0722     1
    C0057     OBJ       -1
    C0057     R0007     1
    C0057     R0017     1
    C0057     R0027     1
    C0057     R0106     1
    C0057     R0343     1
    C0057     R0563     1
    C0057     R0583     1
    C0057     R0603     1
    C0057     R0613     1
    C0057     R0623     1
    C0057     R0683     1
    C0057     R0693     1
    C0057     R0723     1
    C0058     OBJ       -1
    C0058     R0008     1
    C0058     R0018     1
    C0058     R0028     1
    C0058     R0106     1
    C0058     R0344     1
    C0058     R0564     1
    C0058     R0584     1
    C0058     R0604     1
    C0058     R0614     1
    C0058     R0624     1
    C0058     R0684     1
    C0058     R0694     1
    C0058     R0724     1
    C0059     OBJ       -1
    C0059     R0009     1
    C0059     R0019     1
    C0059     R0029     1
    C0059     R0106     1
    C0059     R0345     1
    C0059     R0565     1
    C0059     R0585     1
    C0059     R0605     1
    C0059     R0615     1
    C0059     R0625     1
    C0059     R0685     1
    C0059     R0695     1
    C0059     R0725     1
    C0060     OBJ       -1
    C0060     R0010     1
    C0060     R0020     1
    C0060     R0030     1
    C0060     R0106     1
    C0060     R0346     1
    C0060     R0566     1
    C0060     R0586     1
    C0060     R0606     1
    C0060     R0616     1
    C0060     R0626     1
    C0060     R0686     1
    C0060     R0696     1
    C0060     R0726     1
    C0061     OBJ       -1
    C0061     R0001     1
    C0061     R0011     1
    C0061     R0021     1
    C0061     R0107     1
    C0061     R0347     1
    C0061     R0557     1
    C0061     R0607     1
    C0062     OBJ       -1
    C0062     R0002     1
    C0062     R0012     1
    C0062     R0022     1
    C0062     R0107     1
    C0062     R0348     1
    C0062     R0558     1
    C0062     R0608     1
    C0063     OBJ       -1
    C0063     R0003     1
    C0063     R0013     1
    C0063     R0023     1
    C0063     R0107     1
    C0063     R0349     1
    C0063     R0559     1
    C0063     R0609     1
    C0064     OBJ       -1
    C0064     R0004     1
    C0064     R0014     1
    C0064     R0024     1
    C0064     R0107     1
    C0064     R0350     1
    C0064     R0560     1
    C0064     R0610     1
    C0065     OBJ       -1
    C0065     R0005     1
    C0065     R0015     1
    C0065     R0025     1
    C0065     R0107     1
    C0065     R0351     1
    C0065     R0561     1
    C0065     R0611     1
    C0066     OBJ       -1
    C0066     R0006     1
    C0066     R0016     1
    C0066     R0026     1
    C0066     R0107     1
    C0066     R0352     1
    C0066     R0562     1
    C0066     R0612     1
    C0067     OBJ       -1
    C0067     R0007     1
    C0067     R0017     1
    C0067     R0027     1
    C0067     R0107     1
    C0067     R0353     1
    C0067     R0563     1
    C0067     R0613     1
    C0068     OBJ       -1
    C0068     R0008     1
    C0068     R0018     1
    C0068     R0028     1
    C0068     R0107     1
    C0068     R0354     1
    C0068     R0564     1
    C0068     R0614     1
    C0069     OBJ       -1
    C0069     R0009     1
    C0069     R0019     1
    C0069     R0029     1
    C0069     R0107     1
    C0069     R0355     1
    C0069     R0565     1
    C0069     R0615     1
    C0070     OBJ       -1
    C0070     R0010     1
    C0070     R0020     1
    C0070     R0030     1
    C0070     R0107     1
    C0070     R0356     1
    C0070     R0566     1
    C0070     R0616     1
    C0071     OBJ       -1
    C0071     R0001     1
    C0071     R0011     1
    C0071     R0021     1
    C0071     R0041     1
    C0071     R0108     1
    C0071     R0357     1
    C0071     R0577     1
    C0071     R0617     1
    C0071     R0717     1
    C0072     OBJ       -1
    C0072     R0002     1
    C0072     R0012     1
    C0072     R0022     1
    C0072     R0042     1
    C0072     R0108     1
    C0072     R0358     1
    C0072     R0578     1
    C0072     R0618     1
    C0072     R0718     1
    C0073     OBJ       -1
    C0073     R0003     1
    C0073     R0013     1
    C0073     R0023     1
    C0073     R0043     1
    C0073     R0108     1
    C0073     R0359     1
    C0073     R0579     1
    C0073     R0619     1
    C0073     R0719     1
    C0074     OBJ       -1
    C0074     R0004     1
    C0074     R0014     1
    C0074     R0024     1
    C0074     R0044     1
    C0074     R0108     1
    C0074     R0360     1
    C0074     R0580     1
    C0074     R0620     1
    C0074     R0720     1
    C0075     OBJ       -1
    C0075     R0005     1
    C0075     R0015     1
    C0075     R0025     1
    C0075     R0045     1
    C0075     R0108     1
    C0075     R0361     1
    C0075     R0581     1
    C0075     R0621     1
    C0075     R0721     1
    C0076     OBJ       -1
    C0076     R0006     1
    C0076     R0016     1
    C0076     R0026     1
    C0076     R0046     1
    C0076     R0108     1
    C0076     R0362     1
    C0076     R0582     1
    C0076     R0622     1
    C0076     R0722     1
    C0077     OBJ       -1
    C0077     R0007     1
    C0077     R0017     1
    C0077     R0027     1
    C0077     R0047     1
    C0077     R0108     1
    C0077     R0363     1
    C0077     R0583     1
    C0077     R0623     1
    C0077     R0723     1
    C0078     OBJ       -1
    C0078     R0008     1
    C0078     R0018     1
    C0078     R0028     1
    C0078     R0048     1
    C0078     R0108     1
    C0078     R0364     1
    C0078     R0584     1
    C0078     R0624     1
    C0078     R0724     1
    C0079     OBJ       -1
    C0079     R0009     1
    C0079     R0019     1
    C0079     R0029     1
    C0079     R0049     1
    C0079     R0108     1
    C0079     R0365     1
    C0079     R0585     1
    C0079     R0625     1
    C0079     R0725     1
    C0080     OBJ       -1
    C0080     R0010     1
    C0080     R0020     1
    C0080     R0030     1
    C0080     R0050     1
    C0080     R0108     1
    C0080     R0366     1
    C0080     R0586     1
    C0080     R0626     1
    C0080     R0726     1
    C0121     OBJ       -1
    C0121     R0001     1
    C0121     R0011     1
    C0121     R0021     1
    C0121     R0031     1
    C0121     R0113     1
    C0121     R0407     1
    C0121     R0557     1
    C0121     R0577     1
    C0121     R0607     1
    C0121     R0617     1
    C0121     R0667     1
    C0121     R0717     1
    C0122     OBJ       -1
    C0122     R0002     1
    C0122     R0012     1
    C0122     R0022     1
    C0122     R0032     1
    C0122     R0113     1
    C0122     R0408     1
    C0122     R0558     1
    C0122     R0578     1
    C0122     R0608     1
    C0122     R0618     1
    C0122     R0668     1
    C0122     R0718     1
    C0123     OBJ       -1
    C0123     R0003     1
    C0123     R0013     1
    C0123     R0023     1
    C0123     R0033     1
    C0123     R0113     1
    C0123     R0409     1
    C0123     R0559     1
    C0123     R0579     1
    C0123     R0609     1
    C0123     R0619     1
    C0123     R0669     1
    C0123     R0719     1
    C0124     OBJ       -1
    C0124     R0004     1
    C0124     R0014     1
    C0124     R0024     1
    C0124     R0034     1
    C0124     R0113     1
    C0124     R0410     1
    C0124     R0560     1
    C0124     R0580     1
    C0124     R0610     1
    C0124     R0620     1
    C0124     R0670     1
    C0124     R0720     1
    C0125     OBJ       -1
    C0125     R0005     1
    C0125     R0015     1
    C0125     R0025     1
    C0125     R0035     1
    C0125     R0113     1
    C0125     R0411     1
    C0125     R0561     1
    C0125     R0581     1
    C0125     R0611     1
    C0125     R0621     1
    C0125     R0671     1
    C0125     R0721     1
    C0126     OBJ       -1
    C0126     R0006     1
    C0126     R0016     1
    C0126     R0026     1
    C0126     R0036     1
    C0126     R0113     1
    C0126     R0412     1
    C0126     R0562     1
    C0126     R0582     1
    C0126     R0612     1
    C0126     R0622     1
    C0126     R0672     1
    C0126     R0722     1
    C0127     OBJ       -1
    C0127     R0007     1
    C0127     R0017     1
    C0127     R0027     1
    C0127     R0037     1
    C0127     R0113     1
    C0127     R0413     1
    C0127     R0563     1
    C0127     R0583     1
    C0127     R0613     1
    C0127     R0623     1
    C0127     R0673     1
    C0127     R0723     1
    C0128     OBJ       -1
    C0128     R0008     1
    C0128     R0018     1
    C0128     R0028     1
    C0128     R0038     1
    C0128     R0113     1
    C0128     R0414     1
    C0128     R0564     1
    C0128     R0584     1
    C0128     R0614     1
    C0128     R0624     1
    C0128     R0674     1
    C0128     R0724     1
    C0129     OBJ       -1
    C0129     R0009     1
    C0129     R0019     1
    C0129     R0029     1
    C0129     R0039     1
    C0129     R0113     1
    C0129     R0415     1
    C0129     R0565     1
    C0129     R0585     1
    C0129     R0615     1
    C0129     R0625     1
    C0129     R0675     1
    C0129     R0725     1
    C0130     OBJ       -1
    C0130     R0010     1
    C0130     R0020     1
    C0130     R0030     1
    C0130     R0040     1
    C0130     R0113     1
    C0130     R0416     1
    C0130     R0566     1
    C0130     R0586     1
    C0130     R0616     1
    C0130     R0626     1
    C0130     R0676     1
    C0130     R0726     1
    C0131     OBJ       -1
    C0131     R0011     1
    C0131     R0021     1
    C0131     R0041     1
    C0131     R0114     1
    C0131     R0417     1
    C0131     R0557     1
    C0131     R0587     1
    C0131     R0597     1
    C0131     R0617     1
    C0131     R0667     1
    C0131     R0677     1
    C0132     OBJ       -1
    C0132     R0012     1
    C0132     R0022     1
    C0132     R0042     1
    C0132     R0114     1
    C0132     R0418     1
    C0132     R0558     1
    C0132     R0588     1
    C0132     R0598     1
    C0132     R0618     1
    C0132     R0668     1
    C0132     R0678     1
    C0133     OBJ       -1
    C0133     R0013     1
    C0133     R0023     1
    C0133     R0043     1
    C0133     R0114     1
    C0133     R0419     1
    C0133     R0559     1
    C0133     R0589     1
    C0133     R0599     1
    C0133     R0619     1
    C0133     R0669     1
    C0133     R0679     1
    C0134     OBJ       -1
    C0134     R0014     1
    C0134     R0024     1
    C0134     R0044     1
    C0134     R0114     1
    C0134     R0420     1
    C0134     R0560     1
    C0134     R0590     1
    C0134     R0600     1
    C0134     R0620     1
    C0134     R0670     1
    C0134     R0680     1
    C0135     OBJ       -1
    C0135     R0015     1
    C0135     R0025     1
    C0135     R0045     1
    C0135     R0114     1
    C0135     R0421     1
    C0135     R0561     1
    C0135     R0591     1
    C0135     R0601     1
    C0135     R0621     1
    C0135     R0671     1
    C0135     R0681     1
    C0136     OBJ       -1
    C0136     R0016     1
    C0136     R0026     1
    C0136     R0046     1
    C0136     R0114     1
    C0136     R0422     1
    C0136     R0562     1
    C0136     R0592     1
    C0136     R0602     1
    C0136     R0622     1
    C0136     R0672     1
    C0136     R0682     1
    C0137     OBJ       -1
    C0137     R0017     1
    C0137     R0027     1
    C0137     R0047     1
    C0137     R0114     1
    C0137     R0423     1
    C0137     R0563     1
    C0137     R0593     1
    C0137     R0603     1
    C0137     R0623     1
    C0137     R0673     1
    C0137     R0683     1
    C0138     OBJ       -1
    C0138     R0018     1
    C0138     R0028     1
    C0138     R0048     1
    C0138     R0114     1
    C0138     R0424     1
    C0138     R0564     1
    C0138     R0594     1
    C0138     R0604     1
    C0138     R0624     1
    C0138     R0674     1
    C0138     R0684     1
    C0139     OBJ       -1
    C0139     R0019     1
    C0139     R0029     1
    C0139     R0049     1
    C0139     R0114     1
    C0139     R0425     1
    C0139     R0565     1
    C0139     R0595     1
    C0139     R0605     1
    C0139     R0625     1
    C0139     R0675     1
    C0139     R0685     1
    C0140     OBJ       -1
    C0140     R0020     1
    C0140     R0030     1
    C0140     R0050     1
    C0140     R0114     1
    C0140     R0426     1
    C0140     R0566     1
    C0140     R0596     1
    C0140     R0606     1
    C0140     R0626     1
    C0140     R0676     1
    C0140     R0686     1
    C0141     OBJ       -1
    C0141     R0001     1
    C0141     R0011     1
    C0141     R0021     1
    C0141     R0031     1
    C0141     R0041     1
    C0141     R0051     1
    C0141     R0115     1
    C0141     R0427     1
    C0141     R0577     1
    C0141     R0587     1
    C0141     R0597     1
    C0141     R0607     1
    C0141     R0667     1
    C0141     R0687     1
    C0141     R0717     1
    C0142     OBJ       -1
    C0142     R0002     1
    C0142     R0012     1
    C0142     R0022     1
    C0142     R0032     1
    C0142     R0042     1
    C0142     R0052     1
    C0142     R0115     1
    C0142     R0428     1
    C0142     R0578     1
    C0142     R0588     1
    C0142     R0598     1
    C0142     R0608     1
    C0142     R0668     1
    C0142     R0688     1
    C0142     R0718     1
    C0143     OBJ       -1
    C0143     R0003     1
    C0143     R0013     1
    C0143     R0023     1
    C0143     R0033     1
    C0143     R0043     1
    C0143     R0053     1
    C0143     R0115     1
    C0143     R0429     1
    C0143     R0579     1
    C0143     R0589     1
    C0143     R0599     1
    C0143     R0609     1
    C0143     R0669     1
    C0143     R0689     1
    C0143     R0719     1
    C0144     OBJ       -1
    C0144     R0004     1
    C0144     R0014     1
    C0144     R0024     1
    C0144     R0034     1
    C0144     R0044     1
    C0144     R0054     1
    C0144     R0115     1
    C0144     R0430     1
    C0144     R0580     1
    C0144     R0590     1
    C0144     R0600     1
    C0144     R0610     1
    C0144     R0670     1
    C0144     R0690     1
    C0144     R0720     1
    C0145     OBJ       -1
    C0145     R0005     1
    C0145     R0015     1
    C0145     R0025     1
    C0145     R0035     1
    C0145     R0045     1
    C0145     R0055     1
    C0145     R0115     1
    C0145     R0431     1
    C0145     R0581     1
    C0145     R0591     1
    C0145     R0601     1
    C0145     R0611     1
    C0145     R0671     1
    C0145     R0691     1
    C0145     R0721     1
    C0146     OBJ       -1
    C0146     R0006     1
    C0146     R0016     1
    C0146     R0026     1
    C0146     R0036     1
    C0146     R0046     1
    C0146     R0056     1
    C0146     R0115     1
    C0146     R0432     1
    C0146     R0582     1
    C0146     R0592     1
    C0146     R0602     1
    C0146     R0612     1
    C0146     R0672     1
    C0146     R0692     1
    C0146     R0722     1
    C0147     OBJ       -1
    C0147     R0007     1
    C0147     R0017     1
    C0147     R0027     1
    C0147     R0037     1
    C0147     R0047     1
    C0147     R0057     1
    C0147     R0115     1
    C0147     R0433     1
    C0147     R0583     1
    C0147     R0593     1
    C0147     R0603     1
    C0147     R0613     1
    C0147     R0673     1
    C0147     R0693     1
    C0147     R0723     1
    C0148     OBJ       -1
    C0148     R0008     1
    C0148     R0018     1
    C0148     R0028     1
    C0148     R0038     1
    C0148     R0048     1
    C0148     R0058     1
    C0148     R0115     1
    C0148     R0434     1
    C0148     R0584     1
    C0148     R0594     1
    C0148     R0604     1
    C0148     R0614     1
    C0148     R0674     1
    C0148     R0694     1
    C0148     R0724     1
    C0149     OBJ       -1
    C0149     R0009     1
    C0149     R0019     1
    C0149     R0029     1
    C0149     R0039     1
    C0149     R0049     1
    C0149     R0059     1
    C0149     R0115     1
    C0149     R0435     1
    C0149     R0585     1
    C0149     R0595     1
    C0149     R0605     1
    C0149     R0615     1
    C0149     R0675     1
    C0149     R0695     1
    C0149     R0725     1
    C0150     OBJ       -1
    C0150     R0010     1
    C0150     R0020     1
    C0150     R0030     1
    C0150     R0040     1
    C0150     R0050     1
    C0150     R0060     1
    C0150     R0115     1
    C0150     R0436     1
    C0150     R0586     1
    C0150     R0596     1
    C0150     R0606     1
    C0150     R0616     1
    C0150     R0676     1
    C0150     R0696     1
    C0150     R0726     1
    C0151     OBJ       -1
    C0151     R0021     1
    C0151     R0031     1
    C0151     R0041     1
    C0151     R0051     1
    C0151     R0116     1
    C0151     R0437     1
    C0151     R0557     1
    C0151     R0577     1
    C0151     R0597     1
    C0151     R0607     1
    C0151     R0617     1
    C0151     R0717     1
    C0152     OBJ       -1
    C0152     R0022     1
    C0152     R0032     1
    C0152     R0042     1
    C0152     R0052     1
    C0152     R0116     1
    C0152     R0438     1
    C0152     R0558     1
    C0152     R0578     1
    C0152     R0598     1
    C0152     R0608     1
    C0152     R0618     1
    C0152     R0718     1
    C0153     OBJ       -1
    C0153     R0023     1
    C0153     R0033     1
    C0153     R0043     1
    C0153     R0053     1
    C0153     R0116     1
    C0153     R0439     1
    C0153     R0559     1
    C0153     R0579     1
    C0153     R0599     1
    C0153     R0609     1
    C0153     R0619     1
    C0153     R0719     1
    C0154     OBJ       -1
    C0154     R0024     1
    C0154     R0034     1
    C0154     R0044     1
    C0154     R0054     1
    C0154     R0116     1
    C0154     R0440     1
    C0154     R0560     1
    C0154     R0580     1
    C0154     R0600     1
    C0154     R0610     1
    C0154     R0620     1
    C0154     R0720     1
    C0155     OBJ       -1
    C0155     R0025     1
    C0155     R0035     1
    C0155     R0045     1
    C0155     R0055     1
    C0155     R0116     1
    C0155     R0441     1
    C0155     R0561     1
    C0155     R0581     1
    C0155     R0601     1
    C0155     R0611     1
    C0155     R0621     1
    C0155     R0721     1
    C0156     OBJ       -1
    C0156     R0026     1
    C0156     R0036     1
    C0156     R0046     1
    C0156     R0056     1
    C0156     R0116     1
    C0156     R0442     1
    C0156     R0562     1
    C0156     R0582     1
    C0156     R0602     1
    C0156     R0612     1
    C0156     R0622     1
    C0156     R0722     1
    C0157     OBJ       -1
    C0157     R0027     1
    C0157     R0037     1
    C0157     R0047     1
    C0157     R0057     1
    C0157     R0116     1
    C0157     R0443     1
    C0157     R0563     1
    C0157     R0583     1
    C0157     R0603     1
    C0157     R0613     1
    C0157     R0623     1
    C0157     R0723     1
    C0158     OBJ       -1
    C0158     R0028     1
    C0158     R0038     1
    C0158     R0048     1
    C0158     R0058     1
    C0158     R0116     1
    C0158     R0444     1
    C0158     R0564     1
    C0158     R0584     1
    C0158     R0604     1
    C0158     R0614     1
    C0158     R0624     1
    C0158     R0724     1
    C0159     OBJ       -1
    C0159     R0029     1
    C0159     R0039     1
    C0159     R0049     1
    C0159     R0059     1
    C0159     R0116     1
    C0159     R0445     1
    C0159     R0565     1
    C0159     R0585     1
    C0159     R0605     1
    C0159     R0615     1
    C0159     R0625     1
    C0159     R0725     1
    C0160     OBJ       -1
    C0160     R0030     1
    C0160     R0040     1
    C0160     R0050     1
    C0160     R0060     1
    C0160     R0116     1
    C0160     R0446     1
    C0160     R0566     1
    C0160     R0586     1
    C0160     R0606     1
    C0160     R0616     1
    C0160     R0626     1
    C0160     R0726     1
    C0161     OBJ       -1
    C0161     R0021     1
    C0161     R0031     1
    C0161     R0041     1
    C0161     R0051     1
    C0161     R0117     1
    C0161     R0447     1
    C0161     R0557     1
    C0161     R0577     1
    C0161     R0597     1
    C0161     R0607     1
    C0161     R0617     1
    C0161     R0717     1
    C0162     OBJ       -1
    C0162     R0022     1
    C0162     R0032     1
    C0162     R0042     1
    C0162     R0052     1
    C0162     R0117     1
    C0162     R0448     1
    C0162     R0558     1
    C0162     R0578     1
    C0162     R0598     1
    C0162     R0608     1
    C0162     R0618     1
    C0162     R0718     1
    C0163     OBJ       -1
    C0163     R0023     1
    C0163     R0033     1
    C0163     R0043     1
    C0163     R0053     1
    C0163     R0117     1
    C0163     R0449     1
    C0163     R0559     1
    C0163     R0579     1
    C0163     R0599     1
    C0163     R0609     1
    C0163     R0619     1
    C0163     R0719     1
    C0164     OBJ       -1
    C0164     R0024     1
    C0164     R0034     1
    C0164     R0044     1
    C0164     R0054     1
    C0164     R0117     1
    C0164     R0450     1
    C0164     R0560     1
    C0164     R0580     1
    C0164     R0600     1
    C0164     R0610     1
    C0164     R0620     1
    C0164     R0720     1
    C0165     OBJ       -1
    C0165     R0025     1
    C0165     R0035     1
    C0165     R0045     1
    C0165     R0055     1
    C0165     R0117     1
    C0165     R0451     1
    C0165     R0561     1
    C0165     R0581     1
    C0165     R0601     1
    C0165     R0611     1
    C0165     R0621     1
    C0165     R0721     1
    C0166     OBJ       -1
    C0166     R0026     1
    C0166     R0036     1
    C0166     R0046     1
    C0166     R0056     1
    C0166     R0117     1
    C0166     R0452     1
    C0166     R0562     1
    C0166     R0582     1
    C0166     R0602     1
    C0166     R0612     1
    C0166     R0622     1
    C0166     R0722     1
    C0167     OBJ       -1
    C0167     R0027     1
    C0167     R0037     1
    C0167     R0047     1
    C0167     R0057     1
    C0167     R0117     1
    C0167     R0453     1
    C0167     R0563     1
    C0167     R0583     1
    C0167     R0603     1
    C0167     R0613     1
    C0167     R0623     1
    C0167     R0723     1
    C0168     OBJ       -1
    C0168     R0028     1
    C0168     R0038     1
    C0168     R0048     1
    C0168     R0058     1
    C0168     R0117     1
    C0168     R0454     1
    C0168     R0564     1
    C0168     R0584     1
    C0168     R0604     1
    C0168     R0614     1
    C0168     R0624     1
    C0168     R0724     1
    C0169     OBJ       -1
    C0169     R0029     1
    C0169     R0039     1
    C0169     R0049     1
    C0169     R0059     1
    C0169     R0117     1
    C0169     R0455     1
    C0169     R0565     1
    C0169     R0585     1
    C0169     R0605     1
    C0169     R0615     1
    C0169     R0625     1
    C0169     R0725     1
    C0170     OBJ       -1
    C0170     R0030     1
    C0170     R0040     1
    C0170     R0050     1
    C0170     R0060     1
    C0170     R0117     1
    C0170     R0456     1
    C0170     R0566     1
    C0170     R0586     1
    C0170     R0606     1
    C0170     R0616     1
    C0170     R0626     1
    C0170     R0726     1
    C0171     OBJ       -1
    C0171     R0001     1
    C0171     R0011     1
    C0171     R0021     1
    C0171     R0118     1
    C0171     R0457     1
    C0171     R0557     1
    C0171     R0617     1
    C0171     R0677     1
    C0171     R0687     1
    C0171     R0717     1
    C0172     OBJ       -1
    C0172     R0002     1
    C0172     R0012     1
    C0172     R0022     1
    C0172     R0118     1
    C0172     R0458     1
    C0172     R0558     1
    C0172     R0618     1
    C0172     R0678     1
    C0172     R0688     1
    C0172     R0718     1
    C0173     OBJ       -1
    C0173     R0003     1
    C0173     R0013     1
    C0173     R0023     1
    C0173     R0118     1
    C0173     R0459     1
    C0173     R0559     1
    C0173     R0619     1
    C0173     R0679     1
    C0173     R0689     1
    C0173     R0719     1
    C0174     OBJ       -1
    C0174     R0004     1
    C0174     R0014     1
    C0174     R0024     1
    C0174     R0118     1
    C0174     R0460     1
    C0174     R0560     1
    C0174     R0620     1
    C0174     R0680     1
    C0174     R0690     1
    C0174     R0720     1
    C0175     OBJ       -1
    C0175     R0005     1
    C0175     R0015     1
    C0175     R0025     1
    C0175     R0118     1
    C0175     R0461     1
    C0175     R0561     1
    C0175     R0621     1
    C0175     R0681     1
    C0175     R0691     1
    C0175     R0721     1
    C0176     OBJ       -1
    C0176     R0006     1
    C0176     R0016     1
    C0176     R0026     1
    C0176     R0118     1
    C0176     R0462     1
    C0176     R0562     1
    C0176     R0622     1
    C0176     R0682     1
    C0176     R0692     1
    C0176     R0722     1
    C0177     OBJ       -1
    C0177     R0007     1
    C0177     R0017     1
    C0177     R0027     1
    C0177     R0118     1
    C0177     R0463     1
    C0177     R0563     1
    C0177     R0623     1
    C0177     R0683     1
    C0177     R0693     1
    C0177     R0723     1
    C0178     OBJ       -1
    C0178     R0008     1
    C0178     R0018     1
    C0178     R0028     1
    C0178     R0118     1
    C0178     R0464     1
    C0178     R0564     1
    C0178     R0624     1
    C0178     R0684     1
    C0178     R0694     1
    C0178     R0724     1
    C0179     OBJ       -1
    C0179     R0009     1
    C0179     R0019     1
    C0179     R0029     1
    C0179     R0118     1
    C0179     R0465     1
    C0179     R0565     1
    C0179     R0625     1
    C0179     R0685     1
    C0179     R0695     1
    C0179     R0725     1
    C0180     OBJ       -1
    C0180     R0010     1
    C0180     R0020     1
    C0180     R0030     1
    C0180     R0118     1
    C0180     R0466     1
    C0180     R0566     1
    C0180     R0626     1
    C0180     R0686     1
    C0180     R0696     1
    C0180     R0726     1
    C0181     OBJ       -1
    C0181     R0041     1
    C0181     R0051     1
    C0181     R0119     1
    C0181     R0467     1
    C0181     R0557     1
    C0181     R0617     1
    C0181     R0677     1
    C0181     R0687     1
    C0182     OBJ       -1
    C0182     R0042     1
    C0182     R0052     1
    C0182     R0119     1
    C0182     R0468     1
    C0182     R0558     1
    C0182     R0618     1
    C0182     R0678     1
    C0182     R0688     1
    C0183     OBJ       -1
    C0183     R0043     1
    C0183     R0053     1
    C0183     R0119     1
    C0183     R0469     1
    C0183     R0559     1
    C0183     R0619     1
    C0183     R0679     1
    C0183     R0689     1
    C0184     OBJ       -1
    C0184     R0044     1
    C0184     R0054     1
    C0184     R0119     1
    C0184     R0470     1
    C0184     R0560     1
    C0184     R0620     1
    C0184     R0680     1
    C0184     R0690     1
    C0185     OBJ       -1
    C0185     R0045     1
    C0185     R0055     1
    C0185     R0119     1
    C0185     R0471     1
    C0185     R0561     1
    C0185     R0621     1
    C0185     R0681     1
    C0185     R0691     1
    C0186     OBJ       -1
    C0186     R0046     1
    C0186     R0056     1
    C0186     R0119     1
    C0186     R0472     1
    C0186     R0562     1
    C0186     R0622     1
    C0186     R0682     1
    C0186     R0692     1
    C0187     OBJ       -1
    C0187     R0047     1
    C0187     R0057     1
    C0187     R0119     1
    C0187     R0473     1
    C0187     R0563     1
    C0187     R0623     1
    C0187     R0683     1
    C0187     R0693     1
    C0188     OBJ       -1
    C0188     R0048     1
    C0188     R0058     1
    C0188     R0119     1
    C0188     R0474     1
    C0188     R0564     1
    C0188     R0624     1
    C0188     R0684     1
    C0188     R0694     1
    C0189     OBJ       -1
    C0189     R0049     1
    C0189     R0059     1
    C0189     R0119     1
    C0189     R0475     1
    C0189     R0565     1
    C0189     R0625     1
    C0189     R0685     1
    C0189     R0695     1
    C0190     OBJ       -1
    C0190     R0050     1
    C0190     R0060     1
    C0190     R0119     1
    C0190     R0476     1
    C0190     R0566     1
    C0190     R0626     1
    C0190     R0686     1
    C0190     R0696     1
    C0191     OBJ       -1
    C0191     R0031     1
    C0191     R0051     1
    C0191     R0120     1
    C0191     R0477     1
    C0192     OBJ       -1
    C0192     R0032     1
    C0192     R0052     1
    C0192     R0120     1
    C0192     R0478     1
    C0193     OBJ       -1
    C0193     R0033     1
    C0193     R0053     1
    C0193     R0120     1
    C0193     R0479     1
    C0194     OBJ       -1
    C0194     R0034     1
    C0194     R0054     1
    C0194     R0120     1
    C0194     R0480     1
    C0195     OBJ       -1
    C0195     R0035     1
    C0195     R0055     1
    C0195     R0120     1
    C0195     R0481     1
    C0196     OBJ       -1
    C0196     R0036     1
    C0196     R0056     1
    C0196     R0120     1
    C0196     R0482     1
    C0197     OBJ       -1
    C0197     R0037     1
    C0197     R0057     1
    C0197     R0120     1
    C0197     R0483     1
    C0198     OBJ       -1
    C0198     R0038     1
    C0198     R0058     1
    C0198     R0120     1
    C0198     R0484     1
    C0199     OBJ       -1
    C0199     R0039     1
    C0199     R0059     1
    C0199     R0120     1
    C0199     R0485     1
    C0200     OBJ       -1
    C0200     R0040     1
    C0200     R0060     1
    C0200     R0120     1
    C0200     R0486     1
    MARKER    'MARKER'                 'INTORG'
    C0261     R0127     1
    C0261     R0137     1
    C0261     R0287     -7
    C0262     R0128     1
    C0262     R0138     1
    C0262     R0288     -7
    C0263     R0129     1
    C0263     R0139     1
    C0263     R0289     -7
    C0264     R0130     1
    C0264     R0140     1
    C0264     R0290     -7
    C0265     R0131     1
    C0265     R0141     1
    C0265     R0291     -7
    C0266     R0132     1
    C0266     R0142     1
    C0266     R0292     -7
    C0267     R0133     1
    C0267     R0143     1
    C0267     R0293     -7
    C0268     R0134     1
    C0268     R0144     1
    C0268     R0294     -7
    C0269     R0135     1
    C0269     R0145     1
    C0269     R0295     -7
    C0270     R0136     1
    C0270     R0146     1
    C0270     R0296     -7
    C0271     R0127     1
    C0271     R0227     1
    C0271     R0297     -7
    C0271     R0557     76
    C0272     R0128     1
    C0272     R0228     1
    C0272     R0298     -7
    C0272     R0558     76
    C0273     R0129     1
    C0273     R0229     1
    C0273     R0299     -7
    C0273     R0559     76
    C0274     R0130     1
    C0274     R0230     1
    C0274     R0300     -7
    C0274     R0560     76
    C0275     R0131     1
    C0275     R0231     1
    C0275     R0301     -7
    C0275     R0561     76
    C0276     R0132     1
    C0276     R0232     1
    C0276     R0302     -7
    C0276     R0562     76
    C0277     R0133     1
    C0277     R0233     1
    C0277     R0303     -7
    C0277     R0563     76
    C0278     R0134     1
    C0278     R0234     1
    C0278     R0304     -7
    C0278     R0564     76
    C0279     R0135     1
    C0279     R0235     1
    C0279     R0305     -7
    C0279     R0565     76
    C0280     R0136     1
    C0280     R0236     1
    C0280     R0306     -7
    C0280     R0566     76
    C0281     R0137     1
    C0281     R0147     1
    C0281     R0307     -7
    C0282     R0138     1
    C0282     R0148     1
    C0282     R0308     -7
    C0283     R0139     1
    C0283     R0149     1
    C0283     R0309     -7
    C0284     R0140     1
    C0284     R0150     1
    C0284     R0310     -7
    C0285     R0141     1
    C0285     R0151     1
    C0285     R0311     -7
    C0286     R0142     1
    C0286     R0152     1
    C0286     R0312     -7
    C0287     R0143     1
    C0287     R0153     1
    C0287     R0313     -7
    C0288     R0144     1
    C0288     R0154     1
    C0288     R0314     -7
    C0289     R0145     1
    C0289     R0155     1
    C0289     R0315     -7
    C0290     R0146     1
    C0290     R0156     1
    C0290     R0316     -7
    C0291     R0717     14
    C0291     R0607     14
    C0291     R0137     1
    C0291     R0217     1
    C0291     R0317     -7
    C0291     R0577     7
    C0292     R0718     14
    C0292     R0608     14
    C0292     R0138     1
    C0292     R0218     1
    C0292     R0318     -7
    C0292     R0578     7
    C0293     R0719     14
    C0293     R0609     14
    C0293     R0139     1
    C0293     R0219     1
    C0293     R0319     -7
    C0293     R0579     7
    C0294     R0720     14
    C0294     R0610     14
    C0294     R0140     1
    C0294     R0220     1
    C0294     R0320     -7
    C0294     R0580     7
    C0295     R0721     14
    C0295     R0611     14
    C0295     R0141     1
    C0295     R0221     1
    C0295     R0321     -7
    C0295     R0581     7
    C0296     R0722     14
    C0296     R0612     14
    C0296     R0142     1
    C0296     R0222     1
    C0296     R0322     -7
    C0296     R0582     7
    C0297     R0723     14
    C0297     R0613     14
    C0297     R0143     1
    C0297     R0223     1
    C0297     R0323     -7
    C0297     R0583     7
    C0298     R0724     14
    C0298     R0614     14
    C0298     R0144     1
    C0298     R0224     1
    C0298     R0324     -7
    C0298     R0584     7
    C0299     R0725     14
    C0299     R0615     14
    C0299     R0145     1
    C0299     R0225     1
    C0299     R0325     -7
    C0299     R0585     7
    C0300     R0726     14
    C0300     R0616     14
    C0300     R0146     1
    C0300     R0226     1
    C0300     R0326     -7
    C0300     R0586     7
    C0301     R0617     14
    C0301     R0147     1
    C0301     R0157     1
    C0301     R0327     -7
    C0301     R0587     7
    C0302     R0618     14
    C0302     R0148     1
    C0302     R0158     1
    C0302     R0328     -7
    C0302     R0588     7
    C0303     R0619     14
    C0303     R0149     1
    C0303     R0159     1
    C0303     R0329     -7
    C0303     R0589     7
    C0304     R0620     14
    C0304     R0150     1
    C0304     R0160     1
    C0304     R0330     -7
    C0304     R0590     7
    C0305     R0621     14
    C0305     R0151     1
    C0305     R0161     1
    C0305     R0331     -7
    C0305     R0591     7
    C0306     R0622     14
    C0306     R0152     1
    C0306     R0162     1
    C0306     R0332     -7
    C0306     R0592     7
    C0307     R0623     14
    C0307     R0153     1
    C0307     R0163     1
    C0307     R0333     -7
    C0307     R0593     7
    C0308     R0624     14
    C0308     R0154     1
    C0308     R0164     1
    C0308     R0334     -7
    C0308     R0594     7
    C0309     R0625     14
    C0309     R0155     1
    C0309     R0165     1
    C0309     R0335     -7
    C0309     R0595     7
    C0310     R0626     14
    C0310     R0156     1
    C0310     R0166     1
    C0310     R0336     -7
    C0310     R0596     7
    C0311     R0147     1
    C0311     R0207     1
    C0311     R0337     -7
    C0311     R0597     7
    C0312     R0148     1
    C0312     R0208     1
    C0312     R0338     -7
    C0312     R0598     7
    C0313     R0149     1
    C0313     R0209     1
    C0313     R0339     -7
    C0313     R0599     7
    C0314     R0150     1
    C0314     R0210     1
    C0314     R0340     -7
    C0314     R0600     7
    C0315     R0151     1
    C0315     R0211     1
    C0315     R0341     -7
    C0315     R0601     7
    C0316     R0152     1
    C0316     R0212     1
    C0316     R0342     -7
    C0316     R0602     7
    C0317     R0153     1
    C0317     R0213     1
    C0317     R0343     -7
    C0317     R0603     7
    C0318     R0154     1
    C0318     R0214     1
    C0318     R0344     -7
    C0318     R0604     7
    C0319     R0155     1
    C0319     R0215     1
    C0319     R0345     -7
    C0319     R0605     7
    C0320     R0156     1
    C0320     R0216     1
    C0320     R0346     -7
    C0320     R0606     7
    C0321     R0717     14
    C0321     R0617     28
    C0321     R0157     1
    C0321     R0217     1
    C0321     R0347     -7
    C0321     R0607     48
    C0322     R0718     14
    C0322     R0618     28
    C0322     R0158     1
    C0322     R0218     1
    C0322     R0348     -7
    C0322     R0608     48
    C0323     R0719     14
    C0323     R0619     28
    C0323     R0159     1
    C0323     R0219     1
    C0323     R0349     -7
    C0323     R0609     48
    C0324     R0720     14
    C0324     R0620     28
    C0324     R0160     1
    C0324     R0220     1
    C0324     R0350     -7
    C0324     R0610     48
    C0325     R0721     14
    C0325     R0621     28
    C0325     R0161     1
    C0325     R0221     1
    C0325     R0351     -7
    C0325     R0611     48
    C0326     R0722     14
    C0326     R0622     28
    C0326     R0162     1
    C0326     R0222     1
    C0326     R0352     -7
    C0326     R0612     48
    C0327     R0723     14
    C0327     R0623     28
    C0327     R0163     1
    C0327     R0223     1
    C0327     R0353     -7
    C0327     R0613     48
    C0328     R0724     14
    C0328     R0624     28
    C0328     R0164     1
    C0328     R0224     1
    C0328     R0354     -7
    C0328     R0614     48
    C0329     R0725     14
    C0329     R0625     28
    C0329     R0165     1
    C0329     R0225     1
    C0329     R0355     -7
    C0329     R0615     48
    C0330     R0726     14
    C0330     R0626     28
    C0330     R0166     1
    C0330     R0226     1
    C0330     R0356     -7
    C0330     R0616     48
    C0331     R0557     14
    C0331     R0157     1
    C0331     R0227     1
    C0331     R0357     -7
    C0331     R0617     69
    C0332     R0558     14
    C0332     R0158     1
    C0332     R0228     1
    C0332     R0358     -7
    C0332     R0618     69
    C0333     R0559     14
    C0333     R0159     1
    C0333     R0229     1
    C0333     R0359     -7
    C0333     R0619     69
    C0334     R0560     14
    C0334     R0160     1
    C0334     R0230     1
    C0334     R0360     -7
    C0334     R0620     69
    C0335     R0561     14
    C0335     R0161     1
    C0335     R0231     1
    C0335     R0361     -7
    C0335     R0621     69
    C0336     R0562     14
    C0336     R0162     1
    C0336     R0232     1
    C0336     R0362     -7
    C0336     R0622     69
    C0337     R0563     14
    C0337     R0163     1
    C0337     R0233     1
    C0337     R0363     -7
    C0337     R0623     69
    C0338     R0564     14
    C0338     R0164     1
    C0338     R0234     1
    C0338     R0364     -7
    C0338     R0624     69
    C0339     R0565     14
    C0339     R0165     1
    C0339     R0235     1
    C0339     R0365     -7
    C0339     R0625     69
    C0340     R0566     14
    C0340     R0166     1
    C0340     R0236     1
    C0340     R0366     -7
    C0340     R0626     69
    C0381     R0687     1
    C0381     R0677     1
    C0381     R0197     1
    C0381     R0207     1
    C0381     R0407     -7
    C0381     R0667     7
    C0382     R0688     1
    C0382     R0678     1
    C0382     R0198     1
    C0382     R0208     1
    C0382     R0408     -7
    C0382     R0668     7
    C0383     R0689     1
    C0383     R0679     1
    C0383     R0199     1
    C0383     R0209     1
    C0383     R0409     -7
    C0383     R0669     7
    C0384     R0690     1
    C0384     R0680     1
    C0384     R0200     1
    C0384     R0210     1
    C0384     R0410     -7
    C0384     R0670     7
    C0385     R0691     1
    C0385     R0681     1
    C0385     R0201     1
    C0385     R0211     1
    C0385     R0411     -7
    C0385     R0671     7
    C0386     R0692     1
    C0386     R0682     1
    C0386     R0202     1
    C0386     R0212     1
    C0386     R0412     -7
    C0386     R0672     7
    C0387     R0693     1
    C0387     R0683     1
    C0387     R0203     1
    C0387     R0213     1
    C0387     R0413     -7
    C0387     R0673     7
    C0388     R0694     1
    C0388     R0684     1
    C0388     R0204     1
    C0388     R0214     1
    C0388     R0414     -7
    C0388     R0674     7
    C0389     R0695     1
    C0389     R0685     1
    C0389     R0205     1
    C0389     R0215     1
    C0389     R0415     -7
    C0389     R0675     7
    C0390     R0696     1
    C0390     R0686     1
    C0390     R0206     1
    C0390     R0216     1
    C0390     R0416     -7
    C0390     R0676     7
    C0391     R0717     28
    C0391     R0607     28
    C0391     R0031     1
    C0391     R0197     1
    C0391     R0217     1
    C0391     R0417     -7
    C0391     R0677     7
    C0392     R0718     28
    C0392     R0608     28
    C0392     R0032     1
    C0392     R0198     1
    C0392     R0218     1
    C0392     R0418     -7
    C0392     R0678     7
    C0393     R0719     28
    C0393     R0609     28
    C0393     R0033     1
    C0393     R0199     1
    C0393     R0219     1
    C0393     R0419     -7
    C0393     R0679     7
    C0394     R0720     28
    C0394     R0610     28
    C0394     R0034     1
    C0394     R0200     1
    C0394     R0220     1
    C0394     R0420     -7
    C0394     R0680     7
    C0395     R0721     28
    C0395     R0611     28
    C0395     R0035     1
    C0395     R0201     1
    C0395     R0221     1
    C0395     R0421     -7
    C0395     R0681     7
    C0396     R0722     28
    C0396     R0612     28
    C0396     R0036     1
    C0396     R0202     1
    C0396     R0222     1
    C0396     R0422     -7
    C0396     R0682     7
    C0397     R0723     28
    C0397     R0613     28
    C0397     R0037     1
    C0397     R0203     1
    C0397     R0223     1
    C0397     R0423     -7
    C0397     R0683     7
    C0398     R0724     28
    C0398     R0614     28
    C0398     R0038     1
    C0398     R0204     1
    C0398     R0224     1
    C0398     R0424     -7
    C0398     R0684     7
    C0399     R0725     28
    C0399     R0615     28
    C0399     R0039     1
    C0399     R0205     1
    C0399     R0225     1
    C0399     R0425     -7
    C0399     R0685     7
    C0400     R0726     28
    C0400     R0616     28
    C0400     R0040     1
    C0400     R0206     1
    C0400     R0226     1
    C0400     R0426     -7
    C0400     R0686     7
    C0401     R0557     28
    C0401     R0197     1
    C0401     R0227     1
    C0401     R0427     -7
    C0401     R0687     7
    C0402     R0558     28
    C0402     R0198     1
    C0402     R0228     1
    C0402     R0428     -7
    C0402     R0688     7
    C0403     R0559     28
    C0403     R0199     1
    C0403     R0229     1
    C0403     R0429     -7
    C0403     R0689     7
    C0404     R0560     28
    C0404     R0200     1
    C0404     R0230     1
    C0404     R0430     -7
    C0404     R0690     7
    C0405     R0561     28
    C0405     R0201     1
    C0405     R0231     1
    C0405     R0431     -7
    C0405     R0691     7
    C0406     R0562     28
    C0406     R0202     1
    C0406     R0232     1
    C0406     R0432     -7
    C0406     R0692     7
    C0407     R0563     28
    C0407     R0203     1
    C0407     R0233     1
    C0407     R0433     -7
    C0407     R0693     7
    C0408     R0564     28
    C0408     R0204     1
    C0408     R0234     1
    C0408     R0434     -7
    C0408     R0694     7
    C0409     R0565     28
    C0409     R0205     1
    C0409     R0235     1
    C0409     R0435     -7
    C0409     R0695     7
    C0410     R0566     28
    C0410     R0206     1
    C0410     R0236     1
    C0410     R0436     -7
    C0410     R0696     7
    C0411     R0197     1
    C0411     R0437     -7
    C0412     R0198     1
    C0412     R0438     -7
    C0413     R0199     1
    C0413     R0439     -7
    C0414     R0200     1
    C0414     R0440     -7
    C0415     R0201     1
    C0415     R0441     -7
    C0416     R0202     1
    C0416     R0442     -7
    C0417     R0203     1
    C0417     R0443     -7
    C0418     R0204     1
    C0418     R0444     -7
    C0419     R0205     1
    C0419     R0445     -7
    C0420     R0206     1
    C0420     R0446     -7
    C0421     R0051     1
    C0421     R0031     1
    C0421     R0197     1
    C0421     R0237     1
    C0421     R0447     -7
    C0422     R0052     1
    C0422     R0032     1
    C0422     R0198     1
    C0422     R0238     1
    C0422     R0448     -7
    C0423     R0053     1
    C0423     R0033     1
    C0423     R0199     1
    C0423     R0239     1
    C0423     R0449     -7
    C0424     R0054     1
    C0424     R0034     1
    C0424     R0200     1
    C0424     R0240     1
    C0424     R0450     -7
    C0425     R0055     1
    C0425     R0035     1
    C0425     R0201     1
    C0425     R0241     1
    C0425     R0451     -7
    C0426     R0056     1
    C0426     R0036     1
    C0426     R0202     1
    C0426     R0242     1
    C0426     R0452     -7
    C0427     R0057     1
    C0427     R0037     1
    C0427     R0203     1
    C0427     R0243     1
    C0427     R0453     -7
    C0428     R0058     1
    C0428     R0038     1
    C0428     R0204     1
    C0428     R0244     1
    C0428     R0454     -7
    C0429     R0059     1
    C0429     R0039     1
    C0429     R0205     1
    C0429     R0245     1
    C0429     R0455     -7
    C0430     R0060     1
    C0430     R0040     1
    C0430     R0206     1
    C0430     R0246     1
    C0430     R0456     -7
    C0431     R0607     14
    C0431     R0207     1
    C0431     R0217     1
    C0431     R0457     -7
    C0431     R0717     55
    C0432     R0608     14
    C0432     R0208     1
    C0432     R0218     1
    C0432     R0458     -7
    C0432     R0718     55
    C0433     R0609     14
    C0433     R0209     1
    C0433     R0219     1
    C0433     R0459     -7
    C0433     R0719     55
    C0434     R0610     14
    C0434     R0210     1
    C0434     R0220     1
    C0434     R0460     -7
    C0434     R0720     55
    C0435     R0611     14
    C0435     R0211     1
    C0435     R0221     1
    C0435     R0461     -7
    C0435     R0721     55
    C0436     R0612     14
    C0436     R0212     1
    C0436     R0222     1
    C0436     R0462     -7
    C0436     R0722     55
    C0437     R0613     14
    C0437     R0213     1
    C0437     R0223     1
    C0437     R0463     -7
    C0437     R0723     55
    C0438     R0614     14
    C0438     R0214     1
    C0438     R0224     1
    C0438     R0464     -7
    C0438     R0724     55
    C0439     R0615     14
    C0439     R0215     1
    C0439     R0225     1
    C0439     R0465     -7
    C0439     R0725     55
    C0440     R0616     14
    C0440     R0216     1
    C0440     R0226     1
    C0440     R0466     -7
    C0440     R0726     55
    C0441     R0237     1
    C0441     R0467     -7
    C0442     R0238     1
    C0442     R0468     -7
    C0443     R0239     1
    C0443     R0469     -7
    C0444     R0240     1
    C0444     R0470     -7
    C0445     R0241     1
    C0445     R0471     -7
    C0446     R0242     1
    C0446     R0472     -7
    C0447     R0243     1
    C0447     R0473     -7
    C0448     R0244     1
    C0448     R0474     -7
    C0449     R0245     1
    C0449     R0475     -7
    C0450     R0246     1
    C0450     R0476     -7
    C0451     R0237     1
    C0451     R0477     -7
    C0452     R0238     1
    C0452     R0478     -7
    C0453     R0239     1
    C0453     R0479     -7
    C0454     R0240     1
    C0454     R0480     -7
    C0455     R0241     1
    C0455     R0481     -7
    C0456     R0242     1
    C0456     R0482     -7
    C0457     R0243     1
    C0457     R0483     -7
    C0458     R0244     1
    C0458     R0484     -7
    C0459     R0245     1
    C0459     R0485     -7
    C0460     R0246     1
    C0460     R0486     -7
    MARKER    'MARKER'                 'INTEND'
RHS
    RHS1      OBJ       70
    RHS1      R0001     8
    RHS1      R0002     8
    RHS1      R0003     8
    RHS1      R0004     8
    RHS1      R0005     8
    RHS1      R0006     8
    RHS1      R0007     8
    RHS1      R0008     8
    RHS1      R0009     8
    RHS1      R0010     8
    RHS1      R0011     8
    RHS1      R0012     8
    RHS1      R0013     8
    RHS1      R0014     8
    RHS1      R0015     8
    RHS1      R0016     8
    RHS1      R0017     8
    RHS1      R0018     8
    RHS1      R0019     8
    RHS1      R0020     8
    RHS1      R0021     8
    RHS1      R0022     8
    RHS1      R0023     8
    RHS1      R0024     8
    RHS1      R0025     8
    RHS1      R0026     8
    RHS1      R0027     8
    RHS1      R0028     8
    RHS1      R0029     8
    RHS1      R0030     8
    RHS1      R0031     8
    RHS1      R0032     8
    RHS1      R0033     8
    RHS1      R0034     8
    RHS1      R0035     8
    RHS1      R0036     8
    RHS1      R0037     8
    RHS1      R0038     8
    RHS1      R0039     8
    RHS1      R0040     8
    RHS1      R0041     8
    RHS1      R0042     8
    RHS1      R0043     8
    RHS1      R0044     8
    RHS1      R0045     8
    RHS1      R0046     8
    RHS1      R0047     8
    RHS1      R0048     8
    RHS1      R0049     8
    RHS1      R0050     8
    RHS1      R0051     8
    RHS1      R0052     8
    RHS1      R0053     8
    RHS1      R0054     8
    RHS1      R0055     8
    RHS1      R0056     8
    RHS1      R0057     8
    RHS1      R0058     8
    RHS1      R0059     8
    RHS1      R0060     8
    RHS1      R0101     7
    RHS1      R0102     7
    RHS1      R0103     7
    RHS1      R0104     7
    RHS1      R0105     7
    RHS1      R0106     7
    RHS1      R0107     7
    RHS1      R0108     7
    RHS1      R0113     7
    RHS1      R0114     7
    RHS1      R0115     7
    RHS1      R0116     7
    RHS1      R0117     7
    RHS1      R0118     7
    RHS1      R0119     7
    RHS1      R0120     7
    RHS1      R0127     1
    RHS1      R0128     1
    RHS1      R0129     1
    RHS1      R0130     1
    RHS1      R0131     1
    RHS1      R0132     1
    RHS1      R0133     1
    RHS1      R0134     1
    RHS1      R0135     1
    RHS1      R0136     1
    RHS1      R0137     1
    RHS1      R0138     1
    RHS1      R0139     1
    RHS1      R0140     1
    RHS1      R0141     1
    RHS1      R0142     1
    RHS1      R0143     1
    RHS1      R0144     1
    RHS1      R0145     1
    RHS1      R0146     1
    RHS1      R0147     1
    RHS1      R0148     1
    RHS1      R0149     1
    RHS1      R0150     1
    RHS1      R0151     1
    RHS1      R0152     1
    RHS1      R0153     1
    RHS1      R0154     1
    RHS1      R0155     1
    RHS1      R0156     1
    RHS1      R0157     1
    RHS1      R0158     1
    RHS1      R0159     1
    RHS1      R0160     1
    RHS1      R0161     1
    RHS1      R0162     1
    RHS1      R0163     1
    RHS1      R0164     1
    RHS1      R0165     1
    RHS1      R0166     1
    RHS1      R0197     1
    RHS1      R0198     1
    RHS1      R0199     1
    RHS1      R0200     1
    RHS1      R0201     1
    RHS1      R0202     1
    RHS1      R0203     1
    RHS1      R0204     1
    RHS1      R0205     1
    RHS1      R0206     1
    RHS1      R0207     1
    RHS1      R0208     1
    RHS1      R0209     1
    RHS1      R0210     1
    RHS1      R0211     1
    RHS1      R0212     1
    RHS1      R0213     1
    RHS1      R0214     1
    RHS1      R0215     1
    RHS1      R0216     1
    RHS1      R0217     1
    RHS1      R0218     1
    RHS1      R0219     1
    RHS1      R0220     1
    RHS1      R0221     1
    RHS1      R0222     1
    RHS1      R0223     1
    RHS1      R0224     1
    RHS1      R0225     1
    RHS1      R0226     1
    RHS1      R0227     1
    RHS1      R0228     1
    RHS1      R0229     1
    RHS1      R0230     1
    RHS1      R0231     1
    RHS1      R0232     1
    RHS1      R0233     1
    RHS1      R0234     1
    RHS1      R0235     1
    RHS1      R0236     1
    RHS1      R0237     1
    RHS1      R0238     1
    RHS1      R0239     1
    RHS1      R0240     1
    RHS1      R0241     1
    RHS1      R0242     1
    RHS1      R0243     1
    RHS1      R0244     1
    RHS1      R0245     1
    RHS1      R0246     1
    RHS1      R0557     84
    RHS1      R0558     84
    RHS1      R0559     84
    RHS1      R0560     84
    RHS1      R0561     84
    RHS1      R0562     84
    RHS1      R0563     84
    RHS1      R0564     84
    RHS1      R0565     84
    RHS1      R0566     84
    RHS1      R0577     15
    RHS1      R0578     15
    RHS1      R0579     15
    RHS1      R0580     15
    RHS1      R0581     15
    RHS1      R0582     15
    RHS1      R0583     15
    RHS1      R0584     15
    RHS1      R0585     15
    RHS1      R0586     15
    RHS1      R0587     15
    RHS1      R0588     15
    RHS1      R0589     15
    RHS1      R0590     15
    RHS1      R0591     15
    RHS1      R0592     15
    RHS1      R0593     15
    RHS1      R0594     15
    RHS1      R0595     15
    RHS1      R0596     15
    RHS1      R0597     15
    RHS1      R0598     15
    RHS1      R0599     15
    RHS1      R0600     15
    RHS1      R0601     15
    RHS1      R0602     15
    RHS1      R0603     15
    RHS1      R0604     15
    RHS1      R0605     15
    RHS1      R0606     15
    RHS1      R0607     56
    RHS1      R0608     56
    RHS1      R0609     56
    RHS1      R0610     56
    RHS1      R0611     56
    RHS1      R0612     56
    RHS1      R0613     56
    RHS1      R0614     56
    RHS1      R0615     56
    RHS1      R0616     56
    RHS1      R0617     77
    RHS1      R0618     77
    RHS1      R0619     77
    RHS1      R0620     77
    RHS1      R0621     77
    RHS1      R0622     77
    RHS1      R0623     77
    RHS1      R0624     77
    RHS1      R0625     77
    RHS1      R0626     77
    RHS1      R0667     15
    RHS1      R0668     15
    RHS1      R0669     15
    RHS1      R0670     15
    RHS1      R0671     15
    RHS1      R0672     15
    RHS1      R0673     15
    RHS1      R0674     15
    RHS1      R0675     15
    RHS1      R0676     15
    RHS1      R0677     15
    RHS1      R0678     15
    RHS1      R0679     15
    RHS1      R0680     15
    RHS1      R0681     15
    RHS1      R0682     15
    RHS1      R0683     15
    RHS1      R0684     15
    RHS1      R0685     15
    RHS1      R0686     15
    RHS1      R0687     15
    RHS1      R0688     15
    RHS1      R0689     15
    RHS1      R0690     15
    RHS1      R0691     15
    RHS1      R0692     15
    RHS1      R0693     15
    RHS1      R0694     15
    RHS1      R0695     15
    RHS1      R0696     15
    RHS1      R0717     63
    RHS1      R0718     63
    RHS1      R0719     63
    RHS1      R0720     63
    RHS1      R0721     63
    RHS1      R0722     63
    RHS1      R0723     63
    RHS1      R0724     63
    RHS1      R0725     63
    RHS1      R0726     63
BOUNDS
 UP BND1      C0001     7
 UP BND1      C0002     7
 UP BND1      C0003     7
 UP BND1      C0004     7
 UP BND1      C0005     7
 UP BND1      C0006     7
 UP BND1      C0007     7
 UP BND1      C0008     7
 UP BND1      C0009     7
 UP BND1      C0010     7
 UP BND1      C0011     7
 UP BND1      C0012     7
 UP BND1      C0013     7
 UP BND1      C0014     7
 UP BND1      C0015     7
 UP BND1      C0016     7
 UP BND1      C0017     7
 UP BND1      C0018     7
 UP BND1      C0019     7
 UP BND1      C0020     7
 UP BND1      C0021     7
 UP BND1      C0022     7
 UP BND1      C0023     7
 UP BND1      C0024     7
 UP BND1      C0025     7
 UP BND1      C0026     7
 UP BND1      C0027     7
 UP BND1      C0028     7
 UP BND1      C0029     7
 UP BND1      C0030     7
 UP BND1      C0031     7
 UP BND1      C0032     7
 UP BND1      C0033     7
 UP BND1      C0034     7
 UP BND1      C0035     7
 UP BND1      C0036     7
 UP BND1      C0037     7
 UP BND1      C0038     7
 UP BND1      C0039     7
 UP BND1      C0040     7
 UP BND1      C0041     7
 UP BND1      C0042     7
 UP BND1      C0043     7
 UP BND1      C0044     7
 UP BND1      C0045     7
 UP BND1      C0046     7
 UP BND1      C0047     7
 UP BND1      C0048     7
 UP BND1      C0049     7
 UP BND1      C0050     7
 UP BND1      C0051     7
 UP BND1      C0052     7
 UP BND1      C0053     7
 UP BND1      C0054     7
 UP BND1      C0055     7
 UP BND1      C0056     7
 UP BND1      C0057     7
 UP BND1      C0058     7
 UP BND1      C0059     7
 UP BND1      C0060     7
 UP BND1      C0061     7
 UP BND1      C0062     7
 UP BND1      C0063     7
 UP BND1      C0064     7
 UP BND1      C0065     7
 UP BND1      C0066     7
 UP BND1      C0067     7
 UP BND1      C0068     7
 UP BND1      C0069     7
 UP BND1      C0070     7
 UP BND1      C0071     7
 UP BND1      C0072     7
 UP BND1      C0073     7
 UP BND1      C0074     7
 UP BND1      C0075     7
 UP BND1      C0076     7
 UP BND1      C0077     7
 UP BND1      C0078     7
 UP BND1      C0079     7
 UP BND1      C0080     7
 UP BND1      C0121     7
 UP BND1      C0122     7
 UP BND1      C0123     7
 UP BND1      C0124     7
 UP BND1      C0125     7
 UP BND1      C0126     7
 UP BND1      C0127     7
 UP BND1      C0128     7
 UP BND1      C0129     7
 UP BND1      C0130     7
 UP BND1      C0131     7
 UP BND1      C0132     7
 UP BND1      C0133     7
 UP BND1      C0134     7
 UP BND1      C0135     7
 UP BND1      C0136     7
 UP BND1      C0137     7
 UP BND1      C0138     7
 UP BND1      C0139     7
 UP BND1      C0140     7
 UP BND1      C0141     7
 UP BND1      C0142     7
 UP BND1      C0143     7
 UP BND1      C0144     7
 UP BND1      C0145     7
 UP BND1      C0146     7
 UP BND1      C0147     7
 UP BND1      C0148     7
 UP BND1      C0149     7
 UP BND1      C0150     7
 UP BND1      C0151     7
 UP BND1      C0152     7
 UP BND1      C0153     7
 UP BND1      C0154     7
 UP BND1      C0155     7
 UP BND1      C0156     7
 UP BND1      C0157     7
 UP BND1      C0158     7
 UP BND1      C0159     7
 UP BND1      C0160     7
 UP BND1      C0161     7
 UP BND1      C0162     7
 UP BND1      C0163     7
 UP BND1      C0164     7
 UP BND1      C0165     7
 UP BND1      C0166     7
 UP BND1      C0167     7
 UP BND1      C0168     7
 UP BND1      C0169     7
 UP BND1      C0170     7
 UP BND1      C0171     7
 UP BND1      C0172     7
 UP BND1      C0173     7
 UP BND1      C0174     7
 UP BND1      C0175     7
 UP BND1      C0176     7
 UP BND1      C0177     7
 UP BND1      C0178     7
 UP BND1      C0179     7
 UP BND1      C0180     7
 UP BND1      C0181     7
 UP BND1      C0182     7
 UP BND1      C0183     7
 UP BND1      C0184     7
 UP BND1      C0185     7
 UP BND1      C0186     7
 UP BND1      C0187     7
 UP BND1      C0188     7
 UP BND1      C0189     7
 UP BND1      C0190     7
 UP BND1      C0191     7
 UP BND1      C0192     7
 UP BND1      C0193     7
 UP BND1      C0194     7
 UP BND1      C0195     7
 UP BND1      C0196     7
 UP BND1      C0197     7
 UP BND1      C0198     7
 UP BND1      C0199     7
 UP BND1      C0200     7
 BV BND1      C0261   
 BV BND1      C0262   
 BV BND1      C0263   
 BV BND1      C0264   
 BV BND1      C0265   
 BV BND1      C0266   
 BV BND1      C0267   
 BV BND1      C0268   
 BV BND1      C0269   
 BV BND1      C0270   
 BV BND1      C0271   
 BV BND1      C0272   
 BV BND1      C0273   
 BV BND1      C0274   
 BV BND1      C0275   
 BV BND1      C0276   
 BV BND1      C0277   
 BV BND1      C0278   
 BV BND1      C0279   
 BV BND1      C0280   
 BV BND1      C0281   
 BV BND1      C0282   
 BV BND1      C0283   
 BV BND1      C0284   
 BV BND1      C0285   
 BV BND1      C0286   
 BV BND1      C0287   
 BV BND1      C0288   
 BV BND1      C0289   
 BV BND1      C0290   
 BV BND1      C0291   
 BV BND1      C0292   
 BV BND1      C0293   
 BV BND1      C0294   
 BV BND1      C0295   
 BV BND1      C0296   
 BV BND1      C0297   
 BV BND1      C0298   
 BV BND1      C0299   
 BV BND1      C0300   
 BV BND1      C0301   
 BV BND1      C0302   
 BV BND1      C0303   
 BV BND1      C0304   
 BV BND1      C0305   
 BV BND1      C0306   
 BV BND1      C0307   
 BV BND1      C0308   
 BV BND1      C0309   
 BV BND1      C0310   
 BV BND1      C0311   
 BV BND1      C0312   
 BV BND1      C0313   
 BV BND1      C0314   
 BV BND1      C0315   
 BV BND1      C0316   
 BV BND1      C0317   
 BV BND1      C0318   
 BV BND1      C0319   
 BV BND1      C0320   
 BV BND1      C0321   
 BV BND1      C0322   
 BV BND1      C0323   
 BV BND1      C0324   
 BV BND1      C0325   
 BV BND1      C0326   
 BV BND1      C0327   
 BV BND1      C0328   
 BV BND1      C0329   
 BV BND1      C0330   
 BV BND1      C0331   
 BV BND1      C0332   
 BV BND1      C0333   
 BV BND1      C0334   
 BV BND1      C0335   
 BV BND1      C0336   
 BV BND1      C0337   
 BV BND1      C0338   
 BV BND1      C0339   
 BV BND1      C0340   
 BV BND1      C0381   
 BV BND1      C0382   
 BV BND1      C0383   
 BV BND1      C0384   
 BV BND1      C0385   
 BV BND1      C0386   
 BV BND1      C0387   
 BV BND1      C0388   
 BV BND1      C0389   
 BV BND1      C0390   
 BV BND1      C0391   
 BV BND1      C0392   
 BV BND1      C0393   
 BV BND1      C0394   
 BV BND1      C0395   
 BV BND1      C0396   
 BV BND1      C0397   
 BV BND1      C0398   
 BV BND1      C0399   
 BV BND1      C0400   
 BV BND1      C0401   
 BV BND1      C0402   
 BV BND1      C0403   
 BV BND1      C0404   
 BV BND1      C0405   
 BV BND1      C0406   
 BV BND1      C0407   
 BV BND1      C0408   
 BV BND1      C0409   
 BV BND1      C0410   
 BV BND1      C0411   
 BV BND1      C0412   
 BV BND1      C0413   
 BV BND1      C0414   
 BV BND1      C0415   
 BV BND1      C0416   
 BV BND1      C0417   
 BV BND1      C0418   
 BV BND1      C0419   
 BV BND1      C0420   
 BV BND1      C0421   
 BV BND1      C0422   
 BV BND1      C0423   
 BV BND1      C0424   
 BV BND1      C0425   
 BV BND1      C0426   
 BV BND1      C0427   
 BV BND1      C0428   
 BV BND1      C0429   
 BV BND1      C0430   
 BV BND1      C0431   
 BV BND1      C0432   
 BV BND1      C0433   
 BV BND1      C0434   
 BV BND1      C0435   
 BV BND1      C0436   
 BV BND1      C0437   
 BV BND1      C0438   
 BV BND1      C0439   
 BV BND1      C0440   
 BV BND1      C0441   
 BV BND1      C0442   
 BV BND1      C0443   
 BV BND1      C0444   
 BV BND1      C0445   
 BV BND1      C0446   
 BV BND1      C0447   
 BV BND1      C0448   
 BV BND1      C0449   
 BV BND1      C0450   
 BV BND1      C0451   
 BV BND1      C0452   
 BV BND1      C0453   
 BV BND1      C0454   
 BV BND1      C0455   
 BV BND1      C0456   
 BV BND1      C0457   
 BV BND1      C0458   
 BV BND1      C0459   
 BV BND1      C0460   
ENDATA
