NAME neos-1442119_pre
ROWS
 N  OBJ
 L  R0001   
 L  R0002   
 L  R0003   
 L  R0004   
 L  R0005   
 L  R0006   
 L  R0007   
 L  R0008   
 L  R0009   
 L  R0010   
 L  R0011   
 L  R0012   
 L  R0013   
 L  R0014   
 L  R0015   
 L  R0016   
 L  R0017   
 L  R0018   
 L  R0019   
 L  R0020   
 L  R0021   
 L  R0022   
 L  R0023   
 L  R0024   
 L  R0025   
 L  R0026   
 L  R0027   
 L  R0028   
 L  R0029   
 L  R0030   
 L  R0031   
 L  R0032   
 L  R0033   
 L  R0034   
 L  R0035   
 L  R0036   
 L  R0037   
 L  R0038   
 L  R0039   
 L  R0040   
 L  R0041   
 L  R0042   
 L  R0043   
 L  R0044   
 L  R0045   
 L  R0046   
 L  R0047   
 L  R0048   
 L  R0049   
 L  R0050   
 L  R0051   
 L  R0052   
 L  R0053   
 L  R0054   
 L  R0055   
 L  R0056   
 L  R0057   
 L  R0058   
 L  R0059   
 L  R0060   
 L  R0061   
 L  R0062   
 L  R0063   
 L  R0064   
 L  R0065   
 L  R0066   
 L  R0067   
 L  R0068   
 L  R0069   
 L  R0070   
 L  R0071   
 L  R0072   
 L  R0073   
 L  R0074   
 L  R0075   
 L  R0076   
 L  R0077   
 L  R0078   
 L  R0079   
 L  R0080   
 L  R0081   
 L  R0082   
 L  R0083   
 L  R0084   
 L  R0085   
 L  R0086   
 L  R0087   
 L  R0088   
 L  R0089   
 L  R0090   
 L  R0091   
 L  R0092   
 L  R0093   
 L  R0094   
 L  R0095   
 L  R0096   
 L  R0097   
 L  R0098   
 L  R0099   
 L  R0100   
 L  R0101   
 L  R0102   
 L  R0103   
 L  R0104   
 L  R0105   
 L  R0106   
 L  R0107   
 L  R0108   
 L  R0109   
 L  R0110   
 L  R0111   
 L  R0112   
 L  R0113   
 L  R0114   
 L  R0115   
 L  R0116   
 L  R0117   
 L  R0118   
 L  R0119   
 L  R0120   
 L  R0121   
 L  R0122   
 L  R0123   
 L  R0124   
 L  R0125   
 L  R0126   
 L  R0127   
 L  R0128   
 L  R0129   
 L  R0130   
 L  R0131   
 L  R0132   
 L  R0133   
 L  R0134   
 L  R0135   
 L  R0136   
 L  R0137   
 L  R0138   
 L  R0139   
 L  R0140   
 L  R0141   
 L  R0142   
 L  R0143   
 L  R0144   
 L  R0145   
 L  R0146   
 L  R0147   
 L  R0148   
 L  R0149   
 L  R0150   
 L  R0151   
 L  R0152   
 L  R0153   
 L  R0154   
 L  R0155   
 L  R0156   
 L  R0157   
 L  R0158   
 L  R0159   
 L  R0160   
 L  R0161   
 L  R0162   
 L  R0163   
 L  R0164   
 L  R0165   
 L  R0166   
 L  R0167   
 L  R0168   
 L  R0169   
 L  R0170   
 L  R0171   
 L  R0172   
 L  R0173   
 L  R0174   
 L  R0175   
 L  R0176   
 L  R0177   
 L  R0178   
 L  R0179   
 L  R0180   
 L  R0181   
 L  R0182   
 L  R0183   
 L  R0184   
 L  R0185   
 L  R0186   
 L  R0187   
 L  R0188   
 L  R0189   
 L  R0190   
 L  R0191   
 L  R0192   
 L  R0193   
 L  R0194   
 L  R0195   
 L  R0196   
 L  R0197   
 L  R0198   
 L  R0199   
 L  R0200   
 L  R0201   
 L  R0202   
 L  R0203   
 L  R0204   
 L  R0205   
 L  R0206   
 L  R0207   
 L  R0208   
 L  R0209   
 L  R0210   
 L  R0211   
 L  R0212   
 L  R0213   
 L  R0214   
 L  R0215   
 L  R0216   
 L  R0217   
 L  R0218   
 L  R0219   
 L  R0220   
 L  R0221   
 L  R0222   
 L  R0223   
 L  R0224   
 L  R0225   
 L  R0226   
 L  R0227   
 L  R0228   
 L  R0229   
 L  R0230   
 L  R0231   
 L  R0232   
 L  R0233   
 L  R0234   
 L  R0235   
 L  R0236   
 L  R0237   
 L  R0238   
 L  R0239   
 L  R0240   
 L  R0241   
 L  R0242   
 L  R0243   
 L  R0244   
 L  R0245   
 L  R0246   
 L  R0247   
 L  R0248   
 L  R0249   
 L  R0250   
 L  R0251   
 L  R0252   
 L  R0253   
 L  R0254   
 L  R0255   
 L  R0256   
 L  R0257   
 L  R0258   
 L  R0259   
 L  R0260   
 L  R0261   
 L  R0262   
 L  R0263   
 L  R0264   
 L  R0265   
 L  R0266   
 L  R0267   
 L  R0268   
 L  R0269   
 L  R0270   
 L  R0271   
 L  R0272   
 L  R0273   
 L  R0274   
 L  R0275   
 L  R0276   
 L  R0277   
 L  R0278   
 L  R0279   
 L  R0280   
 L  R0281   
 L  R0282   
 L  R0283   
 L  R0284   
 L  R0285   
 L  R0286   
 L  R0287   
 L  R0288   
 L  R0289   
 L  R0290   
 L  R0291   
 L  R0292   
 L  R0293   
 L  R0294   
 L  R0295   
 L  R0296   
 L  R0297   
 L  R0298   
 L  R0299   
 L  R0300   
 L  R0301   
 L  R0302   
 L  R0303   
 L  R0304   
 L  R0305   
 L  R0306   
 L  R0307   
 L  R0308   
 L  R0309   
 L  R0310   
 L  R0311   
 L  R0312   
 L  R0313   
 L  R0314   
 L  R0315   
 L  R0316   
 L  R0317   
 L  R0318   
 L  R0319   
 L  R0320   
 L  R0321   
 L  R0322   
 L  R0323   
 L  R0324   
 L  R0325   
 L  R0326   
 L  R0327   
 L  R0328   
 L  R0329   
 L  R0330   
 L  R0331   
 L  R0332   
 L  R0333   
 L  R0334   
 L  R0335   
 L  R0336   
 L  R0337   
 L  R0338   
 L  R0339   
 L  R0340   
 L  R0341   
 L  R0342   
 L  R0343   
 L  R0344   
 L  R0345   
 L  R0346   
 L  R0347   
 L  R0348   
 L  R0349   
 L  R0350   
 L  R0407   
 L  R0408   
 L  R0409   
 L  R0410   
 L  R0411   
 L  R0412   
 L  R0413   
 L  R0414   
 L  R0419   
 L  R0420   
 L  R0421   
 L  R0422   
 L  R0423   
 L  R0424   
 L  R0425   
 L  R0426   
 L  R0433   
 L  R0434   
 L  R0435   
 L  R0436   
 L  R0437   
 L  R0438   
 L  R0439   
 L  R0440   
 L  R0441   
 L  R0442   
 L  R0443   
 L  R0444   
 L  R0445   
 L  R0446   
 L  R0447   
 L  R0448   
 L  R0449   
 L  R0450   
 L  R0451   
 L  R0452   
 L  R0453   
 L  R0454   
 L  R0455   
 L  R0456   
 L  R0457   
 L  R0458   
 L  R0459   
 L  R0460   
 L  R0461   
 L  R0462   
 L  R0463   
 L  R0464   
 L  R0465   
 L  R0466   
 L  R0467   
 L  R0468   
 L  R0469   
 L  R0470   
 L  R0471   
 L  R0472   
 L  R0473   
 L  R0474   
 L  R0475   
 L  R0476   
 L  R0477   
 L  R0478   
 L  R0479   
 L  R0480   
 L  R0481   
 L  R0482   
 L  R0483   
 L  R0484   
 L  R0485   
 L  R0486   
 L  R0487   
 L  R0488   
 L  R0489   
 L  R0490   
 L  R0491   
 L  R0492   
 L  R0493   
 L  R0494   
 L  R0495   
 L  R0496   
 L  R0497   
 L  R0498   
 L  R0499   
 L  R0500   
 L  R0501   
 L  R0502   
 L  R0559   
 L  R0560   
 L  R0561   
 L  R0562   
 L  R0563   
 L  R0564   
 L  R0565   
 L  R0566   
 L  R0567   
 L  R0568   
 L  R0569   
 L  R0570   
 L  R0571   
 L  R0572   
 L  R0573   
 L  R0574   
 L  R0575   
 L  R0576   
 L  R0577   
 L  R0578   
 L  R0579   
 L  R0580   
 L  R0581   
 L  R0582   
 L  R0583   
 L  R0584   
 L  R0585   
 L  R0586   
 L  R0587   
 L  R0588   
 L  R0589   
 L  R0590   
 L  R0591   
 L  R0592   
 L  R0593   
 L  R0594   
 L  R0595   
 L  R0596   
 L  R0597   
 L  R0598   
 L  R0599   
 L  R0600   
 L  R0601   
 L  R0602   
 L  R0603   
 L  R0604   
 L  R0605   
 L  R0606   
 L  R0607   
 L  R0608   
 L  R0609   
 L  R0610   
 L  R0611   
 L  R0612   
 L  R0613   
 L  R0614   
 L  R0629   
 L  R0630   
 L  R0631   
 L  R0632   
 L  R0633   
 L  R0634   
 L  R0635   
 L  R0636   
 L  R0637   
 L  R0638   
 L  R0639   
 L  R0640   
 L  R0641   
 L  R0642   
 L  R0643   
 L  R0644   
 L  R0645   
 L  R0646   
 L  R0647   
 L  R0648   
 L  R0649   
 L  R0650   
 L  R0651   
 L  R0652   
 L  R0653   
 L  R0654   
 L  R0655   
 L  R0656   
 L  R0657   
 L  R0658   
 L  R0659   
 L  R0660   
 L  R0661   
 L  R0662   
 L  R0663   
 L  R0664   
 L  R0665   
 L  R0666   
 L  R0667   
 L  R0668   
 L  R0669   
 L  R0670   
 L  R0671   
 L  R0672   
 L  R0673   
 L  R0674   
 L  R0675   
 L  R0676   
 L  R0677   
 L  R0678   
 L  R0679   
 L  R0680   
 L  R0681   
 L  R0682   
 L  R0683   
 L  R0684   
 L  R0685   
 L  R0686   
 L  R0687   
 L  R0688   
 L  R0689   
 L  R0690   
 L  R0691   
 L  R0692   
 L  R0693   
 L  R0694   
 L  R0695   
 L  R0696   
 L  R0697   
 L  R0698   
 L  R0699   
 L  R0700   
 L  R0701   
 L  R0702   
 L  R0703   
 L  R0704   
 L  R0705   
 L  R0706   
 L  R0707   
 L  R0708   
 L  R0709   
 L  R0710   
 L  R0711   
 L  R0712   
 L  R0713   
 L  R0714   
 L  R0715   
 L  R0716   
 L  R0717   
 L  R0718   
 L  R0719   
 L  R0720   
 L  R0721   
 L  R0722   
 L  R0723   
 L  R0724   
 L  R0725   
 L  R0726   
 L  R0741   
 L  R0742   
 L  R0743   
 L  R0744   
 L  R0745   
 L  R0746   
 L  R0747   
 L  R0748   
 L  R0749   
 L  R0750   
 L  R0751   
 L  R0752   
 L  R0753   
 L  R0754   
 L  R0755   
 L  R0756   
 L  R0757   
 L  R0758   
 L  R0759   
 L  R0760   
 L  R0761   
 L  R0762   
 L  R0763   
 L  R0764   
 L  R0765   
 L  R0766   
 L  R0767   
 L  R0768   
 L  R0811   
 L  R0812   
 L  R0813   
 L  R0814   
 L  R0815   
 L  R0816   
 L  R0817   
 L  R0818   
 L  R0819   
 L  R0820   
 L  R0821   
 L  R0822   
 L  R0823   
 L  R0824   
 L  R0825   
 L  R0826   
 L  R0827   
 L  R0828   
 L  R0829   
 L  R0830   
 L  R0831   
 L  R0832   
 L  R0833   
 L  R0834   
 L  R0835   
 L  R0836   
 L  R0837   
 L  R0838   
 L  R0839   
 L  R0840   
 L  R0841   
 L  R0842   
 L  R0843   
 L  R0844   
 L  R0845   
 L  R0846   
 L  R0847   
 L  R0848   
 L  R0849   
 L  R0850   
 L  R0851   
 L  R0852   
 L  R0853   
 L  R0854   
 L  R0855   
 L  R0856   
 L  R0857   
 L  R0858   
 L  R0859   
 L  R0860   
 L  R0861   
 L  R0862   
 L  R0863   
 L  R0864   
 L  R0865   
 L  R0866   
 L  R0867   
 L  R0868   
 L  R0869   
 L  R0870   
 L  R0871   
 L  R0872   
 L  R0873   
 L  R0874   
 L  R0875   
 L  R0876   
 L  R0877   
 L  R0878   
 L  R0879   
 L  R0880   
 L  R0881   
 L  R0882   
 L  R0883   
 L  R0884   
 L  R0885   
 L  R0886   
 L  R0887   
 L  R0888   
 L  R0889   
 L  R0890   
 L  R0891   
 L  R0892   
 L  R0893   
 L  R0894   
 L  R0895   
 L  R0896   
 L  R0897   
 L  R0898   
 L  R0899   
 L  R0900   
 L  R0901   
 L  R0902   
 L  R0903   
 L  R0904   
 L  R0905   
 L  R0906   
 L  R0907   
 L  R0908   
 L  R0909   
 L  R0910   
 L  R0911   
 L  R0912   
 L  R0913   
 L  R0914   
 L  R0915   
 L  R0916   
 L  R0917   
 L  R0918   
 L  R0919   
 L  R0920   
 L  R0921   
 L  R0922   
 L  R0979   
 L  R0980   
 L  R0981   
 L  R0982   
 L  R0983   
 L  R0984   
 L  R0985   
 L  R0986   
 L  R0987   
 L  R0988   
 L  R0989   
 L  R0990   
 L  R0991   
 L  R0992   
 L  R0993   
 L  R0994   
 L  R0995   
 L  R0996   
 L  R0997   
 L  R0998   
 L  R0999   
 L  R1000   
 L  R1001   
 L  R1002   
 L  R1003   
 L  R1004   
 L  R1005   
 L  R1006   
 L  R1007   
 L  R1008   
 L  R1009   
 L  R1010   
 L  R1011   
 L  R1012   
 L  R1013   
 L  R1014   
 L  R1015   
 L  R1016   
 L  R1017   
 L  R1018   
 L  R1019   
 L  R1020   
 L  R1021   
 L  R1022   
 L  R1023   
 L  R1024   
 L  R1025   
 L  R1026   
 L  R1027   
 L  R1028   
 L  R1029   
 L  R1030   
 L  R1031   
 L  R1032   
 L  R1033   
 L  R1034   
 L  R1035   
 L  R1036   
 L  R1037   
 L  R1038   
 L  R1039   
 L  R1040   
 L  R1041   
 L  R1042   
 L  R1043   
 L  R1044   
 L  R1045   
 L  R1046   
 L  R1047   
 L  R1048   
 L  R1049   
 L  R1050   
 L  R1051   
 L  R1052   
 L  R1053   
 L  R1054   
 L  R1055   
 L  R1056   
 L  R1057   
 L  R1058   
 L  R1059   
 L  R1060   
 L  R1061   
 L  R1062   
 L  R1063   
 L  R1064   
 L  R1065   
 L  R1066   
 L  R1067   
 L  R1068   
 L  R1069   
 L  R1070   
 L  R1071   
 L  R1072   
 L  R1073   
 L  R1074   
 L  R1075   
 L  R1076   
 L  R1077   
 L  R1078   
 L  R1079   
 L  R1080   
 L  R1081   
 L  R1082   
 L  R1083   
 L  R1084   
 L  R1085   
 L  R1086   
 L  R1087   
 L  R1088   
 L  R1089   
 L  R1090   
 L  R1175   
 L  R1176   
 L  R1177   
 L  R1178   
 L  R1179   
 L  R1180   
 L  R1181   
 L  R1182   
 L  R1183   
 L  R1184   
 L  R1185   
 L  R1186   
 L  R1187   
 L  R1188   
 L  R1189   
 L  R1190   
 L  R1191   
 L  R1192   
 L  R1193   
 L  R1194   
 L  R1195   
 L  R1196   
 L  R1197   
 L  R1198   
 L  R1199   
 L  R1200   
 L  R1201   
 L  R1202   
 L  R1203   
 L  R1204   
 L  R1205   
 L  R1206   
 L  R1207   
 L  R1208   
 L  R1209   
 L  R1210   
 L  R1211   
 L  R1212   
 L  R1213   
 L  R1214   
 L  R1215   
 L  R1216   
 L  R1217   
 L  R1218   
 L  R1219   
 L  R1220   
 L  R1221   
 L  R1222   
 L  R1223   
 L  R1224   
 L  R1225   
 L  R1226   
 L  R1227   
 L  R1228   
 L  R1229   
 L  R1230   
 L  R1231   
 L  R1232   
 L  R1233   
 L  R1234   
 L  R1235   
 L  R1236   
 L  R1237   
 L  R1238   
 L  R1239   
 L  R1240   
 L  R1241   
 L  R1242   
 L  R1243   
 L  R1244   
 L  R1245   
 L  R1246   
 L  R1247   
 L  R1248   
 L  R1249   
 L  R1250   
 L  R1251   
 L  R1252   
 L  R1253   
 L  R1254   
 L  R1255   
 L  R1256   
 L  R1257   
 L  R1258   
 L  R1259   
 L  R1260   
 L  R1261   
 L  R1262   
 L  R1263   
 L  R1264   
 L  R1265   
 L  R1266   
 L  R1267   
 L  R1268   
 L  R1269   
 L  R1270   
 L  R1271   
 L  R1272   
 L  R1273   
 L  R1274   
 L  R1275   
 L  R1276   
 L  R1277   
 L  R1278   
 L  R1279   
 L  R1280   
 L  R1281   
 L  R1282   
 L  R1283   
 L  R1284   
 L  R1285   
 L  R1286   
 L  R1343   
 L  R1344   
 L  R1345   
 L  R1346   
 L  R1347   
 L  R1348   
 L  R1349   
 L  R1350   
 L  R1351   
 L  R1352   
 L  R1353   
 L  R1354   
 L  R1355   
 L  R1356   
 L  R1357   
 L  R1358   
 L  R1359   
 L  R1360   
 L  R1361   
 L  R1362   
 L  R1363   
 L  R1364   
 L  R1365   
 L  R1366   
 L  R1367   
 L  R1368   
 L  R1369   
 L  R1370   
 L  R1371   
 L  R1372   
 L  R1373   
 L  R1374   
 L  R1375   
 L  R1376   
 L  R1377   
 L  R1378   
 L  R1379   
 L  R1380   
 L  R1381   
 L  R1382   
 L  R1383   
 L  R1384   
 L  R1413   
 L  R1414   
 L  R1415   
 L  R1416   
 L  R1417   
 L  R1418   
 L  R1419   
 L  R1420   
 L  R1421   
 L  R1422   
 L  R1423   
 L  R1424   
 L  R1425   
 L  R1426   
 L  R1441   
 L  R1442   
 L  R1443   
 L  R1444   
 L  R1445   
 L  R1446   
 L  R1447   
 L  R1448   
 L  R1449   
 L  R1450   
 L  R1451   
 L  R1452   
 L  R1453   
 L  R1454   
COLUMNS
    C0001     OBJ       -1
    C0001     R0001     1
    C0001     R0015     1
    C0001     R0029     1
    C0001     R0043     1
    C0001     R0407     1
    C0001     R0811     1
    C0001     R1175     1
    C0001     R1189     1
    C0001     R1231     1
    C0001     R1245     1
    C0001     R1259     1
    C0001     R1273     1
    C0001     R1343     1
    C0001     R1413     1
    C0002     OBJ       -1
    C0002     R0002     1
    C0002     R0016     1
    C0002     R0030     1
    C0002     R0044     1
    C0002     R0407     1
    C0002     R0812     1
    C0002     R1176     1
    C0002     R1190     1
    C0002     R1232     1
    C0002     R1246     1
    C0002     R1260     1
    C0002     R1274     1
    C0002     R1344     1
    C0002     R1414     1
    C0003     OBJ       -1
    C0003     R0003     1
    C0003     R0017     1
    C0003     R0031     1
    C0003     R0045     1
    C0003     R0407     1
    C0003     R0813     1
    C0003     R1177     1
    C0003     R1191     1
    C0003     R1233     1
    C0003     R1247     1
    C0003     R1261     1
    C0003     R1275     1
    C0003     R1345     1
    C0003     R1415     1
    C0004     OBJ       -1
    C0004     R0004     1
    C0004     R0018     1
    C0004     R0032     1
    C0004     R0046     1
    C0004     R0407     1
    C0004     R0814     1
    C0004     R1178     1
    C0004     R1192     1
    C0004     R1234     1
    C0004     R1248     1
    C0004     R1262     1
    C0004     R1276     1
    C0004     R1346     1
    C0004     R1416     1
    C0005     OBJ       -1
    C0005     R0005     1
    C0005     R0019     1
    C0005     R0033     1
    C0005     R0047     1
    C0005     R0407     1
    C0005     R0815     1
    C0005     R1179     1
    C0005     R1193     1
    C0005     R1235     1
    C0005     R1249     1
    C0005     R1263     1
    C0005     R1277     1
    C0005     R1347     1
    C0005     R1417     1
    C0006     OBJ       -1
    C0006     R0006     1
    C0006     R0020     1
    C0006     R0034     1
    C0006     R0048     1
    C0006     R0407     1
    C0006     R0816     1
    C0006     R1180     1
    C0006     R1194     1
    C0006     R1236     1
    C0006     R1250     1
    C0006     R1264     1
    C0006     R1278     1
    C0006     R1348     1
    C0006     R1418     1
    C0007     OBJ       -1
    C0007     R0007     1
    C0007     R0021     1
    C0007     R0035     1
    C0007     R0049     1
    C0007     R0407     1
    C0007     R0817     1
    C0007     R1181     1
    C0007     R1195     1
    C0007     R1237     1
    C0007     R1251     1
    C0007     R1265     1
    C0007     R1279     1
    C0007     R1349     1
    C0007     R1419     1
    C0008     OBJ       -1
    C0008     R0008     1
    C0008     R0022     1
    C0008     R0036     1
    C0008     R0050     1
    C0008     R0407     1
    C0008     R0818     1
    C0008     R1182     1
    C0008     R1196     1
    C0008     R1238     1
    C0008     R1252     1
    C0008     R1266     1
    C0008     R1280     1
    C0008     R1350     1
    C0008     R1420     1
    C0009     OBJ       -1
    C0009     R0009     1
    C0009     R0023     1
    C0009     R0037     1
    C0009     R0051     1
    C0009     R0407     1
    C0009     R0819     1
    C0009     R1183     1
    C0009     R1197     1
    C0009     R1239     1
    C0009     R1253     1
    C0009     R1267     1
    C0009     R1281     1
    C0009     R1351     1
    C0009     R1421     1
    C0010     OBJ       -1
    C0010     R0010     1
    C0010     R0024     1
    C0010     R0038     1
    C0010     R0052     1
    C0010     R0407     1
    C0010     R0820     1
    C0010     R1184     1
    C0010     R1198     1
    C0010     R1240     1
    C0010     R1254     1
    C0010     R1268     1
    C0010     R1282     1
    C0010     R1352     1
    C0010     R1422     1
    C0011     OBJ       -1
    C0011     R0011     1
    C0011     R0025     1
    C0011     R0039     1
    C0011     R0053     1
    C0011     R0407     1
    C0011     R0821     1
    C0011     R1185     1
    C0011     R1199     1
    C0011     R1241     1
    C0011     R1255     1
    C0011     R1269     1
    C0011     R1283     1
    C0011     R1353     1
    C0011     R1423     1
    C0012     OBJ       -1
    C0012     R0012     1
    C0012     R0026     1
    C0012     R0040     1
    C0012     R0054     1
    C0012     R0407     1
    C0012     R0822     1
    C0012     R1186     1
    C0012     R1200     1
    C0012     R1242     1
    C0012     R1256     1
    C0012     R1270     1
    C0012     R1284     1
    C0012     R1354     1
    C0012     R1424     1
    C0013     OBJ       -1
    C0013     R0013     1
    C0013     R0027     1
    C0013     R0041     1
    C0013     R0055     1
    C0013     R0407     1
    C0013     R0823     1
    C0013     R1187     1
    C0013     R1201     1
    C0013     R1243     1
    C0013     R1257     1
    C0013     R1271     1
    C0013     R1285     1
    C0013     R1355     1
    C0013     R1425     1
    C0014     OBJ       -1
    C0014     R0014     1
    C0014     R0028     1
    C0014     R0042     1
    C0014     R0056     1
    C0014     R0407     1
    C0014     R0824     1
    C0014     R1188     1
    C0014     R1202     1
    C0014     R1244     1
    C0014     R1258     1
    C0014     R1272     1
    C0014     R1286     1
    C0014     R1356     1
    C0014     R1426     1
    C0015     OBJ       -1
    C0015     R0001     1
    C0015     R0015     1
    C0015     R0029     1
    C0015     R0043     1
    C0015     R0057     1
    C0015     R0071     1
    C0015     R0085     1
    C0015     R0099     1
    C0015     R0113     1
    C0015     R0127     1
    C0015     R0141     1
    C0015     R0155     1
    C0015     R0169     1
    C0015     R0183     1
    C0015     R0197     1
    C0015     R0211     1
    C0015     R0225     1
    C0015     R0239     1
    C0015     R0267     1
    C0015     R0281     1
    C0015     R0309     1
    C0015     R0323     1
    C0015     R0408     1
    C0015     R0825     1
    C0015     R1189     1
    C0015     R1203     1
    C0015     R1245     1
    C0015     R1343     1
    C0016     OBJ       -1
    C0016     R0002     1
    C0016     R0016     1
    C0016     R0030     1
    C0016     R0044     1
    C0016     R0058     1
    C0016     R0072     1
    C0016     R0086     1
    C0016     R0100     1
    C0016     R0114     1
    C0016     R0128     1
    C0016     R0142     1
    C0016     R0156     1
    C0016     R0170     1
    C0016     R0184     1
    C0016     R0198     1
    C0016     R0212     1
    C0016     R0226     1
    C0016     R0240     1
    C0016     R0268     1
    C0016     R0282     1
    C0016     R0310     1
    C0016     R0324     1
    C0016     R0408     1
    C0016     R0826     1
    C0016     R1190     1
    C0016     R1204     1
    C0016     R1246     1
    C0016     R1344     1
    C0017     OBJ       -1
    C0017     R0003     1
    C0017     R0017     1
    C0017     R0031     1
    C0017     R0045     1
    C0017     R0059     1
    C0017     R0073     1
    C0017     R0087     1
    C0017     R0101     1
    C0017     R0115     1
    C0017     R0129     1
    C0017     R0143     1
    C0017     R0157     1
    C0017     R0171     1
    C0017     R0185     1
    C0017     R0199     1
    C0017     R0213     1
    C0017     R0227     1
    C0017     R0241     1
    C0017     R0269     1
    C0017     R0283     1
    C0017     R0311     1
    C0017     R0325     1
    C0017     R0408     1
    C0017     R0827     1
    C0017     R1191     1
    C0017     R1205     1
    C0017     R1247     1
    C0017     R1345     1
    C0018     OBJ       -1
    C0018     R0004     1
    C0018     R0018     1
    C0018     R0032     1
    C0018     R0046     1
    C0018     R0060     1
    C0018     R0074     1
    C0018     R0088     1
    C0018     R0102     1
    C0018     R0116     1
    C0018     R0130     1
    C0018     R0144     1
    C0018     R0158     1
    C0018     R0172     1
    C0018     R0186     1
    C0018     R0200     1
    C0018     R0214     1
    C0018     R0228     1
    C0018     R0242     1
    C0018     R0270     1
    C0018     R0284     1
    C0018     R0312     1
    C0018     R0326     1
    C0018     R0408     1
    C0018     R0828     1
    C0018     R1192     1
    C0018     R1206     1
    C0018     R1248     1
    C0018     R1346     1
    C0019     OBJ       -1
    C0019     R0005     1
    C0019     R0019     1
    C0019     R0033     1
    C0019     R0047     1
    C0019     R0061     1
    C0019     R0075     1
    C0019     R0089     1
    C0019     R0103     1
    C0019     R0117     1
    C0019     R0131     1
    C0019     R0145     1
    C0019     R0159     1
    C0019     R0173     1
    C0019     R0187     1
    C0019     R0201     1
    C0019     R0215     1
    C0019     R0229     1
    C0019     R0243     1
    C0019     R0271     1
    C0019     R0285     1
    C0019     R0313     1
    C0019     R0327     1
    C0019     R0408     1
    C0019     R0829     1
    C0019     R1193     1
    C0019     R1207     1
    C0019     R1249     1
    C0019     R1347     1
    C0020     OBJ       -1
    C0020     R0006     1
    C0020     R0020     1
    C0020     R0034     1
    C0020     R0048     1
    C0020     R0062     1
    C0020     R0076     1
    C0020     R0090     1
    C0020     R0104     1
    C0020     R0118     1
    C0020     R0132     1
    C0020     R0146     1
    C0020     R0160     1
    C0020     R0174     1
    C0020     R0188     1
    C0020     R0202     1
    C0020     R0216     1
    C0020     R0230     1
    C0020     R0244     1
    C0020     R0272     1
    C0020     R0286     1
    C0020     R0314     1
    C0020     R0328     1
    C0020     R0408     1
    C0020     R0830     1
    C0020     R1194     1
    C0020     R1208     1
    C0020     R1250     1
    C0020     R1348     1
    C0021     OBJ       -1
    C0021     R0007     1
    C0021     R0021     1
    C0021     R0035     1
    C0021     R0049     1
    C0021     R0063     1
    C0021     R0077     1
    C0021     R0091     1
    C0021     R0105     1
    C0021     R0119     1
    C0021     R0133     1
    C0021     R0147     1
    C0021     R0161     1
    C0021     R0175     1
    C0021     R0189     1
    C0021     R0203     1
    C0021     R0217     1
    C0021     R0231     1
    C0021     R0245     1
    C0021     R0273     1
    C0021     R0287     1
    C0021     R0315     1
    C0021     R0329     1
    C0021     R0408     1
    C0021     R0831     1
    C0021     R1195     1
    C0021     R1209     1
    C0021     R1251     1
    C0021     R1349     1
    C0022     OBJ       -1
    C0022     R0008     1
    C0022     R0022     1
    C0022     R0036     1
    C0022     R0050     1
    C0022     R0064     1
    C0022     R0078     1
    C0022     R0092     1
    C0022     R0106     1
    C0022     R0120     1
    C0022     R0134     1
    C0022     R0148     1
    C0022     R0162     1
    C0022     R0176     1
    C0022     R0190     1
    C0022     R0204     1
    C0022     R0218     1
    C0022     R0232     1
    C0022     R0246     1
    C0022     R0274     1
    C0022     R0288     1
    C0022     R0316     1
    C0022     R0330     1
    C0022     R0408     1
    C0022     R0832     1
    C0022     R1196     1
    C0022     R1210     1
    C0022     R1252     1
    C0022     R1350     1
    C0023     OBJ       -1
    C0023     R0009     1
    C0023     R0023     1
    C0023     R0037     1
    C0023     R0051     1
    C0023     R0065     1
    C0023     R0079     1
    C0023     R0093     1
    C0023     R0107     1
    C0023     R0121     1
    C0023     R0135     1
    C0023     R0149     1
    C0023     R0163     1
    C0023     R0177     1
    C0023     R0191     1
    C0023     R0205     1
    C0023     R0219     1
    C0023     R0233     1
    C0023     R0247     1
    C0023     R0275     1
    C0023     R0289     1
    C0023     R0317     1
    C0023     R0331     1
    C0023     R0408     1
    C0023     R0833     1
    C0023     R1197     1
    C0023     R1211     1
    C0023     R1253     1
    C0023     R1351     1
    C0024     OBJ       -1
    C0024     R0010     1
    C0024     R0024     1
    C0024     R0038     1
    C0024     R0052     1
    C0024     R0066     1
    C0024     R0080     1
    C0024     R0094     1
    C0024     R0108     1
    C0024     R0122     1
    C0024     R0136     1
    C0024     R0150     1
    C0024     R0164     1
    C0024     R0178     1
    C0024     R0192     1
    C0024     R0206     1
    C0024     R0220     1
    C0024     R0234     1
    C0024     R0248     1
    C0024     R0276     1
    C0024     R0290     1
    C0024     R0318     1
    C0024     R0332     1
    C0024     R0408     1
    C0024     R0834     1
    C0024     R1198     1
    C0024     R1212     1
    C0024     R1254     1
    C0024     R1352     1
    C0025     OBJ       -1
    C0025     R0011     1
    C0025     R0025     1
    C0025     R0039     1
    C0025     R0053     1
    C0025     R0067     1
    C0025     R0081     1
    C0025     R0095     1
    C0025     R0109     1
    C0025     R0123     1
    C0025     R0137     1
    C0025     R0151     1
    C0025     R0165     1
    C0025     R0179     1
    C0025     R0193     1
    C0025     R0207     1
    C0025     R0221     1
    C0025     R0235     1
    C0025     R0249     1
    C0025     R0277     1
    C0025     R0291     1
    C0025     R0319     1
    C0025     R0333     1
    C0025     R0408     1
    C0025     R0835     1
    C0025     R1199     1
    C0025     R1213     1
    C0025     R1255     1
    C0025     R1353     1
    C0026     OBJ       -1
    C0026     R0012     1
    C0026     R0026     1
    C0026     R0040     1
    C0026     R0054     1
    C0026     R0068     1
    C0026     R0082     1
    C0026     R0096     1
    C0026     R0110     1
    C0026     R0124     1
    C0026     R0138     1
    C0026     R0152     1
    C0026     R0166     1
    C0026     R0180     1
    C0026     R0194     1
    C0026     R0208     1
    C0026     R0222     1
    C0026     R0236     1
    C0026     R0250     1
    C0026     R0278     1
    C0026     R0292     1
    C0026     R0320     1
    C0026     R0334     1
    C0026     R0408     1
    C0026     R0836     1
    C0026     R1200     1
    C0026     R1214     1
    C0026     R1256     1
    C0026     R1354     1
    C0027     OBJ       -1
    C0027     R0013     1
    C0027     R0027     1
    C0027     R0041     1
    C0027     R0055     1
    C0027     R0069     1
    C0027     R0083     1
    C0027     R0097     1
    C0027     R0111     1
    C0027     R0125     1
    C0027     R0139     1
    C0027     R0153     1
    C0027     R0167     1
    C0027     R0181     1
    C0027     R0195     1
    C0027     R0209     1
    C0027     R0223     1
    C0027     R0237     1
    C0027     R0251     1
    C0027     R0279     1
    C0027     R0293     1
    C0027     R0321     1
    C0027     R0335     1
    C0027     R0408     1
    C0027     R0837     1
    C0027     R1201     1
    C0027     R1215     1
    C0027     R1257     1
    C0027     R1355     1
    C0028     OBJ       -1
    C0028     R0014     1
    C0028     R0028     1
    C0028     R0042     1
    C0028     R0056     1
    C0028     R0070     1
    C0028     R0084     1
    C0028     R0098     1
    C0028     R0112     1
    C0028     R0126     1
    C0028     R0140     1
    C0028     R0154     1
    C0028     R0168     1
    C0028     R0182     1
    C0028     R0196     1
    C0028     R0210     1
    C0028     R0224     1
    C0028     R0238     1
    C0028     R0252     1
    C0028     R0280     1
    C0028     R0294     1
    C0028     R0322     1
    C0028     R0336     1
    C0028     R0408     1
    C0028     R0838     1
    C0028     R1202     1
    C0028     R1216     1
    C0028     R1258     1
    C0028     R1356     1
    C0029     OBJ       -1
    C0029     R0057     1
    C0029     R0071     1
    C0029     R0085     1
    C0029     R0099     1
    C0029     R0113     1
    C0029     R0127     1
    C0029     R0141     1
    C0029     R0155     1
    C0029     R0409     1
    C0029     R0839     1
    C0029     R1189     1
    C0029     R1203     1
    C0029     R1231     1
    C0029     R1245     1
    C0029     R1259     1
    C0029     R1273     1
    C0029     R1343     1
    C0029     R1413     1
    C0030     OBJ       -1
    C0030     R0058     1
    C0030     R0072     1
    C0030     R0086     1
    C0030     R0100     1
    C0030     R0114     1
    C0030     R0128     1
    C0030     R0142     1
    C0030     R0156     1
    C0030     R0409     1
    C0030     R0840     1
    C0030     R1190     1
    C0030     R1204     1
    C0030     R1232     1
    C0030     R1246     1
    C0030     R1260     1
    C0030     R1274     1
    C0030     R1344     1
    C0030     R1414     1
    C0031     OBJ       -1
    C0031     R0059     1
    C0031     R0073     1
    C0031     R0087     1
    C0031     R0101     1
    C0031     R0115     1
    C0031     R0129     1
    C0031     R0143     1
    C0031     R0157     1
    C0031     R0409     1
    C0031     R0841     1
    C0031     R1191     1
    C0031     R1205     1
    C0031     R1233     1
    C0031     R1247     1
    C0031     R1261     1
    C0031     R1275     1
    C0031     R1345     1
    C0031     R1415     1
    C0032     OBJ       -1
    C0032     R0060     1
    C0032     R0074     1
    C0032     R0088     1
    C0032     R0102     1
    C0032     R0116     1
    C0032     R0130     1
    C0032     R0144     1
    C0032     R0158     1
    C0032     R0409     1
    C0032     R0842     1
    C0032     R1192     1
    C0032     R1206     1
    C0032     R1234     1
    C0032     R1248     1
    C0032     R1262     1
    C0032     R1276     1
    C0032     R1346     1
    C0032     R1416     1
    C0033     OBJ       -1
    C0033     R0061     1
    C0033     R0075     1
    C0033     R0089     1
    C0033     R0103     1
    C0033     R0117     1
    C0033     R0131     1
    C0033     R0145     1
    C0033     R0159     1
    C0033     R0409     1
    C0033     R0843     1
    C0033     R1193     1
    C0033     R1207     1
    C0033     R1235     1
    C0033     R1249     1
    C0033     R1263     1
    C0033     R1277     1
    C0033     R1347     1
    C0033     R1417     1
    C0034     OBJ       -1
    C0034     R0062     1
    C0034     R0076     1
    C0034     R0090     1
    C0034     R0104     1
    C0034     R0118     1
    C0034     R0132     1
    C0034     R0146     1
    C0034     R0160     1
    C0034     R0409     1
    C0034     R0844     1
    C0034     R1194     1
    C0034     R1208     1
    C0034     R1236     1
    C0034     R1250     1
    C0034     R1264     1
    C0034     R1278     1
    C0034     R1348     1
    C0034     R1418     1
    C0035     OBJ       -1
    C0035     R0063     1
    C0035     R0077     1
    C0035     R0091     1
    C0035     R0105     1
    C0035     R0119     1
    C0035     R0133     1
    C0035     R0147     1
    C0035     R0161     1
    C0035     R0409     1
    C0035     R0845     1
    C0035     R1195     1
    C0035     R1209     1
    C0035     R1237     1
    C0035     R1251     1
    C0035     R1265     1
    C0035     R1279     1
    C0035     R1349     1
    C0035     R1419     1
    C0036     OBJ       -1
    C0036     R0064     1
    C0036     R0078     1
    C0036     R0092     1
    C0036     R0106     1
    C0036     R0120     1
    C0036     R0134     1
    C0036     R0148     1
    C0036     R0162     1
    C0036     R0409     1
    C0036     R0846     1
    C0036     R1196     1
    C0036     R1210     1
    C0036     R1238     1
    C0036     R1252     1
    C0036     R1266     1
    C0036     R1280     1
    C0036     R1350     1
    C0036     R1420     1
    C0037     OBJ       -1
    C0037     R0065     1
    C0037     R0079     1
    C0037     R0093     1
    C0037     R0107     1
    C0037     R0121     1
    C0037     R0135     1
    C0037     R0149     1
    C0037     R0163     1
    C0037     R0409     1
    C0037     R0847     1
    C0037     R1197     1
    C0037     R1211     1
    C0037     R1239     1
    C0037     R1253     1
    C0037     R1267     1
    C0037     R1281     1
    C0037     R1351     1
    C0037     R1421     1
    C0038     OBJ       -1
    C0038     R0066     1
    C0038     R0080     1
    C0038     R0094     1
    C0038     R0108     1
    C0038     R0122     1
    C0038     R0136     1
    C0038     R0150     1
    C0038     R0164     1
    C0038     R0409     1
    C0038     R0848     1
    C0038     R1198     1
    C0038     R1212     1
    C0038     R1240     1
    C0038     R1254     1
    C0038     R1268     1
    C0038     R1282     1
    C0038     R1352     1
    C0038     R1422     1
    C0039     OBJ       -1
    C0039     R0067     1
    C0039     R0081     1
    C0039     R0095     1
    C0039     R0109     1
    C0039     R0123     1
    C0039     R0137     1
    C0039     R0151     1
    C0039     R0165     1
    C0039     R0409     1
    C0039     R0849     1
    C0039     R1199     1
    C0039     R1213     1
    C0039     R1241     1
    C0039     R1255     1
    C0039     R1269     1
    C0039     R1283     1
    C0039     R1353     1
    C0039     R1423     1
    C0040     OBJ       -1
    C0040     R0068     1
    C0040     R0082     1
    C0040     R0096     1
    C0040     R0110     1
    C0040     R0124     1
    C0040     R0138     1
    C0040     R0152     1
    C0040     R0166     1
    C0040     R0409     1
    C0040     R0850     1
    C0040     R1200     1
    C0040     R1214     1
    C0040     R1242     1
    C0040     R1256     1
    C0040     R1270     1
    C0040     R1284     1
    C0040     R1354     1
    C0040     R1424     1
    C0041     OBJ       -1
    C0041     R0069     1
    C0041     R0083     1
    C0041     R0097     1
    C0041     R0111     1
    C0041     R0125     1
    C0041     R0139     1
    C0041     R0153     1
    C0041     R0167     1
    C0041     R0409     1
    C0041     R0851     1
    C0041     R1201     1
    C0041     R1215     1
    C0041     R1243     1
    C0041     R1257     1
    C0041     R1271     1
    C0041     R1285     1
    C0041     R1355     1
    C0041     R1425     1
    C0042     OBJ       -1
    C0042     R0070     1
    C0042     R0084     1
    C0042     R0098     1
    C0042     R0112     1
    C0042     R0126     1
    C0042     R0140     1
    C0042     R0154     1
    C0042     R0168     1
    C0042     R0409     1
    C0042     R0852     1
    C0042     R1202     1
    C0042     R1216     1
    C0042     R1244     1
    C0042     R1258     1
    C0042     R1272     1
    C0042     R1286     1
    C0042     R1356     1
    C0042     R1426     1
    C0043     OBJ       -1
    C0043     R0169     1
    C0043     R0183     1
    C0043     R0197     1
    C0043     R0211     1
    C0043     R0225     1
    C0043     R0239     1
    C0043     R0267     1
    C0043     R0309     1
    C0043     R0410     1
    C0043     R0853     1
    C0043     R1189     1
    C0043     R1217     1
    C0043     R1231     1
    C0043     R1245     1
    C0043     R1273     1
    C0043     R1343     1
    C0044     OBJ       -1
    C0044     R0170     1
    C0044     R0184     1
    C0044     R0198     1
    C0044     R0212     1
    C0044     R0226     1
    C0044     R0240     1
    C0044     R0268     1
    C0044     R0310     1
    C0044     R0410     1
    C0044     R0854     1
    C0044     R1190     1
    C0044     R1218     1
    C0044     R1232     1
    C0044     R1246     1
    C0044     R1274     1
    C0044     R1344     1
    C0045     OBJ       -1
    C0045     R0171     1
    C0045     R0185     1
    C0045     R0199     1
    C0045     R0213     1
    C0045     R0227     1
    C0045     R0241     1
    C0045     R0269     1
    C0045     R0311     1
    C0045     R0410     1
    C0045     R0855     1
    C0045     R1191     1
    C0045     R1219     1
    C0045     R1233     1
    C0045     R1247     1
    C0045     R1275     1
    C0045     R1345     1
    C0046     OBJ       -1
    C0046     R0172     1
    C0046     R0186     1
    C0046     R0200     1
    C0046     R0214     1
    C0046     R0228     1
    C0046     R0242     1
    C0046     R0270     1
    C0046     R0312     1
    C0046     R0410     1
    C0046     R0856     1
    C0046     R1192     1
    C0046     R1220     1
    C0046     R1234     1
    C0046     R1248     1
    C0046     R1276     1
    C0046     R1346     1
    C0047     OBJ       -1
    C0047     R0173     1
    C0047     R0187     1
    C0047     R0201     1
    C0047     R0215     1
    C0047     R0229     1
    C0047     R0243     1
    C0047     R0271     1
    C0047     R0313     1
    C0047     R0410     1
    C0047     R0857     1
    C0047     R1193     1
    C0047     R1221     1
    C0047     R1235     1
    C0047     R1249     1
    C0047     R1277     1
    C0047     R1347     1
    C0048     OBJ       -1
    C0048     R0174     1
    C0048     R0188     1
    C0048     R0202     1
    C0048     R0216     1
    C0048     R0230     1
    C0048     R0244     1
    C0048     R0272     1
    C0048     R0314     1
    C0048     R0410     1
    C0048     R0858     1
    C0048     R1194     1
    C0048     R1222     1
    C0048     R1236     1
    C0048     R1250     1
    C0048     R1278     1
    C0048     R1348     1
    C0049     OBJ       -1
    C0049     R0175     1
    C0049     R0189     1
    C0049     R0203     1
    C0049     R0217     1
    C0049     R0231     1
    C0049     R0245     1
    C0049     R0273     1
    C0049     R0315     1
    C0049     R0410     1
    C0049     R0859     1
    C0049     R1195     1
    C0049     R1223     1
    C0049     R1237     1
    C0049     R1251     1
    C0049     R1279     1
    C0049     R1349     1
    C0050     OBJ       -1
    C0050     R0176     1
    C0050     R0190     1
    C0050     R0204     1
    C0050     R0218     1
    C0050     R0232     1
    C0050     R0246     1
    C0050     R0274     1
    C0050     R0316     1
    C0050     R0410     1
    C0050     R0860     1
    C0050     R1196     1
    C0050     R1224     1
    C0050     R1238     1
    C0050     R1252     1
    C0050     R1280     1
    C0050     R1350     1
    C0051     OBJ       -1
    C0051     R0177     1
    C0051     R0191     1
    C0051     R0205     1
    C0051     R0219     1
    C0051     R0233     1
    C0051     R0247     1
    C0051     R0275     1
    C0051     R0317     1
    C0051     R0410     1
    C0051     R0861     1
    C0051     R1197     1
    C0051     R1225     1
    C0051     R1239     1
    C0051     R1253     1
    C0051     R1281     1
    C0051     R1351     1
    C0052     OBJ       -1
    C0052     R0178     1
    C0052     R0192     1
    C0052     R0206     1
    C0052     R0220     1
    C0052     R0234     1
    C0052     R0248     1
    C0052     R0276     1
    C0052     R0318     1
    C0052     R0410     1
    C0052     R0862     1
    C0052     R1198     1
    C0052     R1226     1
    C0052     R1240     1
    C0052     R1254     1
    C0052     R1282     1
    C0052     R1352     1
    C0053     OBJ       -1
    C0053     R0179     1
    C0053     R0193     1
    C0053     R0207     1
    C0053     R0221     1
    C0053     R0235     1
    C0053     R0249     1
    C0053     R0277     1
    C0053     R0319     1
    C0053     R0410     1
    C0053     R0863     1
    C0053     R1199     1
    C0053     R1227     1
    C0053     R1241     1
    C0053     R1255     1
    C0053     R1283     1
    C0053     R1353     1
    C0054     OBJ       -1
    C0054     R0180     1
    C0054     R0194     1
    C0054     R0208     1
    C0054     R0222     1
    C0054     R0236     1
    C0054     R0250     1
    C0054     R0278     1
    C0054     R0320     1
    C0054     R0410     1
    C0054     R0864     1
    C0054     R1200     1
    C0054     R1228     1
    C0054     R1242     1
    C0054     R1256     1
    C0054     R1284     1
    C0054     R1354     1
    C0055     OBJ       -1
    C0055     R0181     1
    C0055     R0195     1
    C0055     R0209     1
    C0055     R0223     1
    C0055     R0237     1
    C0055     R0251     1
    C0055     R0279     1
    C0055     R0321     1
    C0055     R0410     1
    C0055     R0865     1
    C0055     R1201     1
    C0055     R1229     1
    C0055     R1243     1
    C0055     R1257     1
    C0055     R1285     1
    C0055     R1355     1
    C0056     OBJ       -1
    C0056     R0182     1
    C0056     R0196     1
    C0056     R0210     1
    C0056     R0224     1
    C0056     R0238     1
    C0056     R0252     1
    C0056     R0280     1
    C0056     R0322     1
    C0056     R0410     1
    C0056     R0866     1
    C0056     R1202     1
    C0056     R1230     1
    C0056     R1244     1
    C0056     R1258     1
    C0056     R1286     1
    C0056     R1356     1
    C0057     OBJ       -1
    C0057     R0001     1
    C0057     R0015     1
    C0057     R0057     1
    C0057     R0071     1
    C0057     R0169     1
    C0057     R0183     1
    C0057     R0411     1
    C0057     R0867     1
    C0057     R1175     1
    C0057     R1189     1
    C0057     R1217     1
    C0057     R1231     1
    C0057     R1259     1
    C0057     R1273     1
    C0057     R1343     1
    C0057     R1357     1
    C0057     R1371     1
    C0057     R1413     1
    C0058     OBJ       -1
    C0058     R0002     1
    C0058     R0016     1
    C0058     R0058     1
    C0058     R0072     1
    C0058     R0170     1
    C0058     R0184     1
    C0058     R0411     1
    C0058     R0868     1
    C0058     R1176     1
    C0058     R1190     1
    C0058     R1218     1
    C0058     R1232     1
    C0058     R1260     1
    C0058     R1274     1
    C0058     R1344     1
    C0058     R1358     1
    C0058     R1372     1
    C0058     R1414     1
    C0059     OBJ       -1
    C0059     R0003     1
    C0059     R0017     1
    C0059     R0059     1
    C0059     R0073     1
    C0059     R0171     1
    C0059     R0185     1
    C0059     R0411     1
    C0059     R0869     1
    C0059     R1177     1
    C0059     R1191     1
    C0059     R1219     1
    C0059     R1233     1
    C0059     R1261     1
    C0059     R1275     1
    C0059     R1345     1
    C0059     R1359     1
    C0059     R1373     1
    C0059     R1415     1
    C0060     OBJ       -1
    C0060     R0004     1
    C0060     R0018     1
    C0060     R0060     1
    C0060     R0074     1
    C0060     R0172     1
    C0060     R0186     1
    C0060     R0411     1
    C0060     R0870     1
    C0060     R1178     1
    C0060     R1192     1
    C0060     R1220     1
    C0060     R1234     1
    C0060     R1262     1
    C0060     R1276     1
    C0060     R1346     1
    C0060     R1360     1
    C0060     R1374     1
    C0060     R1416     1
    C0061     OBJ       -1
    C0061     R0005     1
    C0061     R0019     1
    C0061     R0061     1
    C0061     R0075     1
    C0061     R0173     1
    C0061     R0187     1
    C0061     R0411     1
    C0061     R0871     1
    C0061     R1179     1
    C0061     R1193     1
    C0061     R1221     1
    C0061     R1235     1
    C0061     R1263     1
    C0061     R1277     1
    C0061     R1347     1
    C0061     R1361     1
    C0061     R1375     1
    C0061     R1417     1
    C0062     OBJ       -1
    C0062     R0006     1
    C0062     R0020     1
    C0062     R0062     1
    C0062     R0076     1
    C0062     R0174     1
    C0062     R0188     1
    C0062     R0411     1
    C0062     R0872     1
    C0062     R1180     1
    C0062     R1194     1
    C0062     R1222     1
    C0062     R1236     1
    C0062     R1264     1
    C0062     R1278     1
    C0062     R1348     1
    C0062     R1362     1
    C0062     R1376     1
    C0062     R1418     1
    C0063     OBJ       -1
    C0063     R0007     1
    C0063     R0021     1
    C0063     R0063     1
    C0063     R0077     1
    C0063     R0175     1
    C0063     R0189     1
    C0063     R0411     1
    C0063     R0873     1
    C0063     R1181     1
    C0063     R1195     1
    C0063     R1223     1
    C0063     R1237     1
    C0063     R1265     1
    C0063     R1279     1
    C0063     R1349     1
    C0063     R1363     1
    C0063     R1377     1
    C0063     R1419     1
    C0064     OBJ       -1
    C0064     R0008     1
    C0064     R0022     1
    C0064     R0064     1
    C0064     R0078     1
    C0064     R0176     1
    C0064     R0190     1
    C0064     R0411     1
    C0064     R0874     1
    C0064     R1182     1
    C0064     R1196     1
    C0064     R1224     1
    C0064     R1238     1
    C0064     R1266     1
    C0064     R1280     1
    C0064     R1350     1
    C0064     R1364     1
    C0064     R1378     1
    C0064     R1420     1
    C0065     OBJ       -1
    C0065     R0009     1
    C0065     R0023     1
    C0065     R0065     1
    C0065     R0079     1
    C0065     R0177     1
    C0065     R0191     1
    C0065     R0411     1
    C0065     R0875     1
    C0065     R1183     1
    C0065     R1197     1
    C0065     R1225     1
    C0065     R1239     1
    C0065     R1267     1
    C0065     R1281     1
    C0065     R1351     1
    C0065     R1365     1
    C0065     R1379     1
    C0065     R1421     1
    C0066     OBJ       -1
    C0066     R0010     1
    C0066     R0024     1
    C0066     R0066     1
    C0066     R0080     1
    C0066     R0178     1
    C0066     R0192     1
    C0066     R0411     1
    C0066     R0876     1
    C0066     R1184     1
    C0066     R1198     1
    C0066     R1226     1
    C0066     R1240     1
    C0066     R1268     1
    C0066     R1282     1
    C0066     R1352     1
    C0066     R1366     1
    C0066     R1380     1
    C0066     R1422     1
    C0067     OBJ       -1
    C0067     R0011     1
    C0067     R0025     1
    C0067     R0067     1
    C0067     R0081     1
    C0067     R0179     1
    C0067     R0193     1
    C0067     R0411     1
    C0067     R0877     1
    C0067     R1185     1
    C0067     R1199     1
    C0067     R1227     1
    C0067     R1241     1
    C0067     R1269     1
    C0067     R1283     1
    C0067     R1353     1
    C0067     R1367     1
    C0067     R1381     1
    C0067     R1423     1
    C0068     OBJ       -1
    C0068     R0012     1
    C0068     R0026     1
    C0068     R0068     1
    C0068     R0082     1
    C0068     R0180     1
    C0068     R0194     1
    C0068     R0411     1
    C0068     R0878     1
    C0068     R1186     1
    C0068     R1200     1
    C0068     R1228     1
    C0068     R1242     1
    C0068     R1270     1
    C0068     R1284     1
    C0068     R1354     1
    C0068     R1368     1
    C0068     R1382     1
    C0068     R1424     1
    C0069     OBJ       -1
    C0069     R0013     1
    C0069     R0027     1
    C0069     R0069     1
    C0069     R0083     1
    C0069     R0181     1
    C0069     R0195     1
    C0069     R0411     1
    C0069     R0879     1
    C0069     R1187     1
    C0069     R1201     1
    C0069     R1229     1
    C0069     R1243     1
    C0069     R1271     1
    C0069     R1285     1
    C0069     R1355     1
    C0069     R1369     1
    C0069     R1383     1
    C0069     R1425     1
    C0070     OBJ       -1
    C0070     R0014     1
    C0070     R0028     1
    C0070     R0070     1
    C0070     R0084     1
    C0070     R0182     1
    C0070     R0196     1
    C0070     R0411     1
    C0070     R0880     1
    C0070     R1188     1
    C0070     R1202     1
    C0070     R1230     1
    C0070     R1244     1
    C0070     R1272     1
    C0070     R1286     1
    C0070     R1356     1
    C0070     R1370     1
    C0070     R1384     1
    C0070     R1426     1
    C0071     OBJ       -1
    C0071     R0029     1
    C0071     R0043     1
    C0071     R0085     1
    C0071     R0099     1
    C0071     R0113     1
    C0071     R0127     1
    C0071     R0141     1
    C0071     R0155     1
    C0071     R0197     1
    C0071     R0211     1
    C0071     R0225     1
    C0071     R0239     1
    C0071     R0267     1
    C0071     R0309     1
    C0071     R0412     1
    C0071     R0881     1
    C0071     R1175     1
    C0071     R1189     1
    C0071     R1217     1
    C0071     R1245     1
    C0071     R1259     1
    C0071     R1273     1
    C0071     R1357     1
    C0071     R1371     1
    C0071     R1413     1
    C0072     OBJ       -1
    C0072     R0030     1
    C0072     R0044     1
    C0072     R0086     1
    C0072     R0100     1
    C0072     R0114     1
    C0072     R0128     1
    C0072     R0142     1
    C0072     R0156     1
    C0072     R0198     1
    C0072     R0212     1
    C0072     R0226     1
    C0072     R0240     1
    C0072     R0268     1
    C0072     R0310     1
    C0072     R0412     1
    C0072     R0882     1
    C0072     R1176     1
    C0072     R1190     1
    C0072     R1218     1
    C0072     R1246     1
    C0072     R1260     1
    C0072     R1274     1
    C0072     R1358     1
    C0072     R1372     1
    C0072     R1414     1
    C0073     OBJ       -1
    C0073     R0031     1
    C0073     R0045     1
    C0073     R0087     1
    C0073     R0101     1
    C0073     R0115     1
    C0073     R0129     1
    C0073     R0143     1
    C0073     R0157     1
    C0073     R0199     1
    C0073     R0213     1
    C0073     R0227     1
    C0073     R0241     1
    C0073     R0269     1
    C0073     R0311     1
    C0073     R0412     1
    C0073     R0883     1
    C0073     R1177     1
    C0073     R1191     1
    C0073     R1219     1
    C0073     R1247     1
    C0073     R1261     1
    C0073     R1275     1
    C0073     R1359     1
    C0073     R1373     1
    C0073     R1415     1
    C0074     OBJ       -1
    C0074     R0032     1
    C0074     R0046     1
    C0074     R0088     1
    C0074     R0102     1
    C0074     R0116     1
    C0074     R0130     1
    C0074     R0144     1
    C0074     R0158     1
    C0074     R0200     1
    C0074     R0214     1
    C0074     R0228     1
    C0074     R0242     1
    C0074     R0270     1
    C0074     R0312     1
    C0074     R0412     1
    C0074     R0884     1
    C0074     R1178     1
    C0074     R1192     1
    C0074     R1220     1
    C0074     R1248     1
    C0074     R1262     1
    C0074     R1276     1
    C0074     R1360     1
    C0074     R1374     1
    C0074     R1416     1
    C0075     OBJ       -1
    C0075     R0033     1
    C0075     R0047     1
    C0075     R0089     1
    C0075     R0103     1
    C0075     R0117     1
    C0075     R0131     1
    C0075     R0145     1
    C0075     R0159     1
    C0075     R0201     1
    C0075     R0215     1
    C0075     R0229     1
    C0075     R0243     1
    C0075     R0271     1
    C0075     R0313     1
    C0075     R0412     1
    C0075     R0885     1
    C0075     R1179     1
    C0075     R1193     1
    C0075     R1221     1
    C0075     R1249     1
    C0075     R1263     1
    C0075     R1277     1
    C0075     R1361     1
    C0075     R1375     1
    C0075     R1417     1
    C0076     OBJ       -1
    C0076     R0034     1
    C0076     R0048     1
    C0076     R0090     1
    C0076     R0104     1
    C0076     R0118     1
    C0076     R0132     1
    C0076     R0146     1
    C0076     R0160     1
    C0076     R0202     1
    C0076     R0216     1
    C0076     R0230     1
    C0076     R0244     1
    C0076     R0272     1
    C0076     R0314     1
    C0076     R0412     1
    C0076     R0886     1
    C0076     R1180     1
    C0076     R1194     1
    C0076     R1222     1
    C0076     R1250     1
    C0076     R1264     1
    C0076     R1278     1
    C0076     R1362     1
    C0076     R1376     1
    C0076     R1418     1
    C0077     OBJ       -1
    C0077     R0035     1
    C0077     R0049     1
    C0077     R0091     1
    C0077     R0105     1
    C0077     R0119     1
    C0077     R0133     1
    C0077     R0147     1
    C0077     R0161     1
    C0077     R0203     1
    C0077     R0217     1
    C0077     R0231     1
    C0077     R0245     1
    C0077     R0273     1
    C0077     R0315     1
    C0077     R0412     1
    C0077     R0887     1
    C0077     R1181     1
    C0077     R1195     1
    C0077     R1223     1
    C0077     R1251     1
    C0077     R1265     1
    C0077     R1279     1
    C0077     R1363     1
    C0077     R1377     1
    C0077     R1419     1
    C0078     OBJ       -1
    C0078     R0036     1
    C0078     R0050     1
    C0078     R0092     1
    C0078     R0106     1
    C0078     R0120     1
    C0078     R0134     1
    C0078     R0148     1
    C0078     R0162     1
    C0078     R0204     1
    C0078     R0218     1
    C0078     R0232     1
    C0078     R0246     1
    C0078     R0274     1
    C0078     R0316     1
    C0078     R0412     1
    C0078     R0888     1
    C0078     R1182     1
    C0078     R1196     1
    C0078     R1224     1
    C0078     R1252     1
    C0078     R1266     1
    C0078     R1280     1
    C0078     R1364     1
    C0078     R1378     1
    C0078     R1420     1
    C0079     OBJ       -1
    C0079     R0037     1
    C0079     R0051     1
    C0079     R0093     1
    C0079     R0107     1
    C0079     R0121     1
    C0079     R0135     1
    C0079     R0149     1
    C0079     R0163     1
    C0079     R0205     1
    C0079     R0219     1
    C0079     R0233     1
    C0079     R0247     1
    C0079     R0275     1
    C0079     R0317     1
    C0079     R0412     1
    C0079     R0889     1
    C0079     R1183     1
    C0079     R1197     1
    C0079     R1225     1
    C0079     R1253     1
    C0079     R1267     1
    C0079     R1281     1
    C0079     R1365     1
    C0079     R1379     1
    C0079     R1421     1
    C0080     OBJ       -1
    C0080     R0038     1
    C0080     R0052     1
    C0080     R0094     1
    C0080     R0108     1
    C0080     R0122     1
    C0080     R0136     1
    C0080     R0150     1
    C0080     R0164     1
    C0080     R0206     1
    C0080     R0220     1
    C0080     R0234     1
    C0080     R0248     1
    C0080     R0276     1
    C0080     R0318     1
    C0080     R0412     1
    C0080     R0890     1
    C0080     R1184     1
    C0080     R1198     1
    C0080     R1226     1
    C0080     R1254     1
    C0080     R1268     1
    C0080     R1282     1
    C0080     R1366     1
    C0080     R1380     1
    C0080     R1422     1
    C0081     OBJ       -1
    C0081     R0039     1
    C0081     R0053     1
    C0081     R0095     1
    C0081     R0109     1
    C0081     R0123     1
    C0081     R0137     1
    C0081     R0151     1
    C0081     R0165     1
    C0081     R0207     1
    C0081     R0221     1
    C0081     R0235     1
    C0081     R0249     1
    C0081     R0277     1
    C0081     R0319     1
    C0081     R0412     1
    C0081     R0891     1
    C0081     R1185     1
    C0081     R1199     1
    C0081     R1227     1
    C0081     R1255     1
    C0081     R1269     1
    C0081     R1283     1
    C0081     R1367     1
    C0081     R1381     1
    C0081     R1423     1
    C0082     OBJ       -1
    C0082     R0040     1
    C0082     R0054     1
    C0082     R0096     1
    C0082     R0110     1
    C0082     R0124     1
    C0082     R0138     1
    C0082     R0152     1
    C0082     R0166     1
    C0082     R0208     1
    C0082     R0222     1
    C0082     R0236     1
    C0082     R0250     1
    C0082     R0278     1
    C0082     R0320     1
    C0082     R0412     1
    C0082     R0892     1
    C0082     R1186     1
    C0082     R1200     1
    C0082     R1228     1
    C0082     R1256     1
    C0082     R1270     1
    C0082     R1284     1
    C0082     R1368     1
    C0082     R1382     1
    C0082     R1424     1
    C0083     OBJ       -1
    C0083     R0041     1
    C0083     R0055     1
    C0083     R0097     1
    C0083     R0111     1
    C0083     R0125     1
    C0083     R0139     1
    C0083     R0153     1
    C0083     R0167     1
    C0083     R0209     1
    C0083     R0223     1
    C0083     R0237     1
    C0083     R0251     1
    C0083     R0279     1
    C0083     R0321     1
    C0083     R0412     1
    C0083     R0893     1
    C0083     R1187     1
    C0083     R1201     1
    C0083     R1229     1
    C0083     R1257     1
    C0083     R1271     1
    C0083     R1285     1
    C0083     R1369     1
    C0083     R1383     1
    C0083     R1425     1
    C0084     OBJ       -1
    C0084     R0042     1
    C0084     R0056     1
    C0084     R0098     1
    C0084     R0112     1
    C0084     R0126     1
    C0084     R0140     1
    C0084     R0154     1
    C0084     R0168     1
    C0084     R0210     1
    C0084     R0224     1
    C0084     R0238     1
    C0084     R0252     1
    C0084     R0280     1
    C0084     R0322     1
    C0084     R0412     1
    C0084     R0894     1
    C0084     R1188     1
    C0084     R1202     1
    C0084     R1230     1
    C0084     R1258     1
    C0084     R1272     1
    C0084     R1286     1
    C0084     R1370     1
    C0084     R1384     1
    C0084     R1426     1
    C0085     OBJ       -1
    C0085     R0001     1
    C0085     R0029     1
    C0085     R0057     1
    C0085     R0085     1
    C0085     R0099     1
    C0085     R0113     1
    C0085     R0169     1
    C0085     R0197     1
    C0085     R0211     1
    C0085     R0225     1
    C0085     R0413     1
    C0085     R0895     1
    C0085     R1189     1
    C0085     R1203     1
    C0085     R1259     1
    C0086     OBJ       -1
    C0086     R0002     1
    C0086     R0030     1
    C0086     R0058     1
    C0086     R0086     1
    C0086     R0100     1
    C0086     R0114     1
    C0086     R0170     1
    C0086     R0198     1
    C0086     R0212     1
    C0086     R0226     1
    C0086     R0413     1
    C0086     R0896     1
    C0086     R1190     1
    C0086     R1204     1
    C0086     R1260     1
    C0087     OBJ       -1
    C0087     R0003     1
    C0087     R0031     1
    C0087     R0059     1
    C0087     R0087     1
    C0087     R0101     1
    C0087     R0115     1
    C0087     R0171     1
    C0087     R0199     1
    C0087     R0213     1
    C0087     R0227     1
    C0087     R0413     1
    C0087     R0897     1
    C0087     R1191     1
    C0087     R1205     1
    C0087     R1261     1
    C0088     OBJ       -1
    C0088     R0004     1
    C0088     R0032     1
    C0088     R0060     1
    C0088     R0088     1
    C0088     R0102     1
    C0088     R0116     1
    C0088     R0172     1
    C0088     R0200     1
    C0088     R0214     1
    C0088     R0228     1
    C0088     R0413     1
    C0088     R0898     1
    C0088     R1192     1
    C0088     R1206     1
    C0088     R1262     1
    C0089     OBJ       -1
    C0089     R0005     1
    C0089     R0033     1
    C0089     R0061     1
    C0089     R0089     1
    C0089     R0103     1
    C0089     R0117     1
    C0089     R0173     1
    C0089     R0201     1
    C0089     R0215     1
    C0089     R0229     1
    C0089     R0413     1
    C0089     R0899     1
    C0089     R1193     1
    C0089     R1207     1
    C0089     R1263     1
    C0090     OBJ       -1
    C0090     R0006     1
    C0090     R0034     1
    C0090     R0062     1
    C0090     R0090     1
    C0090     R0104     1
    C0090     R0118     1
    C0090     R0174     1
    C0090     R0202     1
    C0090     R0216     1
    C0090     R0230     1
    C0090     R0413     1
    C0090     R0900     1
    C0090     R1194     1
    C0090     R1208     1
    C0090     R1264     1
    C0091     OBJ       -1
    C0091     R0007     1
    C0091     R0035     1
    C0091     R0063     1
    C0091     R0091     1
    C0091     R0105     1
    C0091     R0119     1
    C0091     R0175     1
    C0091     R0203     1
    C0091     R0217     1
    C0091     R0231     1
    C0091     R0413     1
    C0091     R0901     1
    C0091     R1195     1
    C0091     R1209     1
    C0091     R1265     1
    C0092     OBJ       -1
    C0092     R0008     1
    C0092     R0036     1
    C0092     R0064     1
    C0092     R0092     1
    C0092     R0106     1
    C0092     R0120     1
    C0092     R0176     1
    C0092     R0204     1
    C0092     R0218     1
    C0092     R0232     1
    C0092     R0413     1
    C0092     R0902     1
    C0092     R1196     1
    C0092     R1210     1
    C0092     R1266     1
    C0093     OBJ       -1
    C0093     R0009     1
    C0093     R0037     1
    C0093     R0065     1
    C0093     R0093     1
    C0093     R0107     1
    C0093     R0121     1
    C0093     R0177     1
    C0093     R0205     1
    C0093     R0219     1
    C0093     R0233     1
    C0093     R0413     1
    C0093     R0903     1
    C0093     R1197     1
    C0093     R1211     1
    C0093     R1267     1
    C0094     OBJ       -1
    C0094     R0010     1
    C0094     R0038     1
    C0094     R0066     1
    C0094     R0094     1
    C0094     R0108     1
    C0094     R0122     1
    C0094     R0178     1
    C0094     R0206     1
    C0094     R0220     1
    C0094     R0234     1
    C0094     R0413     1
    C0094     R0904     1
    C0094     R1198     1
    C0094     R1212     1
    C0094     R1268     1
    C0095     OBJ       -1
    C0095     R0011     1
    C0095     R0039     1
    C0095     R0067     1
    C0095     R0095     1
    C0095     R0109     1
    C0095     R0123     1
    C0095     R0179     1
    C0095     R0207     1
    C0095     R0221     1
    C0095     R0235     1
    C0095     R0413     1
    C0095     R0905     1
    C0095     R1199     1
    C0095     R1213     1
    C0095     R1269     1
    C0096     OBJ       -1
    C0096     R0012     1
    C0096     R0040     1
    C0096     R0068     1
    C0096     R0096     1
    C0096     R0110     1
    C0096     R0124     1
    C0096     R0180     1
    C0096     R0208     1
    C0096     R0222     1
    C0096     R0236     1
    C0096     R0413     1
    C0096     R0906     1
    C0096     R1200     1
    C0096     R1214     1
    C0096     R1270     1
    C0097     OBJ       -1
    C0097     R0013     1
    C0097     R0041     1
    C0097     R0069     1
    C0097     R0097     1
    C0097     R0111     1
    C0097     R0125     1
    C0097     R0181     1
    C0097     R0209     1
    C0097     R0223     1
    C0097     R0237     1
    C0097     R0413     1
    C0097     R0907     1
    C0097     R1201     1
    C0097     R1215     1
    C0097     R1271     1
    C0098     OBJ       -1
    C0098     R0014     1
    C0098     R0042     1
    C0098     R0070     1
    C0098     R0098     1
    C0098     R0112     1
    C0098     R0126     1
    C0098     R0182     1
    C0098     R0210     1
    C0098     R0224     1
    C0098     R0238     1
    C0098     R0413     1
    C0098     R0908     1
    C0098     R1202     1
    C0098     R1216     1
    C0098     R1272     1
    C0099     OBJ       -1
    C0099     R0015     1
    C0099     R0043     1
    C0099     R0071     1
    C0099     R0127     1
    C0099     R0141     1
    C0099     R0155     1
    C0099     R0183     1
    C0099     R0239     1
    C0099     R0267     1
    C0099     R0281     1
    C0099     R0309     1
    C0099     R0323     1
    C0099     R0414     1
    C0099     R0909     1
    C0099     R1203     1
    C0099     R1217     1
    C0099     R1273     1
    C0099     R1413     1
    C0100     OBJ       -1
    C0100     R0016     1
    C0100     R0044     1
    C0100     R0072     1
    C0100     R0128     1
    C0100     R0142     1
    C0100     R0156     1
    C0100     R0184     1
    C0100     R0240     1
    C0100     R0268     1
    C0100     R0282     1
    C0100     R0310     1
    C0100     R0324     1
    C0100     R0414     1
    C0100     R0910     1
    C0100     R1204     1
    C0100     R1218     1
    C0100     R1274     1
    C0100     R1414     1
    C0101     OBJ       -1
    C0101     R0017     1
    C0101     R0045     1
    C0101     R0073     1
    C0101     R0129     1
    C0101     R0143     1
    C0101     R0157     1
    C0101     R0185     1
    C0101     R0241     1
    C0101     R0269     1
    C0101     R0283     1
    C0101     R0311     1
    C0101     R0325     1
    C0101     R0414     1
    C0101     R0911     1
    C0101     R1205     1
    C0101     R1219     1
    C0101     R1275     1
    C0101     R1415     1
    C0102     OBJ       -1
    C0102     R0018     1
    C0102     R0046     1
    C0102     R0074     1
    C0102     R0130     1
    C0102     R0144     1
    C0102     R0158     1
    C0102     R0186     1
    C0102     R0242     1
    C0102     R0270     1
    C0102     R0284     1
    C0102     R0312     1
    C0102     R0326     1
    C0102     R0414     1
    C0102     R0912     1
    C0102     R1206     1
    C0102     R1220     1
    C0102     R1276     1
    C0102     R1416     1
    C0103     OBJ       -1
    C0103     R0019     1
    C0103     R0047     1
    C0103     R0075     1
    C0103     R0131     1
    C0103     R0145     1
    C0103     R0159     1
    C0103     R0187     1
    C0103     R0243     1
    C0103     R0271     1
    C0103     R0285     1
    C0103     R0313     1
    C0103     R0327     1
    C0103     R0414     1
    C0103     R0913     1
    C0103     R1207     1
    C0103     R1221     1
    C0103     R1277     1
    C0103     R1417     1
    C0104     OBJ       -1
    C0104     R0020     1
    C0104     R0048     1
    C0104     R0076     1
    C0104     R0132     1
    C0104     R0146     1
    C0104     R0160     1
    C0104     R0188     1
    C0104     R0244     1
    C0104     R0272     1
    C0104     R0286     1
    C0104     R0314     1
    C0104     R0328     1
    C0104     R0414     1
    C0104     R0914     1
    C0104     R1208     1
    C0104     R1222     1
    C0104     R1278     1
    C0104     R1418     1
    C0105     OBJ       -1
    C0105     R0021     1
    C0105     R0049     1
    C0105     R0077     1
    C0105     R0133     1
    C0105     R0147     1
    C0105     R0161     1
    C0105     R0189     1
    C0105     R0245     1
    C0105     R0273     1
    C0105     R0287     1
    C0105     R0315     1
    C0105     R0329     1
    C0105     R0414     1
    C0105     R0915     1
    C0105     R1209     1
    C0105     R1223     1
    C0105     R1279     1
    C0105     R1419     1
    C0106     OBJ       -1
    C0106     R0022     1
    C0106     R0050     1
    C0106     R0078     1
    C0106     R0134     1
    C0106     R0148     1
    C0106     R0162     1
    C0106     R0190     1
    C0106     R0246     1
    C0106     R0274     1
    C0106     R0288     1
    C0106     R0316     1
    C0106     R0330     1
    C0106     R0414     1
    C0106     R0916     1
    C0106     R1210     1
    C0106     R1224     1
    C0106     R1280     1
    C0106     R1420     1
    C0107     OBJ       -1
    C0107     R0023     1
    C0107     R0051     1
    C0107     R0079     1
    C0107     R0135     1
    C0107     R0149     1
    C0107     R0163     1
    C0107     R0191     1
    C0107     R0247     1
    C0107     R0275     1
    C0107     R0289     1
    C0107     R0317     1
    C0107     R0331     1
    C0107     R0414     1
    C0107     R0917     1
    C0107     R1211     1
    C0107     R1225     1
    C0107     R1281     1
    C0107     R1421     1
    C0108     OBJ       -1
    C0108     R0024     1
    C0108     R0052     1
    C0108     R0080     1
    C0108     R0136     1
    C0108     R0150     1
    C0108     R0164     1
    C0108     R0192     1
    C0108     R0248     1
    C0108     R0276     1
    C0108     R0290     1
    C0108     R0318     1
    C0108     R0332     1
    C0108     R0414     1
    C0108     R0918     1
    C0108     R1212     1
    C0108     R1226     1
    C0108     R1282     1
    C0108     R1422     1
    C0109     OBJ       -1
    C0109     R0025     1
    C0109     R0053     1
    C0109     R0081     1
    C0109     R0137     1
    C0109     R0151     1
    C0109     R0165     1
    C0109     R0193     1
    C0109     R0249     1
    C0109     R0277     1
    C0109     R0291     1
    C0109     R0319     1
    C0109     R0333     1
    C0109     R0414     1
    C0109     R0919     1
    C0109     R1213     1
    C0109     R1227     1
    C0109     R1283     1
    C0109     R1423     1
    C0110     OBJ       -1
    C0110     R0026     1
    C0110     R0054     1
    C0110     R0082     1
    C0110     R0138     1
    C0110     R0152     1
    C0110     R0166     1
    C0110     R0194     1
    C0110     R0250     1
    C0110     R0278     1
    C0110     R0292     1
    C0110     R0320     1
    C0110     R0334     1
    C0110     R0414     1
    C0110     R0920     1
    C0110     R1214     1
    C0110     R1228     1
    C0110     R1284     1
    C0110     R1424     1
    C0111     OBJ       -1
    C0111     R0027     1
    C0111     R0055     1
    C0111     R0083     1
    C0111     R0139     1
    C0111     R0153     1
    C0111     R0167     1
    C0111     R0195     1
    C0111     R0251     1
    C0111     R0279     1
    C0111     R0293     1
    C0111     R0321     1
    C0111     R0335     1
    C0111     R0414     1
    C0111     R0921     1
    C0111     R1215     1
    C0111     R1229     1
    C0111     R1285     1
    C0111     R1425     1
    C0112     OBJ       -1
    C0112     R0028     1
    C0112     R0056     1
    C0112     R0084     1
    C0112     R0140     1
    C0112     R0154     1
    C0112     R0168     1
    C0112     R0196     1
    C0112     R0252     1
    C0112     R0280     1
    C0112     R0294     1
    C0112     R0322     1
    C0112     R0336     1
    C0112     R0414     1
    C0112     R0922     1
    C0112     R1216     1
    C0112     R1230     1
    C0112     R1286     1
    C0112     R1426     1
    C0169     OBJ       -1
    C0169     R0001     1
    C0169     R0015     1
    C0169     R0029     1
    C0169     R0043     1
    C0169     R0057     1
    C0169     R0071     1
    C0169     R0085     1
    C0169     R0127     1
    C0169     R0169     1
    C0169     R0183     1
    C0169     R0197     1
    C0169     R0239     1
    C0169     R0253     1
    C0169     R0419     1
    C0169     R0979     1
    C0169     R1189     1
    C0169     R1203     1
    C0169     R1217     1
    C0169     R1259     1
    C0169     R1273     1
    C0169     R1343     1
    C0169     R1413     1
    C0169     R1441     1
    C0170     OBJ       -1
    C0170     R0002     1
    C0170     R0016     1
    C0170     R0030     1
    C0170     R0044     1
    C0170     R0058     1
    C0170     R0072     1
    C0170     R0086     1
    C0170     R0128     1
    C0170     R0170     1
    C0170     R0184     1
    C0170     R0198     1
    C0170     R0240     1
    C0170     R0254     1
    C0170     R0419     1
    C0170     R0980     1
    C0170     R1190     1
    C0170     R1204     1
    C0170     R1218     1
    C0170     R1260     1
    C0170     R1274     1
    C0170     R1344     1
    C0170     R1414     1
    C0170     R1442     1
    C0171     OBJ       -1
    C0171     R0003     1
    C0171     R0017     1
    C0171     R0031     1
    C0171     R0045     1
    C0171     R0059     1
    C0171     R0073     1
    C0171     R0087     1
    C0171     R0129     1
    C0171     R0171     1
    C0171     R0185     1
    C0171     R0199     1
    C0171     R0241     1
    C0171     R0255     1
    C0171     R0419     1
    C0171     R0981     1
    C0171     R1191     1
    C0171     R1205     1
    C0171     R1219     1
    C0171     R1261     1
    C0171     R1275     1
    C0171     R1345     1
    C0171     R1415     1
    C0171     R1443     1
    C0172     OBJ       -1
    C0172     R0004     1
    C0172     R0018     1
    C0172     R0032     1
    C0172     R0046     1
    C0172     R0060     1
    C0172     R0074     1
    C0172     R0088     1
    C0172     R0130     1
    C0172     R0172     1
    C0172     R0186     1
    C0172     R0200     1
    C0172     R0242     1
    C0172     R0256     1
    C0172     R0419     1
    C0172     R0982     1
    C0172     R1192     1
    C0172     R1206     1
    C0172     R1220     1
    C0172     R1262     1
    C0172     R1276     1
    C0172     R1346     1
    C0172     R1416     1
    C0172     R1444     1
    C0173     OBJ       -1
    C0173     R0005     1
    C0173     R0019     1
    C0173     R0033     1
    C0173     R0047     1
    C0173     R0061     1
    C0173     R0075     1
    C0173     R0089     1
    C0173     R0131     1
    C0173     R0173     1
    C0173     R0187     1
    C0173     R0201     1
    C0173     R0243     1
    C0173     R0257     1
    C0173     R0419     1
    C0173     R0983     1
    C0173     R1193     1
    C0173     R1207     1
    C0173     R1221     1
    C0173     R1263     1
    C0173     R1277     1
    C0173     R1347     1
    C0173     R1417     1
    C0173     R1445     1
    C0174     OBJ       -1
    C0174     R0006     1
    C0174     R0020     1
    C0174     R0034     1
    C0174     R0048     1
    C0174     R0062     1
    C0174     R0076     1
    C0174     R0090     1
    C0174     R0132     1
    C0174     R0174     1
    C0174     R0188     1
    C0174     R0202     1
    C0174     R0244     1
    C0174     R0258     1
    C0174     R0419     1
    C0174     R0984     1
    C0174     R1194     1
    C0174     R1208     1
    C0174     R1222     1
    C0174     R1264     1
    C0174     R1278     1
    C0174     R1348     1
    C0174     R1418     1
    C0174     R1446     1
    C0175     OBJ       -1
    C0175     R0007     1
    C0175     R0021     1
    C0175     R0035     1
    C0175     R0049     1
    C0175     R0063     1
    C0175     R0077     1
    C0175     R0091     1
    C0175     R0133     1
    C0175     R0175     1
    C0175     R0189     1
    C0175     R0203     1
    C0175     R0245     1
    C0175     R0259     1
    C0175     R0419     1
    C0175     R0985     1
    C0175     R1195     1
    C0175     R1209     1
    C0175     R1223     1
    C0175     R1265     1
    C0175     R1279     1
    C0175     R1349     1
    C0175     R1419     1
    C0175     R1447     1
    C0176     OBJ       -1
    C0176     R0008     1
    C0176     R0022     1
    C0176     R0036     1
    C0176     R0050     1
    C0176     R0064     1
    C0176     R0078     1
    C0176     R0092     1
    C0176     R0134     1
    C0176     R0176     1
    C0176     R0190     1
    C0176     R0204     1
    C0176     R0246     1
    C0176     R0260     1
    C0176     R0419     1
    C0176     R0986     1
    C0176     R1196     1
    C0176     R1210     1
    C0176     R1224     1
    C0176     R1266     1
    C0176     R1280     1
    C0176     R1350     1
    C0176     R1420     1
    C0176     R1448     1
    C0177     OBJ       -1
    C0177     R0009     1
    C0177     R0023     1
    C0177     R0037     1
    C0177     R0051     1
    C0177     R0065     1
    C0177     R0079     1
    C0177     R0093     1
    C0177     R0135     1
    C0177     R0177     1
    C0177     R0191     1
    C0177     R0205     1
    C0177     R0247     1
    C0177     R0261     1
    C0177     R0419     1
    C0177     R0987     1
    C0177     R1197     1
    C0177     R1211     1
    C0177     R1225     1
    C0177     R1267     1
    C0177     R1281     1
    C0177     R1351     1
    C0177     R1421     1
    C0177     R1449     1
    C0178     OBJ       -1
    C0178     R0010     1
    C0178     R0024     1
    C0178     R0038     1
    C0178     R0052     1
    C0178     R0066     1
    C0178     R0080     1
    C0178     R0094     1
    C0178     R0136     1
    C0178     R0178     1
    C0178     R0192     1
    C0178     R0206     1
    C0178     R0248     1
    C0178     R0262     1
    C0178     R0419     1
    C0178     R0988     1
    C0178     R1198     1
    C0178     R1212     1
    C0178     R1226     1
    C0178     R1268     1
    C0178     R1282     1
    C0178     R1352     1
    C0178     R1422     1
    C0178     R1450     1
    C0179     OBJ       -1
    C0179     R0011     1
    C0179     R0025     1
    C0179     R0039     1
    C0179     R0053     1
    C0179     R0067     1
    C0179     R0081     1
    C0179     R0095     1
    C0179     R0137     1
    C0179     R0179     1
    C0179     R0193     1
    C0179     R0207     1
    C0179     R0249     1
    C0179     R0263     1
    C0179     R0419     1
    C0179     R0989     1
    C0179     R1199     1
    C0179     R1213     1
    C0179     R1227     1
    C0179     R1269     1
    C0179     R1283     1
    C0179     R1353     1
    C0179     R1423     1
    C0179     R1451     1
    C0180     OBJ       -1
    C0180     R0012     1
    C0180     R0026     1
    C0180     R0040     1
    C0180     R0054     1
    C0180     R0068     1
    C0180     R0082     1
    C0180     R0096     1
    C0180     R0138     1
    C0180     R0180     1
    C0180     R0194     1
    C0180     R0208     1
    C0180     R0250     1
    C0180     R0264     1
    C0180     R0419     1
    C0180     R0990     1
    C0180     R1200     1
    C0180     R1214     1
    C0180     R1228     1
    C0180     R1270     1
    C0180     R1284     1
    C0180     R1354     1
    C0180     R1424     1
    C0180     R1452     1
    C0181     OBJ       -1
    C0181     R0013     1
    C0181     R0027     1
    C0181     R0041     1
    C0181     R0055     1
    C0181     R0069     1
    C0181     R0083     1
    C0181     R0097     1
    C0181     R0139     1
    C0181     R0181     1
    C0181     R0195     1
    C0181     R0209     1
    C0181     R0251     1
    C0181     R0265     1
    C0181     R0419     1
    C0181     R0991     1
    C0181     R1201     1
    C0181     R1215     1
    C0181     R1229     1
    C0181     R1271     1
    C0181     R1285     1
    C0181     R1355     1
    C0181     R1425     1
    C0181     R1453     1
    C0182     OBJ       -1
    C0182     R0014     1
    C0182     R0028     1
    C0182     R0042     1
    C0182     R0056     1
    C0182     R0070     1
    C0182     R0084     1
    C0182     R0098     1
    C0182     R0140     1
    C0182     R0182     1
    C0182     R0196     1
    C0182     R0210     1
    C0182     R0252     1
    C0182     R0266     1
    C0182     R0419     1
    C0182     R0992     1
    C0182     R1202     1
    C0182     R1216     1
    C0182     R1230     1
    C0182     R1272     1
    C0182     R1286     1
    C0182     R1356     1
    C0182     R1426     1
    C0182     R1454     1
    C0183     OBJ       -1
    C0183     R0057     1
    C0183     R0071     1
    C0183     R0085     1
    C0183     R0099     1
    C0183     R0113     1
    C0183     R0127     1
    C0183     R0141     1
    C0183     R0155     1
    C0183     R0169     1
    C0183     R0183     1
    C0183     R0197     1
    C0183     R0211     1
    C0183     R0225     1
    C0183     R0239     1
    C0183     R0267     1
    C0183     R0281     1
    C0183     R0309     1
    C0183     R0323     1
    C0183     R0420     1
    C0183     R0993     1
    C0183     R1189     1
    C0183     R1203     1
    C0183     R1231     1
    C0183     R1245     1
    C0183     R1273     1
    C0183     R1343     1
    C0183     R1357     1
    C0184     OBJ       -1
    C0184     R0058     1
    C0184     R0072     1
    C0184     R0086     1
    C0184     R0100     1
    C0184     R0114     1
    C0184     R0128     1
    C0184     R0142     1
    C0184     R0156     1
    C0184     R0170     1
    C0184     R0184     1
    C0184     R0198     1
    C0184     R0212     1
    C0184     R0226     1
    C0184     R0240     1
    C0184     R0268     1
    C0184     R0282     1
    C0184     R0310     1
    C0184     R0324     1
    C0184     R0420     1
    C0184     R0994     1
    C0184     R1190     1
    C0184     R1204     1
    C0184     R1232     1
    C0184     R1246     1
    C0184     R1274     1
    C0184     R1344     1
    C0184     R1358     1
    C0185     OBJ       -1
    C0185     R0059     1
    C0185     R0073     1
    C0185     R0087     1
    C0185     R0101     1
    C0185     R0115     1
    C0185     R0129     1
    C0185     R0143     1
    C0185     R0157     1
    C0185     R0171     1
    C0185     R0185     1
    C0185     R0199     1
    C0185     R0213     1
    C0185     R0227     1
    C0185     R0241     1
    C0185     R0269     1
    C0185     R0283     1
    C0185     R0311     1
    C0185     R0325     1
    C0185     R0420     1
    C0185     R0995     1
    C0185     R1191     1
    C0185     R1205     1
    C0185     R1233     1
    C0185     R1247     1
    C0185     R1275     1
    C0185     R1345     1
    C0185     R1359     1
    C0186     OBJ       -1
    C0186     R0060     1
    C0186     R0074     1
    C0186     R0088     1
    C0186     R0102     1
    C0186     R0116     1
    C0186     R0130     1
    C0186     R0144     1
    C0186     R0158     1
    C0186     R0172     1
    C0186     R0186     1
    C0186     R0200     1
    C0186     R0214     1
    C0186     R0228     1
    C0186     R0242     1
    C0186     R0270     1
    C0186     R0284     1
    C0186     R0312     1
    C0186     R0326     1
    C0186     R0420     1
    C0186     R0996     1
    C0186     R1192     1
    C0186     R1206     1
    C0186     R1234     1
    C0186     R1248     1
    C0186     R1276     1
    C0186     R1346     1
    C0186     R1360     1
    C0187     OBJ       -1
    C0187     R0061     1
    C0187     R0075     1
    C0187     R0089     1
    C0187     R0103     1
    C0187     R0117     1
    C0187     R0131     1
    C0187     R0145     1
    C0187     R0159     1
    C0187     R0173     1
    C0187     R0187     1
    C0187     R0201     1
    C0187     R0215     1
    C0187     R0229     1
    C0187     R0243     1
    C0187     R0271     1
    C0187     R0285     1
    C0187     R0313     1
    C0187     R0327     1
    C0187     R0420     1
    C0187     R0997     1
    C0187     R1193     1
    C0187     R1207     1
    C0187     R1235     1
    C0187     R1249     1
    C0187     R1277     1
    C0187     R1347     1
    C0187     R1361     1
    C0188     OBJ       -1
    C0188     R0062     1
    C0188     R0076     1
    C0188     R0090     1
    C0188     R0104     1
    C0188     R0118     1
    C0188     R0132     1
    C0188     R0146     1
    C0188     R0160     1
    C0188     R0174     1
    C0188     R0188     1
    C0188     R0202     1
    C0188     R0216     1
    C0188     R0230     1
    C0188     R0244     1
    C0188     R0272     1
    C0188     R0286     1
    C0188     R0314     1
    C0188     R0328     1
    C0188     R0420     1
    C0188     R0998     1
    C0188     R1194     1
    C0188     R1208     1
    C0188     R1236     1
    C0188     R1250     1
    C0188     R1278     1
    C0188     R1348     1
    C0188     R1362     1
    C0189     OBJ       -1
    C0189     R0063     1
    C0189     R0077     1
    C0189     R0091     1
    C0189     R0105     1
    C0189     R0119     1
    C0189     R0133     1
    C0189     R0147     1
    C0189     R0161     1
    C0189     R0175     1
    C0189     R0189     1
    C0189     R0203     1
    C0189     R0217     1
    C0189     R0231     1
    C0189     R0245     1
    C0189     R0273     1
    C0189     R0287     1
    C0189     R0315     1
    C0189     R0329     1
    C0189     R0420     1
    C0189     R0999     1
    C0189     R1195     1
    C0189     R1209     1
    C0189     R1237     1
    C0189     R1251     1
    C0189     R1279     1
    C0189     R1349     1
    C0189     R1363     1
    C0190     OBJ       -1
    C0190     R0064     1
    C0190     R0078     1
    C0190     R0092     1
    C0190     R0106     1
    C0190     R0120     1
    C0190     R0134     1
    C0190     R0148     1
    C0190     R0162     1
    C0190     R0176     1
    C0190     R0190     1
    C0190     R0204     1
    C0190     R0218     1
    C0190     R0232     1
    C0190     R0246     1
    C0190     R0274     1
    C0190     R0288     1
    C0190     R0316     1
    C0190     R0330     1
    C0190     R0420     1
    C0190     R1000     1
    C0190     R1196     1
    C0190     R1210     1
    C0190     R1238     1
    C0190     R1252     1
    C0190     R1280     1
    C0190     R1350     1
    C0190     R1364     1
    C0191     OBJ       -1
    C0191     R0065     1
    C0191     R0079     1
    C0191     R0093     1
    C0191     R0107     1
    C0191     R0121     1
    C0191     R0135     1
    C0191     R0149     1
    C0191     R0163     1
    C0191     R0177     1
    C0191     R0191     1
    C0191     R0205     1
    C0191     R0219     1
    C0191     R0233     1
    C0191     R0247     1
    C0191     R0275     1
    C0191     R0289     1
    C0191     R0317     1
    C0191     R0331     1
    C0191     R0420     1
    C0191     R1001     1
    C0191     R1197     1
    C0191     R1211     1
    C0191     R1239     1
    C0191     R1253     1
    C0191     R1281     1
    C0191     R1351     1
    C0191     R1365     1
    C0192     OBJ       -1
    C0192     R0066     1
    C0192     R0080     1
    C0192     R0094     1
    C0192     R0108     1
    C0192     R0122     1
    C0192     R0136     1
    C0192     R0150     1
    C0192     R0164     1
    C0192     R0178     1
    C0192     R0192     1
    C0192     R0206     1
    C0192     R0220     1
    C0192     R0234     1
    C0192     R0248     1
    C0192     R0276     1
    C0192     R0290     1
    C0192     R0318     1
    C0192     R0332     1
    C0192     R0420     1
    C0192     R1002     1
    C0192     R1198     1
    C0192     R1212     1
    C0192     R1240     1
    C0192     R1254     1
    C0192     R1282     1
    C0192     R1352     1
    C0192     R1366     1
    C0193     OBJ       -1
    C0193     R0067     1
    C0193     R0081     1
    C0193     R0095     1
    C0193     R0109     1
    C0193     R0123     1
    C0193     R0137     1
    C0193     R0151     1
    C0193     R0165     1
    C0193     R0179     1
    C0193     R0193     1
    C0193     R0207     1
    C0193     R0221     1
    C0193     R0235     1
    C0193     R0249     1
    C0193     R0277     1
    C0193     R0291     1
    C0193     R0319     1
    C0193     R0333     1
    C0193     R0420     1
    C0193     R1003     1
    C0193     R1199     1
    C0193     R1213     1
    C0193     R1241     1
    C0193     R1255     1
    C0193     R1283     1
    C0193     R1353     1
    C0193     R1367     1
    C0194     OBJ       -1
    C0194     R0068     1
    C0194     R0082     1
    C0194     R0096     1
    C0194     R0110     1
    C0194     R0124     1
    C0194     R0138     1
    C0194     R0152     1
    C0194     R0166     1
    C0194     R0180     1
    C0194     R0194     1
    C0194     R0208     1
    C0194     R0222     1
    C0194     R0236     1
    C0194     R0250     1
    C0194     R0278     1
    C0194     R0292     1
    C0194     R0320     1
    C0194     R0334     1
    C0194     R0420     1
    C0194     R1004     1
    C0194     R1200     1
    C0194     R1214     1
    C0194     R1242     1
    C0194     R1256     1
    C0194     R1284     1
    C0194     R1354     1
    C0194     R1368     1
    C0195     OBJ       -1
    C0195     R0069     1
    C0195     R0083     1
    C0195     R0097     1
    C0195     R0111     1
    C0195     R0125     1
    C0195     R0139     1
    C0195     R0153     1
    C0195     R0167     1
    C0195     R0181     1
    C0195     R0195     1
    C0195     R0209     1
    C0195     R0223     1
    C0195     R0237     1
    C0195     R0251     1
    C0195     R0279     1
    C0195     R0293     1
    C0195     R0321     1
    C0195     R0335     1
    C0195     R0420     1
    C0195     R1005     1
    C0195     R1201     1
    C0195     R1215     1
    C0195     R1243     1
    C0195     R1257     1
    C0195     R1285     1
    C0195     R1355     1
    C0195     R1369     1
    C0196     OBJ       -1
    C0196     R0070     1
    C0196     R0084     1
    C0196     R0098     1
    C0196     R0112     1
    C0196     R0126     1
    C0196     R0140     1
    C0196     R0154     1
    C0196     R0168     1
    C0196     R0182     1
    C0196     R0196     1
    C0196     R0210     1
    C0196     R0224     1
    C0196     R0238     1
    C0196     R0252     1
    C0196     R0280     1
    C0196     R0294     1
    C0196     R0322     1
    C0196     R0336     1
    C0196     R0420     1
    C0196     R1006     1
    C0196     R1202     1
    C0196     R1216     1
    C0196     R1244     1
    C0196     R1258     1
    C0196     R1286     1
    C0196     R1356     1
    C0196     R1370     1
    C0197     OBJ       -1
    C0197     R0001     1
    C0197     R0015     1
    C0197     R0029     1
    C0197     R0043     1
    C0197     R0057     1
    C0197     R0071     1
    C0197     R0085     1
    C0197     R0099     1
    C0197     R0113     1
    C0197     R0127     1
    C0197     R0141     1
    C0197     R0155     1
    C0197     R0169     1
    C0197     R0183     1
    C0197     R0197     1
    C0197     R0211     1
    C0197     R0225     1
    C0197     R0239     1
    C0197     R0253     1
    C0197     R0267     1
    C0197     R0281     1
    C0197     R0295     1
    C0197     R0309     1
    C0197     R0323     1
    C0197     R0337     1
    C0197     R0421     1
    C0197     R1007     1
    C0197     R1175     1
    C0197     R1203     1
    C0197     R1217     1
    C0197     R1231     1
    C0197     R1245     1
    C0197     R1259     1
    C0197     R1343     1
    C0197     R1371     1
    C0197     R1413     1
    C0197     R1441     1
    C0198     OBJ       -1
    C0198     R0002     1
    C0198     R0016     1
    C0198     R0030     1
    C0198     R0044     1
    C0198     R0058     1
    C0198     R0072     1
    C0198     R0086     1
    C0198     R0100     1
    C0198     R0114     1
    C0198     R0128     1
    C0198     R0142     1
    C0198     R0156     1
    C0198     R0170     1
    C0198     R0184     1
    C0198     R0198     1
    C0198     R0212     1
    C0198     R0226     1
    C0198     R0240     1
    C0198     R0254     1
    C0198     R0268     1
    C0198     R0282     1
    C0198     R0296     1
    C0198     R0310     1
    C0198     R0324     1
    C0198     R0338     1
    C0198     R0421     1
    C0198     R1008     1
    C0198     R1176     1
    C0198     R1204     1
    C0198     R1218     1
    C0198     R1232     1
    C0198     R1246     1
    C0198     R1260     1
    C0198     R1344     1
    C0198     R1372     1
    C0198     R1414     1
    C0198     R1442     1
    C0199     OBJ       -1
    C0199     R0003     1
    C0199     R0017     1
    C0199     R0031     1
    C0199     R0045     1
    C0199     R0059     1
    C0199     R0073     1
    C0199     R0087     1
    C0199     R0101     1
    C0199     R0115     1
    C0199     R0129     1
    C0199     R0143     1
    C0199     R0157     1
    C0199     R0171     1
    C0199     R0185     1
    C0199     R0199     1
    C0199     R0213     1
    C0199     R0227     1
    C0199     R0241     1
    C0199     R0255     1
    C0199     R0269     1
    C0199     R0283     1
    C0199     R0297     1
    C0199     R0311     1
    C0199     R0325     1
    C0199     R0339     1
    C0199     R0421     1
    C0199     R1009     1
    C0199     R1177     1
    C0199     R1205     1
    C0199     R1219     1
    C0199     R1233     1
    C0199     R1247     1
    C0199     R1261     1
    C0199     R1345     1
    C0199     R1373     1
    C0199     R1415     1
    C0199     R1443     1
    C0200     OBJ       -1
    C0200     R0004     1
    C0200     R0018     1
    C0200     R0032     1
    C0200     R0046     1
    C0200     R0060     1
    C0200     R0074     1
    C0200     R0088     1
    C0200     R0102     1
    C0200     R0116     1
    C0200     R0130     1
    C0200     R0144     1
    C0200     R0158     1
    C0200     R0172     1
    C0200     R0186     1
    C0200     R0200     1
    C0200     R0214     1
    C0200     R0228     1
    C0200     R0242     1
    C0200     R0256     1
    C0200     R0270     1
    C0200     R0284     1
    C0200     R0298     1
    C0200     R0312     1
    C0200     R0326     1
    C0200     R0340     1
    C0200     R0421     1
    C0200     R1010     1
    C0200     R1178     1
    C0200     R1206     1
    C0200     R1220     1
    C0200     R1234     1
    C0200     R1248     1
    C0200     R1262     1
    C0200     R1346     1
    C0200     R1374     1
    C0200     R1416     1
    C0200     R1444     1
    C0201     OBJ       -1
    C0201     R0005     1
    C0201     R0019     1
    C0201     R0033     1
    C0201     R0047     1
    C0201     R0061     1
    C0201     R0075     1
    C0201     R0089     1
    C0201     R0103     1
    C0201     R0117     1
    C0201     R0131     1
    C0201     R0145     1
    C0201     R0159     1
    C0201     R0173     1
    C0201     R0187     1
    C0201     R0201     1
    C0201     R0215     1
    C0201     R0229     1
    C0201     R0243     1
    C0201     R0257     1
    C0201     R0271     1
    C0201     R0285     1
    C0201     R0299     1
    C0201     R0313     1
    C0201     R0327     1
    C0201     R0341     1
    C0201     R0421     1
    C0201     R1011     1
    C0201     R1179     1
    C0201     R1207     1
    C0201     R1221     1
    C0201     R1235     1
    C0201     R1249     1
    C0201     R1263     1
    C0201     R1347     1
    C0201     R1375     1
    C0201     R1417     1
    C0201     R1445     1
    C0202     OBJ       -1
    C0202     R0006     1
    C0202     R0020     1
    C0202     R0034     1
    C0202     R0048     1
    C0202     R0062     1
    C0202     R0076     1
    C0202     R0090     1
    C0202     R0104     1
    C0202     R0118     1
    C0202     R0132     1
    C0202     R0146     1
    C0202     R0160     1
    C0202     R0174     1
    C0202     R0188     1
    C0202     R0202     1
    C0202     R0216     1
    C0202     R0230     1
    C0202     R0244     1
    C0202     R0258     1
    C0202     R0272     1
    C0202     R0286     1
    C0202     R0300     1
    C0202     R0314     1
    C0202     R0328     1
    C0202     R0342     1
    C0202     R0421     1
    C0202     R1012     1
    C0202     R1180     1
    C0202     R1208     1
    C0202     R1222     1
    C0202     R1236     1
    C0202     R1250     1
    C0202     R1264     1
    C0202     R1348     1
    C0202     R1376     1
    C0202     R1418     1
    C0202     R1446     1
    C0203     OBJ       -1
    C0203     R0007     1
    C0203     R0021     1
    C0203     R0035     1
    C0203     R0049     1
    C0203     R0063     1
    C0203     R0077     1
    C0203     R0091     1
    C0203     R0105     1
    C0203     R0119     1
    C0203     R0133     1
    C0203     R0147     1
    C0203     R0161     1
    C0203     R0175     1
    C0203     R0189     1
    C0203     R0203     1
    C0203     R0217     1
    C0203     R0231     1
    C0203     R0245     1
    C0203     R0259     1
    C0203     R0273     1
    C0203     R0287     1
    C0203     R0301     1
    C0203     R0315     1
    C0203     R0329     1
    C0203     R0343     1
    C0203     R0421     1
    C0203     R1013     1
    C0203     R1181     1
    C0203     R1209     1
    C0203     R1223     1
    C0203     R1237     1
    C0203     R1251     1
    C0203     R1265     1
    C0203     R1349     1
    C0203     R1377     1
    C0203     R1419     1
    C0203     R1447     1
    C0204     OBJ       -1
    C0204     R0008     1
    C0204     R0022     1
    C0204     R0036     1
    C0204     R0050     1
    C0204     R0064     1
    C0204     R0078     1
    C0204     R0092     1
    C0204     R0106     1
    C0204     R0120     1
    C0204     R0134     1
    C0204     R0148     1
    C0204     R0162     1
    C0204     R0176     1
    C0204     R0190     1
    C0204     R0204     1
    C0204     R0218     1
    C0204     R0232     1
    C0204     R0246     1
    C0204     R0260     1
    C0204     R0274     1
    C0204     R0288     1
    C0204     R0302     1
    C0204     R0316     1
    C0204     R0330     1
    C0204     R0344     1
    C0204     R0421     1
    C0204     R1014     1
    C0204     R1182     1
    C0204     R1210     1
    C0204     R1224     1
    C0204     R1238     1
    C0204     R1252     1
    C0204     R1266     1
    C0204     R1350     1
    C0204     R1378     1
    C0204     R1420     1
    C0204     R1448     1
    C0205     OBJ       -1
    C0205     R0009     1
    C0205     R0023     1
    C0205     R0037     1
    C0205     R0051     1
    C0205     R0065     1
    C0205     R0079     1
    C0205     R0093     1
    C0205     R0107     1
    C0205     R0121     1
    C0205     R0135     1
    C0205     R0149     1
    C0205     R0163     1
    C0205     R0177     1
    C0205     R0191     1
    C0205     R0205     1
    C0205     R0219     1
    C0205     R0233     1
    C0205     R0247     1
    C0205     R0261     1
    C0205     R0275     1
    C0205     R0289     1
    C0205     R0303     1
    C0205     R0317     1
    C0205     R0331     1
    C0205     R0345     1
    C0205     R0421     1
    C0205     R1015     1
    C0205     R1183     1
    C0205     R1211     1
    C0205     R1225     1
    C0205     R1239     1
    C0205     R1253     1
    C0205     R1267     1
    C0205     R1351     1
    C0205     R1379     1
    C0205     R1421     1
    C0205     R1449     1
    C0206     OBJ       -1
    C0206     R0010     1
    C0206     R0024     1
    C0206     R0038     1
    C0206     R0052     1
    C0206     R0066     1
    C0206     R0080     1
    C0206     R0094     1
    C0206     R0108     1
    C0206     R0122     1
    C0206     R0136     1
    C0206     R0150     1
    C0206     R0164     1
    C0206     R0178     1
    C0206     R0192     1
    C0206     R0206     1
    C0206     R0220     1
    C0206     R0234     1
    C0206     R0248     1
    C0206     R0262     1
    C0206     R0276     1
    C0206     R0290     1
    C0206     R0304     1
    C0206     R0318     1
    C0206     R0332     1
    C0206     R0346     1
    C0206     R0421     1
    C0206     R1016     1
    C0206     R1184     1
    C0206     R1212     1
    C0206     R1226     1
    C0206     R1240     1
    C0206     R1254     1
    C0206     R1268     1
    C0206     R1352     1
    C0206     R1380     1
    C0206     R1422     1
    C0206     R1450     1
    C0207     OBJ       -1
    C0207     R0011     1
    C0207     R0025     1
    C0207     R0039     1
    C0207     R0053     1
    C0207     R0067     1
    C0207     R0081     1
    C0207     R0095     1
    C0207     R0109     1
    C0207     R0123     1
    C0207     R0137     1
    C0207     R0151     1
    C0207     R0165     1
    C0207     R0179     1
    C0207     R0193     1
    C0207     R0207     1
    C0207     R0221     1
    C0207     R0235     1
    C0207     R0249     1
    C0207     R0263     1
    C0207     R0277     1
    C0207     R0291     1
    C0207     R0305     1
    C0207     R0319     1
    C0207     R0333     1
    C0207     R0347     1
    C0207     R0421     1
    C0207     R1017     1
    C0207     R1185     1
    C0207     R1213     1
    C0207     R1227     1
    C0207     R1241     1
    C0207     R1255     1
    C0207     R1269     1
    C0207     R1353     1
    C0207     R1381     1
    C0207     R1423     1
    C0207     R1451     1
    C0208     OBJ       -1
    C0208     R0012     1
    C0208     R0026     1
    C0208     R0040     1
    C0208     R0054     1
    C0208     R0068     1
    C0208     R0082     1
    C0208     R0096     1
    C0208     R0110     1
    C0208     R0124     1
    C0208     R0138     1
    C0208     R0152     1
    C0208     R0166     1
    C0208     R0180     1
    C0208     R0194     1
    C0208     R0208     1
    C0208     R0222     1
    C0208     R0236     1
    C0208     R0250     1
    C0208     R0264     1
    C0208     R0278     1
    C0208     R0292     1
    C0208     R0306     1
    C0208     R0320     1
    C0208     R0334     1
    C0208     R0348     1
    C0208     R0421     1
    C0208     R1018     1
    C0208     R1186     1
    C0208     R1214     1
    C0208     R1228     1
    C0208     R1242     1
    C0208     R1256     1
    C0208     R1270     1
    C0208     R1354     1
    C0208     R1382     1
    C0208     R1424     1
    C0208     R1452     1
    C0209     OBJ       -1
    C0209     R0013     1
    C0209     R0027     1
    C0209     R0041     1
    C0209     R0055     1
    C0209     R0069     1
    C0209     R0083     1
    C0209     R0097     1
    C0209     R0111     1
    C0209     R0125     1
    C0209     R0139     1
    C0209     R0153     1
    C0209     R0167     1
    C0209     R0181     1
    C0209     R0195     1
    C0209     R0209     1
    C0209     R0223     1
    C0209     R0237     1
    C0209     R0251     1
    C0209     R0265     1
    C0209     R0279     1
    C0209     R0293     1
    C0209     R0307     1
    C0209     R0321     1
    C0209     R0335     1
    C0209     R0349     1
    C0209     R0421     1
    C0209     R1019     1
    C0209     R1187     1
    C0209     R1215     1
    C0209     R1229     1
    C0209     R1243     1
    C0209     R1257     1
    C0209     R1271     1
    C0209     R1355     1
    C0209     R1383     1
    C0209     R1425     1
    C0209     R1453     1
    C0210     OBJ       -1
    C0210     R0014     1
    C0210     R0028     1
    C0210     R0042     1
    C0210     R0056     1
    C0210     R0070     1
    C0210     R0084     1
    C0210     R0098     1
    C0210     R0112     1
    C0210     R0126     1
    C0210     R0140     1
    C0210     R0154     1
    C0210     R0168     1
    C0210     R0182     1
    C0210     R0196     1
    C0210     R0210     1
    C0210     R0224     1
    C0210     R0238     1
    C0210     R0252     1
    C0210     R0266     1
    C0210     R0280     1
    C0210     R0294     1
    C0210     R0308     1
    C0210     R0322     1
    C0210     R0336     1
    C0210     R0350     1
    C0210     R0421     1
    C0210     R1020     1
    C0210     R1188     1
    C0210     R1216     1
    C0210     R1230     1
    C0210     R1244     1
    C0210     R1258     1
    C0210     R1272     1
    C0210     R1356     1
    C0210     R1384     1
    C0210     R1426     1
    C0210     R1454     1
    C0211     OBJ       -1
    C0211     R0099     1
    C0211     R0141     1
    C0211     R0211     1
    C0211     R0267     1
    C0211     R0281     1
    C0211     R0295     1
    C0211     R0422     1
    C0211     R1021     1
    C0211     R1189     1
    C0211     R1203     1
    C0211     R1217     1
    C0211     R1245     1
    C0211     R1259     1
    C0211     R1273     1
    C0211     R1413     1
    C0211     R1441     1
    C0212     OBJ       -1
    C0212     R0100     1
    C0212     R0142     1
    C0212     R0212     1
    C0212     R0268     1
    C0212     R0282     1
    C0212     R0296     1
    C0212     R0422     1
    C0212     R1022     1
    C0212     R1190     1
    C0212     R1204     1
    C0212     R1218     1
    C0212     R1246     1
    C0212     R1260     1
    C0212     R1274     1
    C0212     R1414     1
    C0212     R1442     1
    C0213     OBJ       -1
    C0213     R0101     1
    C0213     R0143     1
    C0213     R0213     1
    C0213     R0269     1
    C0213     R0283     1
    C0213     R0297     1
    C0213     R0422     1
    C0213     R1023     1
    C0213     R1191     1
    C0213     R1205     1
    C0213     R1219     1
    C0213     R1247     1
    C0213     R1261     1
    C0213     R1275     1
    C0213     R1415     1
    C0213     R1443     1
    C0214     OBJ       -1
    C0214     R0102     1
    C0214     R0144     1
    C0214     R0214     1
    C0214     R0270     1
    C0214     R0284     1
    C0214     R0298     1
    C0214     R0422     1
    C0214     R1024     1
    C0214     R1192     1
    C0214     R1206     1
    C0214     R1220     1
    C0214     R1248     1
    C0214     R1262     1
    C0214     R1276     1
    C0214     R1416     1
    C0214     R1444     1
    C0215     OBJ       -1
    C0215     R0103     1
    C0215     R0145     1
    C0215     R0215     1
    C0215     R0271     1
    C0215     R0285     1
    C0215     R0299     1
    C0215     R0422     1
    C0215     R1025     1
    C0215     R1193     1
    C0215     R1207     1
    C0215     R1221     1
    C0215     R1249     1
    C0215     R1263     1
    C0215     R1277     1
    C0215     R1417     1
    C0215     R1445     1
    C0216     OBJ       -1
    C0216     R0104     1
    C0216     R0146     1
    C0216     R0216     1
    C0216     R0272     1
    C0216     R0286     1
    C0216     R0300     1
    C0216     R0422     1
    C0216     R1026     1
    C0216     R1194     1
    C0216     R1208     1
    C0216     R1222     1
    C0216     R1250     1
    C0216     R1264     1
    C0216     R1278     1
    C0216     R1418     1
    C0216     R1446     1
    C0217     OBJ       -1
    C0217     R0105     1
    C0217     R0147     1
    C0217     R0217     1
    C0217     R0273     1
    C0217     R0287     1
    C0217     R0301     1
    C0217     R0422     1
    C0217     R1027     1
    C0217     R1195     1
    C0217     R1209     1
    C0217     R1223     1
    C0217     R1251     1
    C0217     R1265     1
    C0217     R1279     1
    C0217     R1419     1
    C0217     R1447     1
    C0218     OBJ       -1
    C0218     R0106     1
    C0218     R0148     1
    C0218     R0218     1
    C0218     R0274     1
    C0218     R0288     1
    C0218     R0302     1
    C0218     R0422     1
    C0218     R1028     1
    C0218     R1196     1
    C0218     R1210     1
    C0218     R1224     1
    C0218     R1252     1
    C0218     R1266     1
    C0218     R1280     1
    C0218     R1420     1
    C0218     R1448     1
    C0219     OBJ       -1
    C0219     R0107     1
    C0219     R0149     1
    C0219     R0219     1
    C0219     R0275     1
    C0219     R0289     1
    C0219     R0303     1
    C0219     R0422     1
    C0219     R1029     1
    C0219     R1197     1
    C0219     R1211     1
    C0219     R1225     1
    C0219     R1253     1
    C0219     R1267     1
    C0219     R1281     1
    C0219     R1421     1
    C0219     R1449     1
    C0220     OBJ       -1
    C0220     R0108     1
    C0220     R0150     1
    C0220     R0220     1
    C0220     R0276     1
    C0220     R0290     1
    C0220     R0304     1
    C0220     R0422     1
    C0220     R1030     1
    C0220     R1198     1
    C0220     R1212     1
    C0220     R1226     1
    C0220     R1254     1
    C0220     R1268     1
    C0220     R1282     1
    C0220     R1422     1
    C0220     R1450     1
    C0221     OBJ       -1
    C0221     R0109     1
    C0221     R0151     1
    C0221     R0221     1
    C0221     R0277     1
    C0221     R0291     1
    C0221     R0305     1
    C0221     R0422     1
    C0221     R1031     1
    C0221     R1199     1
    C0221     R1213     1
    C0221     R1227     1
    C0221     R1255     1
    C0221     R1269     1
    C0221     R1283     1
    C0221     R1423     1
    C0221     R1451     1
    C0222     OBJ       -1
    C0222     R0110     1
    C0222     R0152     1
    C0222     R0222     1
    C0222     R0278     1
    C0222     R0292     1
    C0222     R0306     1
    C0222     R0422     1
    C0222     R1032     1
    C0222     R1200     1
    C0222     R1214     1
    C0222     R1228     1
    C0222     R1256     1
    C0222     R1270     1
    C0222     R1284     1
    C0222     R1424     1
    C0222     R1452     1
    C0223     OBJ       -1
    C0223     R0111     1
    C0223     R0153     1
    C0223     R0223     1
    C0223     R0279     1
    C0223     R0293     1
    C0223     R0307     1
    C0223     R0422     1
    C0223     R1033     1
    C0223     R1201     1
    C0223     R1215     1
    C0223     R1229     1
    C0223     R1257     1
    C0223     R1271     1
    C0223     R1285     1
    C0223     R1425     1
    C0223     R1453     1
    C0224     OBJ       -1
    C0224     R0112     1
    C0224     R0154     1
    C0224     R0224     1
    C0224     R0280     1
    C0224     R0294     1
    C0224     R0308     1
    C0224     R0422     1
    C0224     R1034     1
    C0224     R1202     1
    C0224     R1216     1
    C0224     R1230     1
    C0224     R1258     1
    C0224     R1272     1
    C0224     R1286     1
    C0224     R1426     1
    C0224     R1454     1
    C0225     OBJ       -1
    C0225     R0113     1
    C0225     R0155     1
    C0225     R0225     1
    C0225     R0309     1
    C0225     R0323     1
    C0225     R0337     1
    C0225     R0423     1
    C0225     R1035     1
    C0225     R1189     1
    C0225     R1203     1
    C0225     R1217     1
    C0225     R1245     1
    C0225     R1259     1
    C0225     R1273     1
    C0225     R1413     1
    C0226     OBJ       -1
    C0226     R0114     1
    C0226     R0156     1
    C0226     R0226     1
    C0226     R0310     1
    C0226     R0324     1
    C0226     R0338     1
    C0226     R0423     1
    C0226     R1036     1
    C0226     R1190     1
    C0226     R1204     1
    C0226     R1218     1
    C0226     R1246     1
    C0226     R1260     1
    C0226     R1274     1
    C0226     R1414     1
    C0227     OBJ       -1
    C0227     R0115     1
    C0227     R0157     1
    C0227     R0227     1
    C0227     R0311     1
    C0227     R0325     1
    C0227     R0339     1
    C0227     R0423     1
    C0227     R1037     1
    C0227     R1191     1
    C0227     R1205     1
    C0227     R1219     1
    C0227     R1247     1
    C0227     R1261     1
    C0227     R1275     1
    C0227     R1415     1
    C0228     OBJ       -1
    C0228     R0116     1
    C0228     R0158     1
    C0228     R0228     1
    C0228     R0312     1
    C0228     R0326     1
    C0228     R0340     1
    C0228     R0423     1
    C0228     R1038     1
    C0228     R1192     1
    C0228     R1206     1
    C0228     R1220     1
    C0228     R1248     1
    C0228     R1262     1
    C0228     R1276     1
    C0228     R1416     1
    C0229     OBJ       -1
    C0229     R0117     1
    C0229     R0159     1
    C0229     R0229     1
    C0229     R0313     1
    C0229     R0327     1
    C0229     R0341     1
    C0229     R0423     1
    C0229     R1039     1
    C0229     R1193     1
    C0229     R1207     1
    C0229     R1221     1
    C0229     R1249     1
    C0229     R1263     1
    C0229     R1277     1
    C0229     R1417     1
    C0230     OBJ       -1
    C0230     R0118     1
    C0230     R0160     1
    C0230     R0230     1
    C0230     R0314     1
    C0230     R0328     1
    C0230     R0342     1
    C0230     R0423     1
    C0230     R1040     1
    C0230     R1194     1
    C0230     R1208     1
    C0230     R1222     1
    C0230     R1250     1
    C0230     R1264     1
    C0230     R1278     1
    C0230     R1418     1
    C0231     OBJ       -1
    C0231     R0119     1
    C0231     R0161     1
    C0231     R0231     1
    C0231     R0315     1
    C0231     R0329     1
    C0231     R0343     1
    C0231     R0423     1
    C0231     R1041     1
    C0231     R1195     1
    C0231     R1209     1
    C0231     R1223     1
    C0231     R1251     1
    C0231     R1265     1
    C0231     R1279     1
    C0231     R1419     1
    C0232     OBJ       -1
    C0232     R0120     1
    C0232     R0162     1
    C0232     R0232     1
    C0232     R0316     1
    C0232     R0330     1
    C0232     R0344     1
    C0232     R0423     1
    C0232     R1042     1
    C0232     R1196     1
    C0232     R1210     1
    C0232     R1224     1
    C0232     R1252     1
    C0232     R1266     1
    C0232     R1280     1
    C0232     R1420     1
    C0233     OBJ       -1
    C0233     R0121     1
    C0233     R0163     1
    C0233     R0233     1
    C0233     R0317     1
    C0233     R0331     1
    C0233     R0345     1
    C0233     R0423     1
    C0233     R1043     1
    C0233     R1197     1
    C0233     R1211     1
    C0233     R1225     1
    C0233     R1253     1
    C0233     R1267     1
    C0233     R1281     1
    C0233     R1421     1
    C0234     OBJ       -1
    C0234     R0122     1
    C0234     R0164     1
    C0234     R0234     1
    C0234     R0318     1
    C0234     R0332     1
    C0234     R0346     1
    C0234     R0423     1
    C0234     R1044     1
    C0234     R1198     1
    C0234     R1212     1
    C0234     R1226     1
    C0234     R1254     1
    C0234     R1268     1
    C0234     R1282     1
    C0234     R1422     1
    C0235     OBJ       -1
    C0235     R0123     1
    C0235     R0165     1
    C0235     R0235     1
    C0235     R0319     1
    C0235     R0333     1
    C0235     R0347     1
    C0235     R0423     1
    C0235     R1045     1
    C0235     R1199     1
    C0235     R1213     1
    C0235     R1227     1
    C0235     R1255     1
    C0235     R1269     1
    C0235     R1283     1
    C0235     R1423     1
    C0236     OBJ       -1
    C0236     R0124     1
    C0236     R0166     1
    C0236     R0236     1
    C0236     R0320     1
    C0236     R0334     1
    C0236     R0348     1
    C0236     R0423     1
    C0236     R1046     1
    C0236     R1200     1
    C0236     R1214     1
    C0236     R1228     1
    C0236     R1256     1
    C0236     R1270     1
    C0236     R1284     1
    C0236     R1424     1
    C0237     OBJ       -1
    C0237     R0125     1
    C0237     R0167     1
    C0237     R0237     1
    C0237     R0321     1
    C0237     R0335     1
    C0237     R0349     1
    C0237     R0423     1
    C0237     R1047     1
    C0237     R1201     1
    C0237     R1215     1
    C0237     R1229     1
    C0237     R1257     1
    C0237     R1271     1
    C0237     R1285     1
    C0237     R1425     1
    C0238     OBJ       -1
    C0238     R0126     1
    C0238     R0168     1
    C0238     R0238     1
    C0238     R0322     1
    C0238     R0336     1
    C0238     R0350     1
    C0238     R0423     1
    C0238     R1048     1
    C0238     R1202     1
    C0238     R1216     1
    C0238     R1230     1
    C0238     R1258     1
    C0238     R1272     1
    C0238     R1286     1
    C0238     R1426     1
    C0239     OBJ       -1
    C0239     R0001     1
    C0239     R0015     1
    C0239     R0029     1
    C0239     R0043     1
    C0239     R0057     1
    C0239     R0071     1
    C0239     R0085     1
    C0239     R0099     1
    C0239     R0113     1
    C0239     R0127     1
    C0239     R0141     1
    C0239     R0155     1
    C0239     R0169     1
    C0239     R0183     1
    C0239     R0197     1
    C0239     R0211     1
    C0239     R0225     1
    C0239     R0239     1
    C0239     R0267     1
    C0239     R0309     1
    C0239     R0424     1
    C0239     R1049     1
    C0239     R1175     1
    C0239     R1189     1
    C0239     R1203     1
    C0239     R1273     1
    C0239     R1357     1
    C0239     R1371     1
    C0239     R1413     1
    C0240     OBJ       -1
    C0240     R0002     1
    C0240     R0016     1
    C0240     R0030     1
    C0240     R0044     1
    C0240     R0058     1
    C0240     R0072     1
    C0240     R0086     1
    C0240     R0100     1
    C0240     R0114     1
    C0240     R0128     1
    C0240     R0142     1
    C0240     R0156     1
    C0240     R0170     1
    C0240     R0184     1
    C0240     R0198     1
    C0240     R0212     1
    C0240     R0226     1
    C0240     R0240     1
    C0240     R0268     1
    C0240     R0310     1
    C0240     R0424     1
    C0240     R1050     1
    C0240     R1176     1
    C0240     R1190     1
    C0240     R1204     1
    C0240     R1274     1
    C0240     R1358     1
    C0240     R1372     1
    C0240     R1414     1
    C0241     OBJ       -1
    C0241     R0003     1
    C0241     R0017     1
    C0241     R0031     1
    C0241     R0045     1
    C0241     R0059     1
    C0241     R0073     1
    C0241     R0087     1
    C0241     R0101     1
    C0241     R0115     1
    C0241     R0129     1
    C0241     R0143     1
    C0241     R0157     1
    C0241     R0171     1
    C0241     R0185     1
    C0241     R0199     1
    C0241     R0213     1
    C0241     R0227     1
    C0241     R0241     1
    C0241     R0269     1
    C0241     R0311     1
    C0241     R0424     1
    C0241     R1051     1
    C0241     R1177     1
    C0241     R1191     1
    C0241     R1205     1
    C0241     R1275     1
    C0241     R1359     1
    C0241     R1373     1
    C0241     R1415     1
    C0242     OBJ       -1
    C0242     R0004     1
    C0242     R0018     1
    C0242     R0032     1
    C0242     R0046     1
    C0242     R0060     1
    C0242     R0074     1
    C0242     R0088     1
    C0242     R0102     1
    C0242     R0116     1
    C0242     R0130     1
    C0242     R0144     1
    C0242     R0158     1
    C0242     R0172     1
    C0242     R0186     1
    C0242     R0200     1
    C0242     R0214     1
    C0242     R0228     1
    C0242     R0242     1
    C0242     R0270     1
    C0242     R0312     1
    C0242     R0424     1
    C0242     R1052     1
    C0242     R1178     1
    C0242     R1192     1
    C0242     R1206     1
    C0242     R1276     1
    C0242     R1360     1
    C0242     R1374     1
    C0242     R1416     1
    C0243     OBJ       -1
    C0243     R0005     1
    C0243     R0019     1
    C0243     R0033     1
    C0243     R0047     1
    C0243     R0061     1
    C0243     R0075     1
    C0243     R0089     1
    C0243     R0103     1
    C0243     R0117     1
    C0243     R0131     1
    C0243     R0145     1
    C0243     R0159     1
    C0243     R0173     1
    C0243     R0187     1
    C0243     R0201     1
    C0243     R0215     1
    C0243     R0229     1
    C0243     R0243     1
    C0243     R0271     1
    C0243     R0313     1
    C0243     R0424     1
    C0243     R1053     1
    C0243     R1179     1
    C0243     R1193     1
    C0243     R1207     1
    C0243     R1277     1
    C0243     R1361     1
    C0243     R1375     1
    C0243     R1417     1
    C0244     OBJ       -1
    C0244     R0006     1
    C0244     R0020     1
    C0244     R0034     1
    C0244     R0048     1
    C0244     R0062     1
    C0244     R0076     1
    C0244     R0090     1
    C0244     R0104     1
    C0244     R0118     1
    C0244     R0132     1
    C0244     R0146     1
    C0244     R0160     1
    C0244     R0174     1
    C0244     R0188     1
    C0244     R0202     1
    C0244     R0216     1
    C0244     R0230     1
    C0244     R0244     1
    C0244     R0272     1
    C0244     R0314     1
    C0244     R0424     1
    C0244     R1054     1
    C0244     R1180     1
    C0244     R1194     1
    C0244     R1208     1
    C0244     R1278     1
    C0244     R1362     1
    C0244     R1376     1
    C0244     R1418     1
    C0245     OBJ       -1
    C0245     R0007     1
    C0245     R0021     1
    C0245     R0035     1
    C0245     R0049     1
    C0245     R0063     1
    C0245     R0077     1
    C0245     R0091     1
    C0245     R0105     1
    C0245     R0119     1
    C0245     R0133     1
    C0245     R0147     1
    C0245     R0161     1
    C0245     R0175     1
    C0245     R0189     1
    C0245     R0203     1
    C0245     R0217     1
    C0245     R0231     1
    C0245     R0245     1
    C0245     R0273     1
    C0245     R0315     1
    C0245     R0424     1
    C0245     R1055     1
    C0245     R1181     1
    C0245     R1195     1
    C0245     R1209     1
    C0245     R1279     1
    C0245     R1363     1
    C0245     R1377     1
    C0245     R1419     1
    C0246     OBJ       -1
    C0246     R0008     1
    C0246     R0022     1
    C0246     R0036     1
    C0246     R0050     1
    C0246     R0064     1
    C0246     R0078     1
    C0246     R0092     1
    C0246     R0106     1
    C0246     R0120     1
    C0246     R0134     1
    C0246     R0148     1
    C0246     R0162     1
    C0246     R0176     1
    C0246     R0190     1
    C0246     R0204     1
    C0246     R0218     1
    C0246     R0232     1
    C0246     R0246     1
    C0246     R0274     1
    C0246     R0316     1
    C0246     R0424     1
    C0246     R1056     1
    C0246     R1182     1
    C0246     R1196     1
    C0246     R1210     1
    C0246     R1280     1
    C0246     R1364     1
    C0246     R1378     1
    C0246     R1420     1
    C0247     OBJ       -1
    C0247     R0009     1
    C0247     R0023     1
    C0247     R0037     1
    C0247     R0051     1
    C0247     R0065     1
    C0247     R0079     1
    C0247     R0093     1
    C0247     R0107     1
    C0247     R0121     1
    C0247     R0135     1
    C0247     R0149     1
    C0247     R0163     1
    C0247     R0177     1
    C0247     R0191     1
    C0247     R0205     1
    C0247     R0219     1
    C0247     R0233     1
    C0247     R0247     1
    C0247     R0275     1
    C0247     R0317     1
    C0247     R0424     1
    C0247     R1057     1
    C0247     R1183     1
    C0247     R1197     1
    C0247     R1211     1
    C0247     R1281     1
    C0247     R1365     1
    C0247     R1379     1
    C0247     R1421     1
    C0248     OBJ       -1
    C0248     R0010     1
    C0248     R0024     1
    C0248     R0038     1
    C0248     R0052     1
    C0248     R0066     1
    C0248     R0080     1
    C0248     R0094     1
    C0248     R0108     1
    C0248     R0122     1
    C0248     R0136     1
    C0248     R0150     1
    C0248     R0164     1
    C0248     R0178     1
    C0248     R0192     1
    C0248     R0206     1
    C0248     R0220     1
    C0248     R0234     1
    C0248     R0248     1
    C0248     R0276     1
    C0248     R0318     1
    C0248     R0424     1
    C0248     R1058     1
    C0248     R1184     1
    C0248     R1198     1
    C0248     R1212     1
    C0248     R1282     1
    C0248     R1366     1
    C0248     R1380     1
    C0248     R1422     1
    C0249     OBJ       -1
    C0249     R0011     1
    C0249     R0025     1
    C0249     R0039     1
    C0249     R0053     1
    C0249     R0067     1
    C0249     R0081     1
    C0249     R0095     1
    C0249     R0109     1
    C0249     R0123     1
    C0249     R0137     1
    C0249     R0151     1
    C0249     R0165     1
    C0249     R0179     1
    C0249     R0193     1
    C0249     R0207     1
    C0249     R0221     1
    C0249     R0235     1
    C0249     R0249     1
    C0249     R0277     1
    C0249     R0319     1
    C0249     R0424     1
    C0249     R1059     1
    C0249     R1185     1
    C0249     R1199     1
    C0249     R1213     1
    C0249     R1283     1
    C0249     R1367     1
    C0249     R1381     1
    C0249     R1423     1
    C0250     OBJ       -1
    C0250     R0012     1
    C0250     R0026     1
    C0250     R0040     1
    C0250     R0054     1
    C0250     R0068     1
    C0250     R0082     1
    C0250     R0096     1
    C0250     R0110     1
    C0250     R0124     1
    C0250     R0138     1
    C0250     R0152     1
    C0250     R0166     1
    C0250     R0180     1
    C0250     R0194     1
    C0250     R0208     1
    C0250     R0222     1
    C0250     R0236     1
    C0250     R0250     1
    C0250     R0278     1
    C0250     R0320     1
    C0250     R0424     1
    C0250     R1060     1
    C0250     R1186     1
    C0250     R1200     1
    C0250     R1214     1
    C0250     R1284     1
    C0250     R1368     1
    C0250     R1382     1
    C0250     R1424     1
    C0251     OBJ       -1
    C0251     R0013     1
    C0251     R0027     1
    C0251     R0041     1
    C0251     R0055     1
    C0251     R0069     1
    C0251     R0083     1
    C0251     R0097     1
    C0251     R0111     1
    C0251     R0125     1
    C0251     R0139     1
    C0251     R0153     1
    C0251     R0167     1
    C0251     R0181     1
    C0251     R0195     1
    C0251     R0209     1
    C0251     R0223     1
    C0251     R0237     1
    C0251     R0251     1
    C0251     R0279     1
    C0251     R0321     1
    C0251     R0424     1
    C0251     R1061     1
    C0251     R1187     1
    C0251     R1201     1
    C0251     R1215     1
    C0251     R1285     1
    C0251     R1369     1
    C0251     R1383     1
    C0251     R1425     1
    C0252     OBJ       -1
    C0252     R0014     1
    C0252     R0028     1
    C0252     R0042     1
    C0252     R0056     1
    C0252     R0070     1
    C0252     R0084     1
    C0252     R0098     1
    C0252     R0112     1
    C0252     R0126     1
    C0252     R0140     1
    C0252     R0154     1
    C0252     R0168     1
    C0252     R0182     1
    C0252     R0196     1
    C0252     R0210     1
    C0252     R0224     1
    C0252     R0238     1
    C0252     R0252     1
    C0252     R0280     1
    C0252     R0322     1
    C0252     R0424     1
    C0252     R1062     1
    C0252     R1188     1
    C0252     R1202     1
    C0252     R1216     1
    C0252     R1286     1
    C0252     R1370     1
    C0252     R1384     1
    C0252     R1426     1
    C0253     OBJ       -1
    C0253     R0281     1
    C0253     R0295     1
    C0253     R0323     1
    C0253     R0337     1
    C0253     R0425     1
    C0253     R1063     1
    C0253     R1189     1
    C0253     R1273     1
    C0253     R1357     1
    C0253     R1371     1
    C0254     OBJ       -1
    C0254     R0282     1
    C0254     R0296     1
    C0254     R0324     1
    C0254     R0338     1
    C0254     R0425     1
    C0254     R1064     1
    C0254     R1190     1
    C0254     R1274     1
    C0254     R1358     1
    C0254     R1372     1
    C0255     OBJ       -1
    C0255     R0283     1
    C0255     R0297     1
    C0255     R0325     1
    C0255     R0339     1
    C0255     R0425     1
    C0255     R1065     1
    C0255     R1191     1
    C0255     R1275     1
    C0255     R1359     1
    C0255     R1373     1
    C0256     OBJ       -1
    C0256     R0284     1
    C0256     R0298     1
    C0256     R0326     1
    C0256     R0340     1
    C0256     R0425     1
    C0256     R1066     1
    C0256     R1192     1
    C0256     R1276     1
    C0256     R1360     1
    C0256     R1374     1
    C0257     OBJ       -1
    C0257     R0285     1
    C0257     R0299     1
    C0257     R0327     1
    C0257     R0341     1
    C0257     R0425     1
    C0257     R1067     1
    C0257     R1193     1
    C0257     R1277     1
    C0257     R1361     1
    C0257     R1375     1
    C0258     OBJ       -1
    C0258     R0286     1
    C0258     R0300     1
    C0258     R0328     1
    C0258     R0342     1
    C0258     R0425     1
    C0258     R1068     1
    C0258     R1194     1
    C0258     R1278     1
    C0258     R1362     1
    C0258     R1376     1
    C0259     OBJ       -1
    C0259     R0287     1
    C0259     R0301     1
    C0259     R0329     1
    C0259     R0343     1
    C0259     R0425     1
    C0259     R1069     1
    C0259     R1195     1
    C0259     R1279     1
    C0259     R1363     1
    C0259     R1377     1
    C0260     OBJ       -1
    C0260     R0288     1
    C0260     R0302     1
    C0260     R0330     1
    C0260     R0344     1
    C0260     R0425     1
    C0260     R1070     1
    C0260     R1196     1
    C0260     R1280     1
    C0260     R1364     1
    C0260     R1378     1
    C0261     OBJ       -1
    C0261     R0289     1
    C0261     R0303     1
    C0261     R0331     1
    C0261     R0345     1
    C0261     R0425     1
    C0261     R1071     1
    C0261     R1197     1
    C0261     R1281     1
    C0261     R1365     1
    C0261     R1379     1
    C0262     OBJ       -1
    C0262     R0290     1
    C0262     R0304     1
    C0262     R0332     1
    C0262     R0346     1
    C0262     R0425     1
    C0262     R1072     1
    C0262     R1198     1
    C0262     R1282     1
    C0262     R1366     1
    C0262     R1380     1
    C0263     OBJ       -1
    C0263     R0291     1
    C0263     R0305     1
    C0263     R0333     1
    C0263     R0347     1
    C0263     R0425     1
    C0263     R1073     1
    C0263     R1199     1
    C0263     R1283     1
    C0263     R1367     1
    C0263     R1381     1
    C0264     OBJ       -1
    C0264     R0292     1
    C0264     R0306     1
    C0264     R0334     1
    C0264     R0348     1
    C0264     R0425     1
    C0264     R1074     1
    C0264     R1200     1
    C0264     R1284     1
    C0264     R1368     1
    C0264     R1382     1
    C0265     OBJ       -1
    C0265     R0293     1
    C0265     R0307     1
    C0265     R0335     1
    C0265     R0349     1
    C0265     R0425     1
    C0265     R1075     1
    C0265     R1201     1
    C0265     R1285     1
    C0265     R1369     1
    C0265     R1383     1
    C0266     OBJ       -1
    C0266     R0294     1
    C0266     R0308     1
    C0266     R0336     1
    C0266     R0350     1
    C0266     R0425     1
    C0266     R1076     1
    C0266     R1202     1
    C0266     R1286     1
    C0266     R1370     1
    C0266     R1384     1
    C0267     OBJ       -1
    C0267     R0253     1
    C0267     R0295     1
    C0267     R0337     1
    C0267     R0426     1
    C0267     R1077     1
    C0267     R1441     1
    C0268     OBJ       -1
    C0268     R0254     1
    C0268     R0296     1
    C0268     R0338     1
    C0268     R0426     1
    C0268     R1078     1
    C0268     R1442     1
    C0269     OBJ       -1
    C0269     R0255     1
    C0269     R0297     1
    C0269     R0339     1
    C0269     R0426     1
    C0269     R1079     1
    C0269     R1443     1
    C0270     OBJ       -1
    C0270     R0256     1
    C0270     R0298     1
    C0270     R0340     1
    C0270     R0426     1
    C0270     R1080     1
    C0270     R1444     1
    C0271     OBJ       -1
    C0271     R0257     1
    C0271     R0299     1
    C0271     R0341     1
    C0271     R0426     1
    C0271     R1081     1
    C0271     R1445     1
    C0272     OBJ       -1
    C0272     R0258     1
    C0272     R0300     1
    C0272     R0342     1
    C0272     R0426     1
    C0272     R1082     1
    C0272     R1446     1
    C0273     OBJ       -1
    C0273     R0259     1
    C0273     R0301     1
    C0273     R0343     1
    C0273     R0426     1
    C0273     R1083     1
    C0273     R1447     1
    C0274     OBJ       -1
    C0274     R0260     1
    C0274     R0302     1
    C0274     R0344     1
    C0274     R0426     1
    C0274     R1084     1
    C0274     R1448     1
    C0275     OBJ       -1
    C0275     R0261     1
    C0275     R0303     1
    C0275     R0345     1
    C0275     R0426     1
    C0275     R1085     1
    C0275     R1449     1
    C0276     OBJ       -1
    C0276     R0262     1
    C0276     R0304     1
    C0276     R0346     1
    C0276     R0426     1
    C0276     R1086     1
    C0276     R1450     1
    C0277     OBJ       -1
    C0277     R0263     1
    C0277     R0305     1
    C0277     R0347     1
    C0277     R0426     1
    C0277     R1087     1
    C0277     R1451     1
    C0278     OBJ       -1
    C0278     R0264     1
    C0278     R0306     1
    C0278     R0348     1
    C0278     R0426     1
    C0278     R1088     1
    C0278     R1452     1
    C0279     OBJ       -1
    C0279     R0265     1
    C0279     R0307     1
    C0279     R0349     1
    C0279     R0426     1
    C0279     R1089     1
    C0279     R1453     1
    C0280     OBJ       -1
    C0280     R0266     1
    C0280     R0308     1
    C0280     R0350     1
    C0280     R0426     1
    C0280     R1090     1
    C0280     R1454     1
    MARKER    'MARKER'                 'INTORG'
    C0365     R0433     1
    C0365     R0811     -4
    C0365     R1175     4
    C0366     R0434     1
    C0366     R0812     -4
    C0366     R1176     4
    C0367     R0435     1
    C0367     R0813     -4
    C0367     R1177     4
    C0368     R0436     1
    C0368     R0814     -4
    C0368     R1178     4
    C0369     R0437     1
    C0369     R0815     -4
    C0369     R1179     4
    C0370     R0438     1
    C0370     R0816     -4
    C0370     R1180     4
    C0371     R0439     1
    C0371     R0817     -4
    C0371     R1181     4
    C0372     R0440     1
    C0372     R0818     -4
    C0372     R1182     4
    C0373     R0441     1
    C0373     R0819     -4
    C0373     R1183     4
    C0374     R0442     1
    C0374     R0820     -4
    C0374     R1184     4
    C0375     R0443     1
    C0375     R0821     -4
    C0375     R1185     4
    C0376     R0444     1
    C0376     R0822     -4
    C0376     R1186     4
    C0377     R0445     1
    C0377     R0823     -4
    C0377     R1187     4
    C0378     R0446     1
    C0378     R0824     -4
    C0378     R1188     4
    C0379     R0433     1
    C0379     R0629     1
    C0379     R0825     -4
    C0379     R1189     12
    C0380     R0434     1
    C0380     R0630     1
    C0380     R0826     -4
    C0380     R1190     12
    C0381     R0435     1
    C0381     R0631     1
    C0381     R0827     -4
    C0381     R1191     12
    C0382     R0436     1
    C0382     R0632     1
    C0382     R0828     -4
    C0382     R1192     12
    C0383     R0437     1
    C0383     R0633     1
    C0383     R0829     -4
    C0383     R1193     12
    C0384     R0438     1
    C0384     R0634     1
    C0384     R0830     -4
    C0384     R1194     12
    C0385     R0439     1
    C0385     R0635     1
    C0385     R0831     -4
    C0385     R1195     12
    C0386     R0440     1
    C0386     R0636     1
    C0386     R0832     -4
    C0386     R1196     12
    C0387     R0441     1
    C0387     R0637     1
    C0387     R0833     -4
    C0387     R1197     12
    C0388     R0442     1
    C0388     R0638     1
    C0388     R0834     -4
    C0388     R1198     12
    C0389     R0443     1
    C0389     R0639     1
    C0389     R0835     -4
    C0389     R1199     12
    C0390     R0444     1
    C0390     R0640     1
    C0390     R0836     -4
    C0390     R1200     12
    C0391     R0445     1
    C0391     R0641     1
    C0391     R0837     -4
    C0391     R1201     12
    C0392     R0446     1
    C0392     R0642     1
    C0392     R0838     -4
    C0392     R1202     12
    C0393     R0447     1
    C0393     R0461     1
    C0393     R0839     -4
    C0393     R1203     8
    C0394     R0448     1
    C0394     R0462     1
    C0394     R0840     -4
    C0394     R1204     8
    C0395     R0449     1
    C0395     R0463     1
    C0395     R0841     -4
    C0395     R1205     8
    C0396     R0450     1
    C0396     R0464     1
    C0396     R0842     -4
    C0396     R1206     8
    C0397     R0451     1
    C0397     R0465     1
    C0397     R0843     -4
    C0397     R1207     8
    C0398     R0452     1
    C0398     R0466     1
    C0398     R0844     -4
    C0398     R1208     8
    C0399     R0453     1
    C0399     R0467     1
    C0399     R0845     -4
    C0399     R1209     8
    C0400     R0454     1
    C0400     R0468     1
    C0400     R0846     -4
    C0400     R1210     8
    C0401     R0455     1
    C0401     R0469     1
    C0401     R0847     -4
    C0401     R1211     8
    C0402     R0456     1
    C0402     R0470     1
    C0402     R0848     -4
    C0402     R1212     8
    C0403     R0457     1
    C0403     R0471     1
    C0403     R0849     -4
    C0403     R1213     8
    C0404     R0458     1
    C0404     R0472     1
    C0404     R0850     -4
    C0404     R1214     8
    C0405     R0459     1
    C0405     R0473     1
    C0405     R0851     -4
    C0405     R1215     8
    C0406     R0460     1
    C0406     R0474     1
    C0406     R0852     -4
    C0406     R1216     8
    C0407     R0587     1
    C0407     R0853     -4
    C0407     R1217     8
    C0408     R0588     1
    C0408     R0854     -4
    C0408     R1218     8
    C0409     R0589     1
    C0409     R0855     -4
    C0409     R1219     8
    C0410     R0590     1
    C0410     R0856     -4
    C0410     R1220     8
    C0411     R0591     1
    C0411     R0857     -4
    C0411     R1221     8
    C0412     R0592     1
    C0412     R0858     -4
    C0412     R1222     8
    C0413     R0593     1
    C0413     R0859     -4
    C0413     R1223     8
    C0414     R0594     1
    C0414     R0860     -4
    C0414     R1224     8
    C0415     R0595     1
    C0415     R0861     -4
    C0415     R1225     8
    C0416     R0596     1
    C0416     R0862     -4
    C0416     R1226     8
    C0417     R0597     1
    C0417     R0863     -4
    C0417     R1227     8
    C0418     R0598     1
    C0418     R0864     -4
    C0418     R1228     8
    C0419     R0599     1
    C0419     R0865     -4
    C0419     R1229     8
    C0420     R0600     1
    C0420     R0866     -4
    C0420     R1230     8
    C0421     R0447     1
    C0421     R0475     1
    C0421     R0489     1
    C0421     R0867     -4
    C0421     R1231     8
    C0422     R0448     1
    C0422     R0476     1
    C0422     R0490     1
    C0422     R0868     -4
    C0422     R1232     8
    C0423     R0449     1
    C0423     R0477     1
    C0423     R0491     1
    C0423     R0869     -4
    C0423     R1233     8
    C0424     R0450     1
    C0424     R0478     1
    C0424     R0492     1
    C0424     R0870     -4
    C0424     R1234     8
    C0425     R0451     1
    C0425     R0479     1
    C0425     R0493     1
    C0425     R0871     -4
    C0425     R1235     8
    C0426     R0452     1
    C0426     R0480     1
    C0426     R0494     1
    C0426     R0872     -4
    C0426     R1236     8
    C0427     R0453     1
    C0427     R0481     1
    C0427     R0495     1
    C0427     R0873     -4
    C0427     R1237     8
    C0428     R0454     1
    C0428     R0482     1
    C0428     R0496     1
    C0428     R0874     -4
    C0428     R1238     8
    C0429     R0455     1
    C0429     R0483     1
    C0429     R0497     1
    C0429     R0875     -4
    C0429     R1239     8
    C0430     R0456     1
    C0430     R0484     1
    C0430     R0498     1
    C0430     R0876     -4
    C0430     R1240     8
    C0431     R0457     1
    C0431     R0485     1
    C0431     R0499     1
    C0431     R0877     -4
    C0431     R1241     8
    C0432     R0458     1
    C0432     R0486     1
    C0432     R0500     1
    C0432     R0878     -4
    C0432     R1242     8
    C0433     R0459     1
    C0433     R0487     1
    C0433     R0501     1
    C0433     R0879     -4
    C0433     R1243     8
    C0434     R0460     1
    C0434     R0488     1
    C0434     R0502     1
    C0434     R0880     -4
    C0434     R1244     8
    C0435     R0461     1
    C0435     R0713     1
    C0435     R0881     -4
    C0435     R1245     8
    C0436     R0462     1
    C0436     R0714     1
    C0436     R0882     -4
    C0436     R1246     8
    C0437     R0463     1
    C0437     R0715     1
    C0437     R0883     -4
    C0437     R1247     8
    C0438     R0464     1
    C0438     R0716     1
    C0438     R0884     -4
    C0438     R1248     8
    C0439     R0465     1
    C0439     R0717     1
    C0439     R0885     -4
    C0439     R1249     8
    C0440     R0466     1
    C0440     R0718     1
    C0440     R0886     -4
    C0440     R1250     8
    C0441     R0467     1
    C0441     R0719     1
    C0441     R0887     -4
    C0441     R1251     8
    C0442     R0468     1
    C0442     R0720     1
    C0442     R0888     -4
    C0442     R1252     8
    C0443     R0469     1
    C0443     R0721     1
    C0443     R0889     -4
    C0443     R1253     8
    C0444     R0470     1
    C0444     R0722     1
    C0444     R0890     -4
    C0444     R1254     8
    C0445     R0471     1
    C0445     R0723     1
    C0445     R0891     -4
    C0445     R1255     8
    C0446     R0472     1
    C0446     R0724     1
    C0446     R0892     -4
    C0446     R1256     8
    C0447     R0473     1
    C0447     R0725     1
    C0447     R0893     -4
    C0447     R1257     8
    C0448     R0474     1
    C0448     R0726     1
    C0448     R0894     -4
    C0448     R1258     8
    C0449     R0475     1
    C0449     R0601     1
    C0449     R0895     -4
    C0449     R1259     8
    C0450     R0476     1
    C0450     R0602     1
    C0450     R0896     -4
    C0450     R1260     8
    C0451     R0477     1
    C0451     R0603     1
    C0451     R0897     -4
    C0451     R1261     8
    C0452     R0478     1
    C0452     R0604     1
    C0452     R0898     -4
    C0452     R1262     8
    C0453     R0479     1
    C0453     R0605     1
    C0453     R0899     -4
    C0453     R1263     8
    C0454     R0480     1
    C0454     R0606     1
    C0454     R0900     -4
    C0454     R1264     8
    C0455     R0481     1
    C0455     R0607     1
    C0455     R0901     -4
    C0455     R1265     8
    C0456     R0482     1
    C0456     R0608     1
    C0456     R0902     -4
    C0456     R1266     8
    C0457     R0483     1
    C0457     R0609     1
    C0457     R0903     -4
    C0457     R1267     8
    C0458     R0484     1
    C0458     R0610     1
    C0458     R0904     -4
    C0458     R1268     8
    C0459     R0485     1
    C0459     R0611     1
    C0459     R0905     -4
    C0459     R1269     8
    C0460     R0486     1
    C0460     R0612     1
    C0460     R0906     -4
    C0460     R1270     8
    C0461     R0487     1
    C0461     R0613     1
    C0461     R0907     -4
    C0461     R1271     8
    C0462     R0488     1
    C0462     R0614     1
    C0462     R0908     -4
    C0462     R1272     8
    C0463     R0489     1
    C0463     R0643     1
    C0463     R0909     -4
    C0463     R1273     12
    C0464     R0490     1
    C0464     R0644     1
    C0464     R0910     -4
    C0464     R1274     12
    C0465     R0491     1
    C0465     R0645     1
    C0465     R0911     -4
    C0465     R1275     12
    C0466     R0492     1
    C0466     R0646     1
    C0466     R0912     -4
    C0466     R1276     12
    C0467     R0493     1
    C0467     R0647     1
    C0467     R0913     -4
    C0467     R1277     12
    C0468     R0494     1
    C0468     R0648     1
    C0468     R0914     -4
    C0468     R1278     12
    C0469     R0495     1
    C0469     R0649     1
    C0469     R0915     -4
    C0469     R1279     12
    C0470     R0496     1
    C0470     R0650     1
    C0470     R0916     -4
    C0470     R1280     12
    C0471     R0497     1
    C0471     R0651     1
    C0471     R0917     -4
    C0471     R1281     12
    C0472     R0498     1
    C0472     R0652     1
    C0472     R0918     -4
    C0472     R1282     12
    C0473     R0499     1
    C0473     R0653     1
    C0473     R0919     -4
    C0473     R1283     12
    C0474     R0500     1
    C0474     R0654     1
    C0474     R0920     -4
    C0474     R1284     12
    C0475     R0501     1
    C0475     R0655     1
    C0475     R0921     -4
    C0475     R1285     12
    C0476     R0502     1
    C0476     R0656     1
    C0476     R0922     -4
    C0476     R1286     12
    C0533     R0559     1
    C0533     R0573     1
    C0533     R0979     -4
    C0533     R1343     8
    C0534     R0560     1
    C0534     R0574     1
    C0534     R0980     -4
    C0534     R1344     8
    C0535     R0561     1
    C0535     R0575     1
    C0535     R0981     -4
    C0535     R1345     8
    C0536     R0562     1
    C0536     R0576     1
    C0536     R0982     -4
    C0536     R1346     8
    C0537     R0563     1
    C0537     R0577     1
    C0537     R0983     -4
    C0537     R1347     8
    C0538     R0564     1
    C0538     R0578     1
    C0538     R0984     -4
    C0538     R1348     8
    C0539     R0565     1
    C0539     R0579     1
    C0539     R0985     -4
    C0539     R1349     8
    C0540     R0566     1
    C0540     R0580     1
    C0540     R0986     -4
    C0540     R1350     8
    C0541     R0567     1
    C0541     R0581     1
    C0541     R0987     -4
    C0541     R1351     8
    C0542     R0568     1
    C0542     R0582     1
    C0542     R0988     -4
    C0542     R1352     8
    C0543     R0569     1
    C0543     R0583     1
    C0543     R0989     -4
    C0543     R1353     8
    C0544     R0570     1
    C0544     R0584     1
    C0544     R0990     -4
    C0544     R1354     8
    C0545     R0571     1
    C0545     R0585     1
    C0545     R0991     -4
    C0545     R1355     8
    C0546     R0572     1
    C0546     R0586     1
    C0546     R0992     -4
    C0546     R1356     8
    C0547     R0559     1
    C0547     R0587     1
    C0547     R0601     1
    C0547     R0657     1
    C0547     R0685     1
    C0547     R0993     -4
    C0547     R1357     8
    C0548     R0560     1
    C0548     R0588     1
    C0548     R0602     1
    C0548     R0658     1
    C0548     R0686     1
    C0548     R0994     -4
    C0548     R1358     8
    C0549     R0561     1
    C0549     R0589     1
    C0549     R0603     1
    C0549     R0659     1
    C0549     R0687     1
    C0549     R0995     -4
    C0549     R1359     8
    C0550     R0562     1
    C0550     R0590     1
    C0550     R0604     1
    C0550     R0660     1
    C0550     R0688     1
    C0550     R0996     -4
    C0550     R1360     8
    C0551     R0563     1
    C0551     R0591     1
    C0551     R0605     1
    C0551     R0661     1
    C0551     R0689     1
    C0551     R0997     -4
    C0551     R1361     8
    C0552     R0564     1
    C0552     R0592     1
    C0552     R0606     1
    C0552     R0662     1
    C0552     R0690     1
    C0552     R0998     -4
    C0552     R1362     8
    C0553     R0565     1
    C0553     R0593     1
    C0553     R0607     1
    C0553     R0663     1
    C0553     R0691     1
    C0553     R0999     -4
    C0553     R1363     8
    C0554     R0566     1
    C0554     R0594     1
    C0554     R0608     1
    C0554     R0664     1
    C0554     R0692     1
    C0554     R1000     -4
    C0554     R1364     8
    C0555     R0567     1
    C0555     R0595     1
    C0555     R0609     1
    C0555     R0665     1
    C0555     R0693     1
    C0555     R1001     -4
    C0555     R1365     8
    C0556     R0568     1
    C0556     R0596     1
    C0556     R0610     1
    C0556     R0666     1
    C0556     R0694     1
    C0556     R1002     -4
    C0556     R1366     8
    C0557     R0569     1
    C0557     R0597     1
    C0557     R0611     1
    C0557     R0667     1
    C0557     R0695     1
    C0557     R1003     -4
    C0557     R1367     8
    C0558     R0570     1
    C0558     R0598     1
    C0558     R0612     1
    C0558     R0668     1
    C0558     R0696     1
    C0558     R1004     -4
    C0558     R1368     8
    C0559     R0571     1
    C0559     R0599     1
    C0559     R0613     1
    C0559     R0669     1
    C0559     R0697     1
    C0559     R1005     -4
    C0559     R1369     8
    C0560     R0572     1
    C0560     R0600     1
    C0560     R0614     1
    C0560     R0670     1
    C0560     R0698     1
    C0560     R1006     -4
    C0560     R1370     8
    C0561     R0573     1
    C0561     R0629     1
    C0561     R0643     1
    C0561     R0671     1
    C0561     R0699     1
    C0561     R1007     -4
    C0561     R1371     8
    C0562     R0574     1
    C0562     R0630     1
    C0562     R0644     1
    C0562     R0672     1
    C0562     R0700     1
    C0562     R1008     -4
    C0562     R1372     8
    C0563     R0575     1
    C0563     R0631     1
    C0563     R0645     1
    C0563     R0673     1
    C0563     R0701     1
    C0563     R1009     -4
    C0563     R1373     8
    C0564     R0576     1
    C0564     R0632     1
    C0564     R0646     1
    C0564     R0674     1
    C0564     R0702     1
    C0564     R1010     -4
    C0564     R1374     8
    C0565     R0577     1
    C0565     R0633     1
    C0565     R0647     1
    C0565     R0675     1
    C0565     R0703     1
    C0565     R1011     -4
    C0565     R1375     8
    C0566     R0578     1
    C0566     R0634     1
    C0566     R0648     1
    C0566     R0676     1
    C0566     R0704     1
    C0566     R1012     -4
    C0566     R1376     8
    C0567     R0579     1
    C0567     R0635     1
    C0567     R0649     1
    C0567     R0677     1
    C0567     R0705     1
    C0567     R1013     -4
    C0567     R1377     8
    C0568     R0580     1
    C0568     R0636     1
    C0568     R0650     1
    C0568     R0678     1
    C0568     R0706     1
    C0568     R1014     -4
    C0568     R1378     8
    C0569     R0581     1
    C0569     R0637     1
    C0569     R0651     1
    C0569     R0679     1
    C0569     R0707     1
    C0569     R1015     -4
    C0569     R1379     8
    C0570     R0582     1
    C0570     R0638     1
    C0570     R0652     1
    C0570     R0680     1
    C0570     R0708     1
    C0570     R1016     -4
    C0570     R1380     8
    C0571     R0583     1
    C0571     R0639     1
    C0571     R0653     1
    C0571     R0681     1
    C0571     R0709     1
    C0571     R1017     -4
    C0571     R1381     8
    C0572     R0584     1
    C0572     R0640     1
    C0572     R0654     1
    C0572     R0682     1
    C0572     R0710     1
    C0572     R1018     -4
    C0572     R1382     8
    C0573     R0585     1
    C0573     R0641     1
    C0573     R0655     1
    C0573     R0683     1
    C0573     R0711     1
    C0573     R1019     -4
    C0573     R1383     8
    C0574     R0586     1
    C0574     R0642     1
    C0574     R0656     1
    C0574     R0684     1
    C0574     R0712     1
    C0574     R1020     -4
    C0574     R1384     8
    C0575     R0657     1
    C0575     R0671     1
    C0575     R1021     -4
    C0576     R0658     1
    C0576     R0672     1
    C0576     R1022     -4
    C0577     R0659     1
    C0577     R0673     1
    C0577     R1023     -4
    C0578     R0660     1
    C0578     R0674     1
    C0578     R1024     -4
    C0579     R0661     1
    C0579     R0675     1
    C0579     R1025     -4
    C0580     R0662     1
    C0580     R0676     1
    C0580     R1026     -4
    C0581     R0663     1
    C0581     R0677     1
    C0581     R1027     -4
    C0582     R0664     1
    C0582     R0678     1
    C0582     R1028     -4
    C0583     R0665     1
    C0583     R0679     1
    C0583     R1029     -4
    C0584     R0666     1
    C0584     R0680     1
    C0584     R1030     -4
    C0585     R0667     1
    C0585     R0681     1
    C0585     R1031     -4
    C0586     R0668     1
    C0586     R0682     1
    C0586     R1032     -4
    C0587     R0669     1
    C0587     R0683     1
    C0587     R1033     -4
    C0588     R0670     1
    C0588     R0684     1
    C0588     R1034     -4
    C0589     R0685     1
    C0589     R0699     1
    C0589     R0741     1
    C0589     R1035     -4
    C0590     R0686     1
    C0590     R0700     1
    C0590     R0742     1
    C0590     R1036     -4
    C0591     R0687     1
    C0591     R0701     1
    C0591     R0743     1
    C0591     R1037     -4
    C0592     R0688     1
    C0592     R0702     1
    C0592     R0744     1
    C0592     R1038     -4
    C0593     R0689     1
    C0593     R0703     1
    C0593     R0745     1
    C0593     R1039     -4
    C0594     R0690     1
    C0594     R0704     1
    C0594     R0746     1
    C0594     R1040     -4
    C0595     R0691     1
    C0595     R0705     1
    C0595     R0747     1
    C0595     R1041     -4
    C0596     R0692     1
    C0596     R0706     1
    C0596     R0748     1
    C0596     R1042     -4
    C0597     R0693     1
    C0597     R0707     1
    C0597     R0749     1
    C0597     R1043     -4
    C0598     R0694     1
    C0598     R0708     1
    C0598     R0750     1
    C0598     R1044     -4
    C0599     R0695     1
    C0599     R0709     1
    C0599     R0751     1
    C0599     R1045     -4
    C0600     R0696     1
    C0600     R0710     1
    C0600     R0752     1
    C0600     R1046     -4
    C0601     R0697     1
    C0601     R0711     1
    C0601     R0753     1
    C0601     R1047     -4
    C0602     R0698     1
    C0602     R0712     1
    C0602     R0754     1
    C0602     R1048     -4
    C0603     R0559     1
    C0603     R0713     1
    C0603     R1049     -4
    C0603     R1413     8
    C0604     R0560     1
    C0604     R0714     1
    C0604     R1050     -4
    C0604     R1414     8
    C0605     R0561     1
    C0605     R0715     1
    C0605     R1051     -4
    C0605     R1415     8
    C0606     R0562     1
    C0606     R0716     1
    C0606     R1052     -4
    C0606     R1416     8
    C0607     R0563     1
    C0607     R0717     1
    C0607     R1053     -4
    C0607     R1417     8
    C0608     R0564     1
    C0608     R0718     1
    C0608     R1054     -4
    C0608     R1418     8
    C0609     R0565     1
    C0609     R0719     1
    C0609     R1055     -4
    C0609     R1419     8
    C0610     R0566     1
    C0610     R0720     1
    C0610     R1056     -4
    C0610     R1420     8
    C0611     R0567     1
    C0611     R0721     1
    C0611     R1057     -4
    C0611     R1421     8
    C0612     R0568     1
    C0612     R0722     1
    C0612     R1058     -4
    C0612     R1422     8
    C0613     R0569     1
    C0613     R0723     1
    C0613     R1059     -4
    C0613     R1423     8
    C0614     R0570     1
    C0614     R0724     1
    C0614     R1060     -4
    C0614     R1424     8
    C0615     R0571     1
    C0615     R0725     1
    C0615     R1061     -4
    C0615     R1425     8
    C0616     R0572     1
    C0616     R0726     1
    C0616     R1062     -4
    C0616     R1426     8
    C0617     R0741     1
    C0617     R0755     1
    C0617     R1063     -4
    C0618     R0742     1
    C0618     R0756     1
    C0618     R1064     -4
    C0619     R0743     1
    C0619     R0757     1
    C0619     R1065     -4
    C0620     R0744     1
    C0620     R0758     1
    C0620     R1066     -4
    C0621     R0745     1
    C0621     R0759     1
    C0621     R1067     -4
    C0622     R0746     1
    C0622     R0760     1
    C0622     R1068     -4
    C0623     R0747     1
    C0623     R0761     1
    C0623     R1069     -4
    C0624     R0748     1
    C0624     R0762     1
    C0624     R1070     -4
    C0625     R0749     1
    C0625     R0763     1
    C0625     R1071     -4
    C0626     R0750     1
    C0626     R0764     1
    C0626     R1072     -4
    C0627     R0751     1
    C0627     R0765     1
    C0627     R1073     -4
    C0628     R0752     1
    C0628     R0766     1
    C0628     R1074     -4
    C0629     R0753     1
    C0629     R0767     1
    C0629     R1075     -4
    C0630     R0754     1
    C0630     R0768     1
    C0630     R1076     -4
    C0631     R0755     1
    C0631     R1077     -4
    C0631     R1441     4
    C0632     R0756     1
    C0632     R1078     -4
    C0632     R1442     4
    C0633     R0757     1
    C0633     R1079     -4
    C0633     R1443     4
    C0634     R0758     1
    C0634     R1080     -4
    C0634     R1444     4
    C0635     R0759     1
    C0635     R1081     -4
    C0635     R1445     4
    C0636     R0760     1
    C0636     R1082     -4
    C0636     R1446     4
    C0637     R0761     1
    C0637     R1083     -4
    C0637     R1447     4
    C0638     R0762     1
    C0638     R1084     -4
    C0638     R1448     4
    C0639     R0763     1
    C0639     R1085     -4
    C0639     R1449     4
    C0640     R0764     1
    C0640     R1086     -4
    C0640     R1450     4
    C0641     R0765     1
    C0641     R1087     -4
    C0641     R1451     4
    C0642     R0766     1
    C0642     R1088     -4
    C0642     R1452     4
    C0643     R0767     1
    C0643     R1089     -4
    C0643     R1453     4
    C0644     R0768     1
    C0644     R1090     -4
    C0644     R1454     4
    MARKER    'MARKER'                 'INTEND'
RHS
    RHS1      OBJ       70
    RHS1      R0001     4
    RHS1      R0002     4
    RHS1      R0003     4
    RHS1      R0004     4
    RHS1      R0005     4
    RHS1      R0006     4
    RHS1      R0007     4
    RHS1      R0008     4
    RHS1      R0009     4
    RHS1      R0010     4
    RHS1      R0011     4
    RHS1      R0012     4
    RHS1      R0013     4
    RHS1      R0014     4
    RHS1      R0015     4
    RHS1      R0016     4
    RHS1      R0017     4
    RHS1      R0018     4
    RHS1      R0019     4
    RHS1      R0020     4
    RHS1      R0021     4
    RHS1      R0022     4
    RHS1      R0023     4
    RHS1      R0024     4
    RHS1      R0025     4
    RHS1      R0026     4
    RHS1      R0027     4
    RHS1      R0028     4
    RHS1      R0029     4
    RHS1      R0030     4
    RHS1      R0031     4
    RHS1      R0032     4
    RHS1      R0033     4
    RHS1      R0034     4
    RHS1      R0035     4
    RHS1      R0036     4
    RHS1      R0037     4
    RHS1      R0038     4
    RHS1      R0039     4
    RHS1      R0040     4
    RHS1      R0041     4
    RHS1      R0042     4
    RHS1      R0043     4
    RHS1      R0044     4
    RHS1      R0045     4
    RHS1      R0046     4
    RHS1      R0047     4
    RHS1      R0048     4
    RHS1      R0049     4
    RHS1      R0050     4
    RHS1      R0051     4
    RHS1      R0052     4
    RHS1      R0053     4
    RHS1      R0054     4
    RHS1      R0055     4
    RHS1      R0056     4
    RHS1      R0057     4
    RHS1      R0058     4
    RHS1      R0059     4
    RHS1      R0060     4
    RHS1      R0061     4
    RHS1      R0062     4
    RHS1      R0063     4
    RHS1      R0064     4
    RHS1      R0065     4
    RHS1      R0066     4
    RHS1      R0067     4
    RHS1      R0068     4
    RHS1      R0069     4
    RHS1      R0070     4
    RHS1      R0071     4
    RHS1      R0072     4
    RHS1      R0073     4
    RHS1      R0074     4
    RHS1      R0075     4
    RHS1      R0076     4
    RHS1      R0077     4
    RHS1      R0078     4
    RHS1      R0079     4
    RHS1      R0080     4
    RHS1      R0081     4
    RHS1      R0082     4
    RHS1      R0083     4
    RHS1      R0084     4
    RHS1      R0085     4
    RHS1      R0086     4
    RHS1      R0087     4
    RHS1      R0088     4
    RHS1      R0089     4
    RHS1      R0090     4
    RHS1      R0091     4
    RHS1      R0092     4
    RHS1      R0093     4
    RHS1      R0094     4
    RHS1      R0095     4
    RHS1      R0096     4
    RHS1      R0097     4
    RHS1      R0098     4
    RHS1      R0099     4
    RHS1      R0100     4
    RHS1      R0101     4
    RHS1      R0102     4
    RHS1      R0103     4
    RHS1      R0104     4
    RHS1      R0105     4
    RHS1      R0106     4
    RHS1      R0107     4
    RHS1      R0108     4
    RHS1      R0109     4
    RHS1      R0110     4
    RHS1      R0111     4
    RHS1      R0112     4
    RHS1      R0113     4
    RHS1      R0114     4
    RHS1      R0115     4
    RHS1      R0116     4
    RHS1      R0117     4
    RHS1      R0118     4
    RHS1      R0119     4
    RHS1      R0120     4
    RHS1      R0121     4
    RHS1      R0122     4
    RHS1      R0123     4
    RHS1      R0124     4
    RHS1      R0125     4
    RHS1      R0126     4
    RHS1      R0127     4
    RHS1      R0128     4
    RHS1      R0129     4
    RHS1      R0130     4
    RHS1      R0131     4
    RHS1      R0132     4
    RHS1      R0133     4
    RHS1      R0134     4
    RHS1      R0135     4
    RHS1      R0136     4
    RHS1      R0137     4
    RHS1      R0138     4
    RHS1      R0139     4
    RHS1      R0140     4
    RHS1      R0141     4
    RHS1      R0142     4
    RHS1      R0143     4
    RHS1      R0144     4
    RHS1      R0145     4
    RHS1      R0146     4
    RHS1      R0147     4
    RHS1      R0148     4
    RHS1      R0149     4
    RHS1      R0150     4
    RHS1      R0151     4
    RHS1      R0152     4
    RHS1      R0153     4
    RHS1      R0154     4
    RHS1      R0155     4
    RHS1      R0156     4
    RHS1      R0157     4
    RHS1      R0158     4
    RHS1      R0159     4
    RHS1      R0160     4
    RHS1      R0161     4
    RHS1      R0162     4
    RHS1      R0163     4
    RHS1      R0164     4
    RHS1      R0165     4
    RHS1      R0166     4
    RHS1      R0167     4
    RHS1      R0168     4
    RHS1      R0169     4
    RHS1      R0170     4
    RHS1      R0171     4
    RHS1      R0172     4
    RHS1      R0173     4
    RHS1      R0174     4
    RHS1      R0175     4
    RHS1      R0176     4
    RHS1      R0177     4
    RHS1      R0178     4
    RHS1      R0179     4
    RHS1      R0180     4
    RHS1      R0181     4
    RHS1      R0182     4
    RHS1      R0183     4
    RHS1      R0184     4
    RHS1      R0185     4
    RHS1      R0186     4
    RHS1      R0187     4
    RHS1      R0188     4
    RHS1      R0189     4
    RHS1      R0190     4
    RHS1      R0191     4
    RHS1      R0192     4
    RHS1      R0193     4
    RHS1      R0194     4
    RHS1      R0195     4
    RHS1      R0196     4
    RHS1      R0197     4
    RHS1      R0198     4
    RHS1      R0199     4
    RHS1      R0200     4
    RHS1      R0201     4
    RHS1      R0202     4
    RHS1      R0203     4
    RHS1      R0204     4
    RHS1      R0205     4
    RHS1      R0206     4
    RHS1      R0207     4
    RHS1      R0208     4
    RHS1      R0209     4
    RHS1      R0210     4
    RHS1      R0211     4
    RHS1      R0212     4
    RHS1      R0213     4
    RHS1      R0214     4
    RHS1      R0215     4
    RHS1      R0216     4
    RHS1      R0217     4
    RHS1      R0218     4
    RHS1      R0219     4
    RHS1      R0220     4
    RHS1      R0221     4
    RHS1      R0222     4
    RHS1      R0223     4
    RHS1      R0224     4
    RHS1      R0225     4
    RHS1      R0226     4
    RHS1      R0227     4
    RHS1      R0228     4
    RHS1      R0229     4
    RHS1      R0230     4
    RHS1      R0231     4
    RHS1      R0232     4
    RHS1      R0233     4
    RHS1      R0234     4
    RHS1      R0235     4
    RHS1      R0236     4
    RHS1      R0237     4
    RHS1      R0238     4
    RHS1      R0239     4
    RHS1      R0240     4
    RHS1      R0241     4
    RHS1      R0242     4
    RHS1      R0243     4
    RHS1      R0244     4
    RHS1      R0245     4
    RHS1      R0246     4
    RHS1      R0247     4
    RHS1      R0248     4
    RHS1      R0249     4
    RHS1      R0250     4
    RHS1      R0251     4
    RHS1      R0252     4
    RHS1      R0253     4
    RHS1      R0254     4
    RHS1      R0255     4
    RHS1      R0256     4
    RHS1      R0257     4
    RHS1      R0258     4
    RHS1      R0259     4
    RHS1      R0260     4
    RHS1      R0261     4
    RHS1      R0262     4
    RHS1      R0263     4
    RHS1      R0264     4
    RHS1      R0265     4
    RHS1      R0266     4
    RHS1      R0267     4
    RHS1      R0268     4
    RHS1      R0269     4
    RHS1      R0270     4
    RHS1      R0271     4
    RHS1      R0272     4
    RHS1      R0273     4
    RHS1      R0274     4
    RHS1      R0275     4
    RHS1      R0276     4
    RHS1      R0277     4
    RHS1      R0278     4
    RHS1      R0279     4
    RHS1      R0280     4
    RHS1      R0281     4
    RHS1      R0282     4
    RHS1      R0283     4
    RHS1      R0284     4
    RHS1      R0285     4
    RHS1      R0286     4
    RHS1      R0287     4
    RHS1      R0288     4
    RHS1      R0289     4
    RHS1      R0290     4
    RHS1      R0291     4
    RHS1      R0292     4
    RHS1      R0293     4
    RHS1      R0294     4
    RHS1      R0295     4
    RHS1      R0296     4
    RHS1      R0297     4
    RHS1      R0298     4
    RHS1      R0299     4
    RHS1      R0300     4
    RHS1      R0301     4
    RHS1      R0302     4
    RHS1      R0303     4
    RHS1      R0304     4
    RHS1      R0305     4
    RHS1      R0306     4
    RHS1      R0307     4
    RHS1      R0308     4
    RHS1      R0309     4
    RHS1      R0310     4
    RHS1      R0311     4
    RHS1      R0312     4
    RHS1      R0313     4
    RHS1      R0314     4
    RHS1      R0315     4
    RHS1      R0316     4
    RHS1      R0317     4
    RHS1      R0318     4
    RHS1      R0319     4
    RHS1      R0320     4
    RHS1      R0321     4
    RHS1      R0322     4
    RHS1      R0323     4
    RHS1      R0324     4
    RHS1      R0325     4
    RHS1      R0326     4
    RHS1      R0327     4
    RHS1      R0328     4
    RHS1      R0329     4
    RHS1      R0330     4
    RHS1      R0331     4
    RHS1      R0332     4
    RHS1      R0333     4
    RHS1      R0334     4
    RHS1      R0335     4
    RHS1      R0336     4
    RHS1      R0337     4
    RHS1      R0338     4
    RHS1      R0339     4
    RHS1      R0340     4
    RHS1      R0341     4
    RHS1      R0342     4
    RHS1      R0343     4
    RHS1      R0344     4
    RHS1      R0345     4
    RHS1      R0346     4
    RHS1      R0347     4
    RHS1      R0348     4
    RHS1      R0349     4
    RHS1      R0350     4
    RHS1      R0407     7
    RHS1      R0408     7
    RHS1      R0409     7
    RHS1      R0410     7
    RHS1      R0411     7
    RHS1      R0412     7
    RHS1      R0413     7
    RHS1      R0414     7
    RHS1      R0419     7
    RHS1      R0420     7
    RHS1      R0421     7
    RHS1      R0422     7
    RHS1      R0423     7
    RHS1      R0424     7
    RHS1      R0425     7
    RHS1      R0426     7
    RHS1      R0433     1
    RHS1      R0434     1
    RHS1      R0435     1
    RHS1      R0436     1
    RHS1      R0437     1
    RHS1      R0438     1
    RHS1      R0439     1
    RHS1      R0440     1
    RHS1      R0441     1
    RHS1      R0442     1
    RHS1      R0443     1
    RHS1      R0444     1
    RHS1      R0445     1
    RHS1      R0446     1
    RHS1      R0447     1
    RHS1      R0448     1
    RHS1      R0449     1
    RHS1      R0450     1
    RHS1      R0451     1
    RHS1      R0452     1
    RHS1      R0453     1
    RHS1      R0454     1
    RHS1      R0455     1
    RHS1      R0456     1
    RHS1      R0457     1
    RHS1      R0458     1
    RHS1      R0459     1
    RHS1      R0460     1
    RHS1      R0461     1
    RHS1      R0462     1
    RHS1      R0463     1
    RHS1      R0464     1
    RHS1      R0465     1
    RHS1      R0466     1
    RHS1      R0467     1
    RHS1      R0468     1
    RHS1      R0469     1
    RHS1      R0470     1
    RHS1      R0471     1
    RHS1      R0472     1
    RHS1      R0473     1
    RHS1      R0474     1
    RHS1      R0475     1
    RHS1      R0476     1
    RHS1      R0477     1
    RHS1      R0478     1
    RHS1      R0479     1
    RHS1      R0480     1
    RHS1      R0481     1
    RHS1      R0482     1
    RHS1      R0483     1
    RHS1      R0484     1
    RHS1      R0485     1
    RHS1      R0486     1
    RHS1      R0487     1
    RHS1      R0488     1
    RHS1      R0489     1
    RHS1      R0490     1
    RHS1      R0491     1
    RHS1      R0492     1
    RHS1      R0493     1
    RHS1      R0494     1
    RHS1      R0495     1
    RHS1      R0496     1
    RHS1      R0497     1
    RHS1      R0498     1
    RHS1      R0499     1
    RHS1      R0500     1
    RHS1      R0501     1
    RHS1      R0502     1
    RHS1      R0559     1
    RHS1      R0560     1
    RHS1      R0561     1
    RHS1      R0562     1
    RHS1      R0563     1
    RHS1      R0564     1
    RHS1      R0565     1
    RHS1      R0566     1
    RHS1      R0567     1
    RHS1      R0568     1
    RHS1      R0569     1
    RHS1      R0570     1
    RHS1      R0571     1
    RHS1      R0572     1
    RHS1      R0573     1
    RHS1      R0574     1
    RHS1      R0575     1
    RHS1      R0576     1
    RHS1      R0577     1
    RHS1      R0578     1
    RHS1      R0579     1
    RHS1      R0580     1
    RHS1      R0581     1
    RHS1      R0582     1
    RHS1      R0583     1
    RHS1      R0584     1
    RHS1      R0585     1
    RHS1      R0586     1
    RHS1      R0587     1
    RHS1      R0588     1
    RHS1      R0589     1
    RHS1      R0590     1
    RHS1      R0591     1
    RHS1      R0592     1
    RHS1      R0593     1
    RHS1      R0594     1
    RHS1      R0595     1
    RHS1      R0596     1
    RHS1      R0597     1
    RHS1      R0598     1
    RHS1      R0599     1
    RHS1      R0600     1
    RHS1      R0601     1
    RHS1      R0602     1
    RHS1      R0603     1
    RHS1      R0604     1
    RHS1      R0605     1
    RHS1      R0606     1
    RHS1      R0607     1
    RHS1      R0608     1
    RHS1      R0609     1
    RHS1      R0610     1
    RHS1      R0611     1
    RHS1      R0612     1
    RHS1      R0613     1
    RHS1      R0614     1
    RHS1      R0629     1
    RHS1      R0630     1
    RHS1      R0631     1
    RHS1      R0632     1
    RHS1      R0633     1
    RHS1      R0634     1
    RHS1      R0635     1
    RHS1      R0636     1
    RHS1      R0637     1
    RHS1      R0638     1
    RHS1      R0639     1
    RHS1      R0640     1
    RHS1      R0641     1
    RHS1      R0642     1
    RHS1      R0643     1
    RHS1      R0644     1
    RHS1      R0645     1
    RHS1      R0646     1
    RHS1      R0647     1
    RHS1      R0648     1
    RHS1      R0649     1
    RHS1      R0650     1
    RHS1      R0651     1
    RHS1      R0652     1
    RHS1      R0653     1
    RHS1      R0654     1
    RHS1      R0655     1
    RHS1      R0656     1
    RHS1      R0657     1
    RHS1      R0658     1
    RHS1      R0659     1
    RHS1      R0660     1
    RHS1      R0661     1
    RHS1      R0662     1
    RHS1      R0663     1
    RHS1      R0664     1
    RHS1      R0665     1
    RHS1      R0666     1
    RHS1      R0667     1
    RHS1      R0668     1
    RHS1      R0669     1
    RHS1      R0670     1
    RHS1      R0671     1
    RHS1      R0672     1
    RHS1      R0673     1
    RHS1      R0674     1
    RHS1      R0675     1
    RHS1      R0676     1
    RHS1      R0677     1
    RHS1      R0678     1
    RHS1      R0679     1
    RHS1      R0680     1
    RHS1      R0681     1
    RHS1      R0682     1
    RHS1      R0683     1
    RHS1      R0684     1
    RHS1      R0685     1
    RHS1      R0686     1
    RHS1      R0687     1
    RHS1      R0688     1
    RHS1      R0689     1
    RHS1      R0690     1
    RHS1      R0691     1
    RHS1      R0692     1
    RHS1      R0693     1
    RHS1      R0694     1
    RHS1      R0695     1
    RHS1      R0696     1
    RHS1      R0697     1
    RHS1      R0698     1
    RHS1      R0699     1
    RHS1      R0700     1
    RHS1      R0701     1
    RHS1      R0702     1
    RHS1      R0703     1
    RHS1      R0704     1
    RHS1      R0705     1
    RHS1      R0706     1
    RHS1      R0707     1
    RHS1      R0708     1
    RHS1      R0709     1
    RHS1      R0710     1
    RHS1      R0711     1
    RHS1      R0712     1
    RHS1      R0713     1
    RHS1      R0714     1
    RHS1      R0715     1
    RHS1      R0716     1
    RHS1      R0717     1
    RHS1      R0718     1
    RHS1      R0719     1
    RHS1      R0720     1
    RHS1      R0721     1
    RHS1      R0722     1
    RHS1      R0723     1
    RHS1      R0724     1
    RHS1      R0725     1
    RHS1      R0726     1
    RHS1      R0741     1
    RHS1      R0742     1
    RHS1      R0743     1
    RHS1      R0744     1
    RHS1      R0745     1
    RHS1      R0746     1
    RHS1      R0747     1
    RHS1      R0748     1
    RHS1      R0749     1
    RHS1      R0750     1
    RHS1      R0751     1
    RHS1      R0752     1
    RHS1      R0753     1
    RHS1      R0754     1
    RHS1      R0755     1
    RHS1      R0756     1
    RHS1      R0757     1
    RHS1      R0758     1
    RHS1      R0759     1
    RHS1      R0760     1
    RHS1      R0761     1
    RHS1      R0762     1
    RHS1      R0763     1
    RHS1      R0764     1
    RHS1      R0765     1
    RHS1      R0766     1
    RHS1      R0767     1
    RHS1      R0768     1
    RHS1      R1175     8
    RHS1      R1176     8
    RHS1      R1177     8
    RHS1      R1178     8
    RHS1      R1179     8
    RHS1      R1180     8
    RHS1      R1181     8
    RHS1      R1182     8
    RHS1      R1183     8
    RHS1      R1184     8
    RHS1      R1185     8
    RHS1      R1186     8
    RHS1      R1187     8
    RHS1      R1188     8
    RHS1      R1189     16
    RHS1      R1190     16
    RHS1      R1191     16
    RHS1      R1192     16
    RHS1      R1193     16
    RHS1      R1194     16
    RHS1      R1195     16
    RHS1      R1196     16
    RHS1      R1197     16
    RHS1      R1198     16
    RHS1      R1199     16
    RHS1      R1200     16
    RHS1      R1201     16
    RHS1      R1202     16
    RHS1      R1203     12
    RHS1      R1204     12
    RHS1      R1205     12
    RHS1      R1206     12
    RHS1      R1207     12
    RHS1      R1208     12
    RHS1      R1209     12
    RHS1      R1210     12
    RHS1      R1211     12
    RHS1      R1212     12
    RHS1      R1213     12
    RHS1      R1214     12
    RHS1      R1215     12
    RHS1      R1216     12
    RHS1      R1217     12
    RHS1      R1218     12
    RHS1      R1219     12
    RHS1      R1220     12
    RHS1      R1221     12
    RHS1      R1222     12
    RHS1      R1223     12
    RHS1      R1224     12
    RHS1      R1225     12
    RHS1      R1226     12
    RHS1      R1227     12
    RHS1      R1228     12
    RHS1      R1229     12
    RHS1      R1230     12
    RHS1      R1231     12
    RHS1      R1232     12
    RHS1      R1233     12
    RHS1      R1234     12
    RHS1      R1235     12
    RHS1      R1236     12
    RHS1      R1237     12
    RHS1      R1238     12
    RHS1      R1239     12
    RHS1      R1240     12
    RHS1      R1241     12
    RHS1      R1242     12
    RHS1      R1243     12
    RHS1      R1244     12
    RHS1      R1245     12
    RHS1      R1246     12
    RHS1      R1247     12
    RHS1      R1248     12
    RHS1      R1249     12
    RHS1      R1250     12
    RHS1      R1251     12
    RHS1      R1252     12
    RHS1      R1253     12
    RHS1      R1254     12
    RHS1      R1255     12
    RHS1      R1256     12
    RHS1      R1257     12
    RHS1      R1258     12
    RHS1      R1259     12
    RHS1      R1260     12
    RHS1      R1261     12
    RHS1      R1262     12
    RHS1      R1263     12
    RHS1      R1264     12
    RHS1      R1265     12
    RHS1      R1266     12
    RHS1      R1267     12
    RHS1      R1268     12
    RHS1      R1269     12
    RHS1      R1270     12
    RHS1      R1271     12
    RHS1      R1272     12
    RHS1      R1273     16
    RHS1      R1274     16
    RHS1      R1275     16
    RHS1      R1276     16
    RHS1      R1277     16
    RHS1      R1278     16
    RHS1      R1279     16
    RHS1      R1280     16
    RHS1      R1281     16
    RHS1      R1282     16
    RHS1      R1283     16
    RHS1      R1284     16
    RHS1      R1285     16
    RHS1      R1286     16
    RHS1      R1343     12
    RHS1      R1344     12
    RHS1      R1345     12
    RHS1      R1346     12
    RHS1      R1347     12
    RHS1      R1348     12
    RHS1      R1349     12
    RHS1      R1350     12
    RHS1      R1351     12
    RHS1      R1352     12
    RHS1      R1353     12
    RHS1      R1354     12
    RHS1      R1355     12
    RHS1      R1356     12
    RHS1      R1357     12
    RHS1      R1358     12
    RHS1      R1359     12
    RHS1      R1360     12
    RHS1      R1361     12
    RHS1      R1362     12
    RHS1      R1363     12
    RHS1      R1364     12
    RHS1      R1365     12
    RHS1      R1366     12
    RHS1      R1367     12
    RHS1      R1368     12
    RHS1      R1369     12
    RHS1      R1370     12
    RHS1      R1371     12
    RHS1      R1372     12
    RHS1      R1373     12
    RHS1      R1374     12
    RHS1      R1375     12
    RHS1      R1376     12
    RHS1      R1377     12
    RHS1      R1378     12
    RHS1      R1379     12
    RHS1      R1380     12
    RHS1      R1381     12
    RHS1      R1382     12
    RHS1      R1383     12
    RHS1      R1384     12
    RHS1      R1413     12
    RHS1      R1414     12
    RHS1      R1415     12
    RHS1      R1416     12
    RHS1      R1417     12
    RHS1      R1418     12
    RHS1      R1419     12
    RHS1      R1420     12
    RHS1      R1421     12
    RHS1      R1422     12
    RHS1      R1423     12
    RHS1      R1424     12
    RHS1      R1425     12
    RHS1      R1426     12
    RHS1      R1441     8
    RHS1      R1442     8
    RHS1      R1443     8
    RHS1      R1444     8
    RHS1      R1445     8
    RHS1      R1446     8
    RHS1      R1447     8
    RHS1      R1448     8
    RHS1      R1449     8
    RHS1      R1450     8
    RHS1      R1451     8
    RHS1      R1452     8
    RHS1      R1453     8
    RHS1      R1454     8
BOUNDS
 UP BND1      C0001     4
 UP BND1      C0002     4
 UP BND1      C0003     4
 UP BND1      C0004     4
 UP BND1      C0005     4
 UP BND1      C0006     4
 UP BND1      C0007     4
 UP BND1      C0008     4
 UP BND1      C0009     4
 UP BND1      C0010     4
 UP BND1      C0011     4
 UP BND1      C0012     4
 UP BND1      C0013     4
 UP BND1      C0014     4
 UP BND1      C0015     4
 UP BND1      C0016     4
 UP BND1      C0017     4
 UP BND1      C0018     4
 UP BND1      C0019     4
 UP BND1      C0020     4
 UP BND1      C0021     4
 UP BND1      C0022     4
 UP BND1      C0023     4
 UP BND1      C0024     4
 UP BND1      C0025     4
 UP BND1      C0026     4
 UP BND1      C0027     4
 UP BND1      C0028     4
 UP BND1      C0029     4
 UP BND1      C0030     4
 UP BND1      C0031     4
 UP BND1      C0032     4
 UP BND1      C0033     4
 UP BND1      C0034     4
 UP BND1      C0035     4
 UP BND1      C0036     4
 UP BND1      C0037     4
 UP BND1      C0038     4
 UP BND1      C0039     4
 UP BND1      C0040     4
 UP BND1      C0041     4
 UP BND1      C0042     4
 UP BND1      C0043     4
 UP BND1      C0044     4
 UP BND1      C0045     4
 UP BND1      C0046     4
 UP BND1      C0047     4
 UP BND1      C0048     4
 UP BND1      C0049     4
 UP BND1      C0050     4
 UP BND1      C0051     4
 UP BND1      C0052     4
 UP BND1      C0053     4
 UP BND1      C0054     4
 UP BND1      C0055     4
 UP BND1      C0056     4
 UP BND1      C0057     4
 UP BND1      C0058     4
 UP BND1      C0059     4
 UP BND1      C0060     4
 UP BND1      C0061     4
 UP BND1      C0062     4
 UP BND1      C0063     4
 UP BND1      C0064     4
 UP BND1      C0065     4
 UP BND1      C0066     4
 UP BND1      C0067     4
 UP BND1      C0068     4
 UP BND1      C0069     4
 UP BND1      C0070     4
 UP BND1      C0071     4
 UP BND1      C0072     4
 UP BND1      C0073     4
 UP BND1      C0074     4
 UP BND1      C0075     4
 UP BND1      C0076     4
 UP BND1      C0077     4
 UP BND1      C0078     4
 UP BND1      C0079     4
 UP BND1      C0080     4
 UP BND1      C0081     4
 UP BND1      C0082     4
 UP BND1      C0083     4
 UP BND1      C0084     4
 UP BND1      C0085     4
 UP BND1      C0086     4
 UP BND1      C0087     4
 UP BND1      C0088     4
 UP BND1      C0089     4
 UP BND1      C0090     4
 UP BND1      C0091     4
 UP BND1      C0092     4
 UP BND1      C0093     4
 UP BND1      C0094     4
 UP BND1      C0095     4
 UP BND1      C0096     4
 UP BND1      C0097     4
 UP BND1      C0098     4
 UP BND1      C0099     4
 UP BND1      C0100     4
 UP BND1      C0101     4
 UP BND1      C0102     4
 UP BND1      C0103     4
 UP BND1      C0104     4
 UP BND1      C0105     4
 UP BND1      C0106     4
 UP BND1      C0107     4
 UP BND1      C0108     4
 UP BND1      C0109     4
 UP BND1      C0110     4
 UP BND1      C0111     4
 UP BND1      C0112     4
 UP BND1      C0169     4
 UP BND1      C0170     4
 UP BND1      C0171     4
 UP BND1      C0172     4
 UP BND1      C0173     4
 UP BND1      C0174     4
 UP BND1      C0175     4
 UP BND1      C0176     4
 UP BND1      C0177     4
 UP BND1      C0178     4
 UP BND1      C0179     4
 UP BND1      C0180     4
 UP BND1      C0181     4
 UP BND1      C0182     4
 UP BND1      C0183     4
 UP BND1      C0184     4
 UP BND1      C0185     4
 UP BND1      C0186     4
 UP BND1      C0187     4
 UP BND1      C0188     4
 UP BND1      C0189     4
 UP BND1      C0190     4
 UP BND1      C0191     4
 UP BND1      C0192     4
 UP BND1      C0193     4
 UP BND1      C0194     4
 UP BND1      C0195     4
 UP BND1      C0196     4
 UP BND1      C0197     4
 UP BND1      C0198     4
 UP BND1      C0199     4
 UP BND1      C0200     4
 UP BND1      C0201     4
 UP BND1      C0202     4
 UP BND1      C0203     4
 UP BND1      C0204     4
 UP BND1      C0205     4
 UP BND1      C0206     4
 UP BND1      C0207     4
 UP BND1      C0208     4
 UP BND1      C0209     4
 UP BND1      C0210     4
 UP BND1      C0211     4
 UP BND1      C0212     4
 UP BND1      C0213     4
 UP BND1      C0214     4
 UP BND1      C0215     4
 UP BND1      C0216     4
 UP BND1      C0217     4
 UP BND1      C0218     4
 UP BND1      C0219     4
 UP BND1      C0220     4
 UP BND1      C0221     4
 UP BND1      C0222     4
 UP BND1      C0223     4
 UP BND1      C0224     4
 UP BND1      C0225     4
 UP BND1      C0226     4
 UP BND1      C0227     4
 UP BND1      C0228     4
 UP BND1      C0229     4
 UP BND1      C0230     4
 UP BND1      C0231     4
 UP BND1      C0232     4
 UP BND1      C0233     4
 UP BND1      C0234     4
 UP BND1      C0235     4
 UP BND1      C0236     4
 UP BND1      C0237     4
 UP BND1      C0238     4
 UP BND1      C0239     4
 UP BND1      C0240     4
 UP BND1      C0241     4
 UP BND1      C0242     4
 UP BND1      C0243     4
 UP BND1      C0244     4
 UP BND1      C0245     4
 UP BND1      C0246     4
 UP BND1      C0247     4
 UP BND1      C0248     4
 UP BND1      C0249     4
 UP BND1      C0250     4
 UP BND1      C0251     4
 UP BND1      C0252     4
 UP BND1      C0253     4
 UP BND1      C0254     4
 UP BND1      C0255     4
 UP BND1      C0256     4
 UP BND1      C0257     4
 UP BND1      C0258     4
 UP BND1      C0259     4
 UP BND1      C0260     4
 UP BND1      C0261     4
 UP BND1      C0262     4
 UP BND1      C0263     4
 UP BND1      C0264     4
 UP BND1      C0265     4
 UP BND1      C0266     4
 UP BND1      C0267     4
 UP BND1      C0268     4
 UP BND1      C0269     4
 UP BND1      C0270     4
 UP BND1      C0271     4
 UP BND1      C0272     4
 UP BND1      C0273     4
 UP BND1      C0274     4
 UP BND1      C0275     4
 UP BND1      C0276     4
 UP BND1      C0277     4
 UP BND1      C0278     4
 UP BND1      C0279     4
 UP BND1      C0280     4
 BV BND1      C0365   
 BV BND1      C0366   
 BV BND1      C0367   
 BV BND1      C0368   
 BV BND1      C0369   
 BV BND1      C0370   
 BV BND1      C0371   
 BV BND1      C0372   
 BV BND1      C0373   
 BV BND1      C0374   
 BV BND1      C0375   
 BV BND1      C0376   
 BV BND1      C0377   
 BV BND1      C0378   
 BV BND1      C0379   
 BV BND1      C0380   
 BV BND1      C0381   
 BV BND1      C0382   
 BV BND1      C0383   
 BV BND1      C0384   
 BV BND1      C0385   
 BV BND1      C0386   
 BV BND1      C0387   
 BV BND1      C0388   
 BV BND1      C0389   
 BV BND1      C0390   
 BV BND1      C0391   
 BV BND1      C0392   
 BV BND1      C0393   
 BV BND1      C0394   
 BV BND1      C0395   
 BV BND1      C0396   
 BV BND1      C0397   
 BV BND1      C0398   
 BV BND1      C0399   
 BV BND1      C0400   
 BV BND1      C0401   
 BV BND1      C0402   
 BV BND1      C0403   
 BV BND1      C0404   
 BV BND1      C0405   
 BV BND1      C0406   
 BV BND1      C0407   
 BV BND1      C0408   
 BV BND1      C0409   
 BV BND1      C0410   
 BV BND1      C0411   
 BV BND1      C0412   
 BV BND1      C0413   
 BV BND1      C0414   
 BV BND1      C0415   
 BV BND1      C0416   
 BV BND1      C0417   
 BV BND1      C0418   
 BV BND1      C0419   
 BV BND1      C0420   
 BV BND1      C0421   
 BV BND1      C0422   
 BV BND1      C0423   
 BV BND1      C0424   
 BV BND1      C0425   
 BV BND1      C0426   
 BV BND1      C0427   
 BV BND1      C0428   
 BV BND1      C0429   
 BV BND1      C0430   
 BV BND1      C0431   
 BV BND1      C0432   
 BV BND1      C0433   
 BV BND1      C0434   
 BV BND1      C0435   
 BV BND1      C0436   
 BV BND1      C0437   
 BV BND1      C0438   
 BV BND1      C0439   
 BV BND1      C0440   
 BV BND1      C0441   
 BV BND1      C0442   
 BV BND1      C0443   
 BV BND1      C0444   
 BV BND1      C0445   
 BV BND1      C0446   
 BV BND1      C0447   
 BV BND1      C0448   
 BV BND1      C0449   
 BV BND1      C0450   
 BV BND1      C0451   
 BV BND1      C0452   
 BV BND1      C0453   
 BV BND1      C0454   
 BV BND1      C0455   
 BV BND1      C0456   
 BV BND1      C0457   
 BV BND1      C0458   
 BV BND1      C0459   
 BV BND1      C0460   
 BV BND1      C0461   
 BV BND1      C0462   
 BV BND1      C0463   
 BV BND1      C0464   
 BV BND1      C0465   
 BV BND1      C0466   
 BV BND1      C0467   
 BV BND1      C0468   
 BV BND1      C0469   
 BV BND1      C0470   
 BV BND1      C0471   
 BV BND1      C0472   
 BV BND1      C0473   
 BV BND1      C0474   
 BV BND1      C0475   
 BV BND1      C0476   
 BV BND1      C0533   
 BV BND1      C0534   
 BV BND1      C0535   
 BV BND1      C0536   
 BV BND1      C0537   
 BV BND1      C0538   
 BV BND1      C0539   
 BV BND1      C0540   
 BV BND1      C0541   
 BV BND1      C0542   
 BV BND1      C0543   
 BV BND1      C0544   
 BV BND1      C0545   
 BV BND1      C0546   
 BV BND1      C0547   
 BV BND1      C0548   
 BV BND1      C0549   
 BV BND1      C0550   
 BV BND1      C0551   
 BV BND1      C0552   
 BV BND1      C0553   
 BV BND1      C0554   
 BV BND1      C0555   
 BV BND1      C0556   
 BV BND1      C0557   
 BV BND1      C0558   
 BV BND1      C0559   
 BV BND1      C0560   
 BV BND1      C0561   
 BV BND1      C0562   
 BV BND1      C0563   
 BV BND1      C0564   
 BV BND1      C0565   
 BV BND1      C0566   
 BV BND1      C0567   
 BV BND1      C0568   
 BV BND1      C0569   
 BV BND1      C0570   
 BV BND1      C0571   
 BV BND1      C0572   
 BV BND1      C0573   
 BV BND1      C0574   
 BV BND1      C0575   
 BV BND1      C0576   
 BV BND1      C0577   
 BV BND1      C0578   
 BV BND1      C0579   
 BV BND1      C0580   
 BV BND1      C0581   
 BV BND1      C0582   
 BV BND1      C0583   
 BV BND1      C0584   
 BV BND1      C0585   
 BV BND1      C0586   
 BV BND1      C0587   
 BV BND1      C0588   
 BV BND1      C0589   
 BV BND1      C0590   
 BV BND1      C0591   
 BV BND1      C0592   
 BV BND1      C0593   
 BV BND1      C0594   
 BV BND1      C0595   
 BV BND1      C0596   
 BV BND1      C0597   
 BV BND1      C0598   
 BV BND1      C0599   
 BV BND1      C0600   
 BV BND1      C0601   
 BV BND1      C0602   
 BV BND1      C0603   
 BV BND1      C0604   
 BV BND1      C0605   
 BV BND1      C0606   
 BV BND1      C0607   
 BV BND1      C0608   
 BV BND1      C0609   
 BV BND1      C0610   
 BV BND1      C0611   
 BV BND1      C0612   
 BV BND1      C0613   
 BV BND1      C0614   
 BV BND1      C0615   
 BV BND1      C0616   
 BV BND1      C0617   
 BV BND1      C0618   
 BV BND1      C0619   
 BV BND1      C0620   
 BV BND1      C0621   
 BV BND1      C0622   
 BV BND1      C0623   
 BV BND1      C0624   
 BV BND1      C0625   
 BV BND1      C0626   
 BV BND1      C0627   
 BV BND1      C0628   
 BV BND1      C0629   
 BV BND1      C0630   
 BV BND1      C0631   
 BV BND1      C0632   
 BV BND1      C0633   
 BV BND1      C0634   
 BV BND1      C0635   
 BV BND1      C0636   
 BV BND1      C0637   
 BV BND1      C0638   
 BV BND1      C0639   
 BV BND1      C0640   
 BV BND1      C0641   
 BV BND1      C0642   
 BV BND1      C0643   
 BV BND1      C0644   
ENDATA
