NAME ns1830653_pre
ROWS
 N  OBJ
 E  R0782   
 E  R0783   
 E  R0784   
 E  R0785   
 E  R0786   
 E  R0787   
 E  R0791   
 E  R0795   
 E  R0796   
 E  R0797   
 E  R0801   
 E  R0804   
 E  R0805   
 E  R0806   
 E  R0807   
 E  R0810   
 E  R0811   
 E  R0814   
 E  R0815   
 E  R0818   
 E  R0819   
 E  R0820   
 E  R0821   
 E  R0825   
 E  R0828   
 E  R0829   
 E  R0830   
 E  R0831   
 E  R0835   
 E  R0838   
 E  R0839   
 E  R0841   
 E  R0842   
 E  R0843   
 E  R0844   
 E  R0845   
 E  R0855   
 E  R0857   
 E  R0859   
 E  R0860   
 E  R0861   
 E  R0863   
 E  R0864   
 E  R0865   
 E  R0867   
 E  R0869   
 E  R0871   
 E  R0877   
 E  R0878   
 E  R0879   
 E  R0880   
 E  R0881   
 E  R0882   
 E  R0883   
 E  R0884   
 E  R0885   
 E  R0886   
 E  R0887   
 E  R0888   
 E  R0889   
 E  R0895   
 E  R0896   
 E  R0897   
 E  R0898   
 E  R0899   
 E  R0900   
 E  R0901   
 E  R0902   
 E  R0903   
 E  R0904   
 E  R0905   
 E  R0906   
 E  R0907   
 E  R0913   
 E  R0914   
 E  R0915   
 E  R0916   
 E  R0917   
 E  R0918   
 E  R0919   
 E  R0920   
 E  R0921   
 E  R0922   
 E  R0923   
 E  R0924   
 E  R0925   
 E  R0931   
 E  R0932   
 E  R0933   
 E  R0934   
 E  R0935   
 E  R0936   
 E  R0937   
 E  R0938   
 E  R0939   
 E  R0940   
 E  R0941   
 E  R0942   
 E  R0943   
 E  R0950   
 E  R0951   
 E  R0952   
 E  R0953   
 E  R0954   
 E  R0955   
 E  R0956   
 E  R0957   
 E  R0958   
 E  R0959   
 E  R0960   
 E  R0961   
 E  R0967   
 E  R0968   
 E  R0969   
 E  R0970   
 E  R0971   
 E  R0972   
 E  R0973   
 E  R0974   
 E  R0975   
 E  R0976   
 E  R0977   
 E  R0978   
 E  R0979   
 E  R0985   
 E  R0986   
 E  R0987   
 E  R0988   
 E  R0989   
 E  R0990   
 E  R0991   
 E  R0992   
 E  R0993   
 E  R0994   
 E  R0995   
 E  R0996   
 E  R0997   
 E  R1003   
 E  R1004   
 E  R1005   
 E  R1006   
 E  R1007   
 E  R1008   
 E  R1009   
 E  R1010   
 E  R1011   
 E  R1012   
 E  R1013   
 E  R1014   
 E  R1015   
 E  R1021   
 E  R1023   
 E  R1025   
 E  R1026   
 E  R1027   
 E  R1028   
 E  R1029   
 E  R1030   
 E  R1031   
 E  R1032   
 E  R1033   
 E  R1034   
 E  R1035   
 E  R1036   
 E  R1041   
 E  R1042   
 E  R1043   
 E  R1045   
 E  R1046   
 E  R1047   
 E  R1049   
 E  R1050   
 E  R1053   
 E  R1054   
 E  R1055   
 E  R1056   
 E  R1058   
 E  R1063   
 E  R1064   
 E  R1068   
 E  R1071   
 E  R1072   
 E  R1073   
 E  R1075   
 E  R1079   
 E  R1080   
 E  R1083   
 E  R1084   
 E  R1085   
 E  R1087   
 E  R1089   
 E  R1091   
 E  R1092   
 E  R1093   
 E  R1094   
 E  R1095   
 E  R1098   
 E  R1099   
 E  R1101   
 E  R1102   
 E  R1105   
 L  R1110   
 L  R1113   
 L  R1114   
 L  R1115   
 L  R1116   
 L  R1117   
 L  R1118   
 L  R1119   
 L  R1120   
 L  R1121   
 L  R1126   
 L  R1127   
 L  R1128   
 L  R1129   
 L  R1130   
 L  R1131   
 L  R1132   
 L  R1133   
 L  R1134   
 L  R1135   
 L  R1136   
 L  R1137   
 L  R1142   
 L  R1143   
 L  R1144   
 L  R1145   
 L  R1146   
 L  R1147   
 L  R1148   
 L  R1149   
 L  R1150   
 L  R1151   
 L  R1152   
 L  R1153   
 L  R1160   
 L  R1161   
 L  R1162   
 L  R1163   
 L  R1164   
 L  R1165   
 L  R1166   
 L  R1167   
 L  R1168   
 L  R1169   
 L  R1176   
 L  R1177   
 L  R1178   
 L  R1179   
 L  R1180   
 L  R1181   
 L  R1182   
 L  R1183   
 L  R1184   
 L  R1185   
 L  R1189   
 L  R1190   
 L  R1193   
 L  R1194   
 L  R1195   
 L  R1196   
 L  R1197   
 L  R1198   
 L  R1199   
 L  R1200   
 L  R1201   
 L  R1207   
 L  R1208   
 L  R1209   
 L  R1210   
 L  R1211   
 L  R1212   
 L  R1213   
 L  R1214   
 L  R1215   
 L  R1216   
 L  R1217   
 L  R1223   
 L  R1225   
 L  R1226   
 L  R1227   
 L  R1228   
 L  R1229   
 L  R1230   
 L  R1231   
 L  R1232   
 L  R1233   
 L  R1241   
 L  R1242   
 L  R1243   
 L  R1244   
 L  R1245   
 L  R1246   
 L  R1247   
 L  R1248   
 L  R1249   
 L  R1255   
 L  R1256   
 L  R1257   
 L  R1258   
 L  R1259   
 L  R1260   
 L  R1261   
 L  R1262   
 L  R1263   
 L  R1264   
 L  R1265   
 L  R1271   
 L  R1272   
 L  R1273   
 L  R1274   
 L  R1275   
 L  R1276   
 L  R1277   
 L  R1278   
 L  R1279   
 L  R1280   
 L  R1281   
 L  R1287   
 L  R1288   
 L  R1289   
 L  R1290   
 L  R1291   
 L  R1292   
 L  R1293   
 L  R1294   
 L  R1295   
 L  R1296   
 L  R1297   
 L  R1301   
 L  R1302   
 L  R1305   
 L  R1306   
 L  R1307   
 L  R1308   
 L  R1309   
 L  R1310   
 L  R1311   
 L  R1312   
 L  R1313   
 L  R1318   
 L  R1321   
 L  R1322   
 L  R1323   
 L  R1324   
 L  R1325   
 L  R1326   
 L  R1327   
 L  R1328   
 L  R1329   
 L  R1335   
 L  R1336   
 L  R1337   
 L  R1338   
 L  R1339   
 L  R1340   
 L  R1341   
 L  R1342   
 L  R1343   
 L  R1344   
 L  R1345   
 L  R1351   
 L  R1352   
 L  R1353   
 L  R1354   
 L  R1355   
 L  R1356   
 L  R1357   
 L  R1358   
 L  R1359   
 L  R1360   
 L  R1361   
 L  R1368   
 L  R1369   
 L  R1370   
 L  R1371   
 L  R1372   
 L  R1373   
 L  R1374   
 L  R1375   
 L  R1376   
 L  R1377   
 L  R1382   
 L  R1385   
 L  R1386   
 L  R1387   
 L  R1388   
 L  R1389   
 L  R1390   
 L  R1391   
 L  R1392   
 L  R1393   
 L  R1398   
 L  R1399   
 L  R1405   
 L  R1406   
 L  R1408   
 L  R1413   
 L  R1415   
 L  R1416   
 L  R1418   
 L  R1419   
 L  R1420   
 L  R1421   
 L  R1422   
 L  R1423   
 L  R1429   
 L  R1431   
 L  R1432   
 L  R1433   
 L  R1434   
 L  R1435   
 L  R1444   
 L  R1446   
 L  R1447   
 L  R1448   
 L  R1449   
 L  R1450   
 L  R1452   
 L  R1463   
 L  R1465   
 L  R1466   
 L  R1468   
 L  R1473   
 L  R1476   
 L  R1477   
 L  R1478   
 L  R1479   
 L  R1480   
 L  R1483   
 L  R1488   
 L  R1489   
 L  R1490   
 L  R1491   
 L  R1492   
 L  R1493   
 L  R1494   
 L  R1495   
 L  R1496   
 L  R1497   
 L  R1498   
 L  R1504   
 L  R1507   
 L  R1508   
 L  R1512   
 L  R1522   
 L  R1528   
 L  R1535   
 L  R1536   
 L  R1537   
 L  R1538   
 L  R1539   
 L  R1542   
 L  R1547   
 L  R1549   
 L  R1552   
 L  R1563   
 L  R1565   
 L  R1571   
 L  R1572   
 L  R1573   
 L  R1580   
 L  R1586   
 L  R1588   
 L  R1594   
 L  R1595   
 L  R1596   
 L  R1597   
 L  R1599   
 L  R1602   
 L  R1607   
 L  R1610   
 L  R1616   
 L  R1617   
 L  R1640   
 L  R1641   
 L  R1644   
 L  R1645   
 L  R1646   
 L  R1648   
 L  R1654   
 L  R1655   
 L  R1656   
 L  R1658   
 L  R1659   
 L  R1660   
 L  R1661   
 L  R1662   
 L  R1668   
 L  R1669   
 L  R1670   
 L  R1671   
 L  R1672   
 L  R1673   
 L  R1674   
 L  R1675   
 L  R1676   
 L  R1677   
 L  R1681   
 L  R1682   
 L  R1683   
 L  R1684   
 L  R1685   
 L  R1686   
 L  R1687   
 L  R1688   
 L  R1689   
 L  R1690   
 L  R1691   
 L  R1696   
 L  R1697   
 L  R1698   
 L  R1699   
 L  R1700   
 L  R1701   
 L  R1702   
 L  R1703   
 L  R1704   
 L  R1705   
 L  R1711   
 L  R1712   
 L  R1713   
 L  R1714   
 L  R1715   
 L  R1716   
 L  R1717   
 L  R1718   
 L  R1719   
 L  R1725   
 L  R1726   
 L  R1727   
 L  R1728   
 L  R1729   
 L  R1730   
 L  R1731   
 L  R1732   
 L  R1733   
 L  R1737   
 L  R1738   
 L  R1739   
 L  R1740   
 L  R1741   
 L  R1742   
 L  R1743   
 L  R1744   
 L  R1745   
 L  R1746   
 L  R1747   
 L  R1752   
 L  R1753   
 L  R1754   
 L  R1755   
 L  R1756   
 L  R1757   
 L  R1758   
 L  R1759   
 L  R1760   
 L  R1761   
 L  R1765   
 L  R1767   
 L  R1768   
 L  R1769   
 L  R1770   
 L  R1771   
 L  R1772   
 L  R1773   
 L  R1774   
 L  R1775   
 L  R1781   
 L  R1782   
 L  R1783   
 L  R1784   
 L  R1785   
 L  R1786   
 L  R1787   
 L  R1788   
 L  R1789   
 L  R1795   
 L  R1796   
 L  R1797   
 L  R1798   
 L  R1799   
 L  R1800   
 L  R1801   
 L  R1802   
 L  R1803   
 L  R1809   
 L  R1810   
 L  R1811   
 L  R1812   
 L  R1813   
 L  R1814   
 L  R1815   
 L  R1816   
 L  R1817   
 L  R1823   
 L  R1824   
 L  R1825   
 L  R1826   
 L  R1827   
 L  R1828   
 L  R1829   
 L  R1830   
 L  R1831   
 L  R1835   
 L  R1836   
 L  R1837   
 L  R1838   
 L  R1839   
 L  R1840   
 L  R1841   
 L  R1842   
 L  R1843   
 L  R1844   
 L  R1845   
 L  R1850   
 L  R1851   
 L  R1852   
 L  R1853   
 L  R1854   
 L  R1855   
 L  R1856   
 L  R1857   
 L  R1858   
 L  R1859   
 L  R1865   
 L  R1866   
 L  R1867   
 L  R1868   
 L  R1869   
 L  R1870   
 L  R1871   
 L  R1872   
 L  R1873   
 L  R1877   
 L  R1878   
 L  R1879   
 L  R1880   
 L  R1881   
 L  R1882   
 L  R1883   
 L  R1884   
 L  R1885   
 L  R1886   
 L  R1887   
 L  R1894   
 L  R1895   
 L  R1896   
 L  R1897   
 L  R1898   
 L  R1899   
 L  R1900   
 L  R1901   
 L  R1906   
 L  R1907   
 L  R1908   
 L  R1909   
 L  R1910   
 L  R1911   
 L  R1912   
 L  R1913   
 L  R1914   
 L  R1915   
 L  R1919   
 L  R1920   
 L  R1923   
 L  R1924   
 L  R1925   
 L  R1926   
 L  R1927   
 L  R1928   
 L  R1929   
 L  R1930   
 L  R1931   
 L  R1936   
 L  R1939   
 L  R1940   
 L  R1941   
 L  R1942   
 L  R1943   
 L  R1944   
 L  R1945   
 L  R1946   
 L  R1947   
 L  R1951   
 L  R1952   
 L  R1953   
 L  R1954   
 L  R1955   
 L  R1956   
 L  R1957   
 L  R1958   
 L  R1959   
 L  R1960   
 L  R1961   
 L  R1962   
 L  R1963   
 L  R1970   
 L  R1971   
 L  R1972   
 L  R1973   
 L  R1974   
 L  R1975   
 L  R1976   
 L  R1977   
 L  R1978   
 L  R1979   
 L  R1986   
 L  R1987   
 L  R1988   
 L  R1989   
 L  R1990   
 L  R1991   
 L  R1992   
 L  R1993   
 L  R1994   
 L  R1995   
 L  R2000   
 L  R2003   
 L  R2004   
 L  R2005   
 L  R2006   
 L  R2007   
 L  R2008   
 L  R2009   
 L  R2010   
 L  R2011   
 L  R2017   
 L  R2018   
 L  R2019   
 L  R2020   
 L  R2021   
 L  R2022   
 L  R2023   
 L  R2024   
 L  R2025   
 L  R2026   
 L  R2027   
 L  R2033   
 L  R2034   
 L  R2035   
 L  R2036   
 L  R2037   
 L  R2038   
 L  R2039   
 L  R2040   
 L  R2041   
 L  R2042   
 L  R2043   
 L  R2051   
 L  R2052   
 L  R2053   
 L  R2054   
 L  R2055   
 L  R2056   
 L  R2057   
 L  R2058   
 L  R2059   
 L  R2065   
 L  R2066   
 L  R2067   
 L  R2068   
 L  R2069   
 L  R2070   
 L  R2071   
 L  R2072   
 L  R2073   
 L  R2074   
 L  R2075   
 L  R2081   
 L  R2082   
 L  R2083   
 L  R2084   
 L  R2085   
 L  R2086   
 L  R2087   
 L  R2088   
 L  R2089   
 L  R2090   
 L  R2091   
 L  R2097   
 L  R2098   
 L  R2099   
 L  R2100   
 L  R2101   
 L  R2102   
 L  R2103   
 L  R2104   
 L  R2105   
 L  R2106   
 L  R2107   
 L  R2112   
 L  R2115   
 L  R2116   
 L  R2117   
 L  R2118   
 L  R2119   
 L  R2120   
 L  R2121   
 L  R2122   
 L  R2123   
 L  R2127   
 L  R2131   
 L  R2132   
 L  R2133   
 L  R2134   
 L  R2135   
 L  R2136   
 L  R2137   
 L  R2138   
 L  R2139   
 L  R2146   
 L  R2147   
 L  R2148   
 L  R2149   
 L  R2150   
 L  R2151   
 L  R2152   
 L  R2153   
 L  R2154   
 L  R2155   
 L  R2161   
 L  R2162   
 L  R2163   
 L  R2164   
 L  R2165   
 L  R2166   
 L  R2167   
 L  R2168   
 L  R2169   
 L  R2170   
 L  R2171   
 L  R2179   
 L  R2180   
 L  R2181   
 L  R2182   
 L  R2183   
 L  R2184   
 L  R2185   
 L  R2186   
 L  R2187   
 L  R2191   
 L  R2192   
 L  R2195   
 L  R2196   
 L  R2197   
 L  R2198   
 L  R2199   
 L  R2200   
 L  R2201   
 L  R2202   
 L  R2203   
 L  R2207   
 L  R2208   
 L  R2209   
 L  R2210   
 L  R2211   
 L  R2212   
 L  R2213   
 L  R2214   
 L  R2215   
 L  R2216   
 L  R2217   
 L  R2218   
 L  R2222   
 L  R2223   
 L  R2224   
 L  R2225   
 L  R2226   
 L  R2227   
 L  R2228   
 L  R2229   
 L  R2230   
 L  R2231   
 L  R2232   
 L  R2233   
 L  R2237   
 L  R2238   
 L  R2239   
 L  R2240   
 L  R2241   
 L  R2242   
 L  R2243   
 L  R2244   
 L  R2245   
 L  R2246   
 L  R2247   
 L  R2248   
 L  R2254   
 L  R2255   
 L  R2256   
 L  R2257   
 L  R2258   
 L  R2259   
 L  R2260   
 L  R2261   
 L  R2262   
 L  R2263   
 L  R2269   
 L  R2270   
 L  R2271   
 L  R2272   
 L  R2273   
 L  R2274   
 L  R2275   
 L  R2276   
 L  R2277   
 L  R2278   
 L  R2283   
 L  R2285   
 L  R2286   
 L  R2287   
 L  R2288   
 L  R2289   
 L  R2290   
 L  R2291   
 L  R2292   
 L  R2293   
 L  R2297   
 L  R2298   
 L  R2299   
 L  R2300   
 L  R2301   
 L  R2302   
 L  R2303   
 L  R2304   
 L  R2305   
 L  R2306   
 L  R2307   
 L  R2308   
 L  R2314   
 L  R2315   
 L  R2316   
 L  R2317   
 L  R2318   
 L  R2319   
 L  R2320   
 L  R2321   
 L  R2322   
 L  R2323   
 L  R2329   
 L  R2330   
 L  R2331   
 L  R2332   
 L  R2333   
 L  R2334   
 L  R2335   
 L  R2336   
 L  R2337   
 L  R2338   
 L  R2344   
 L  R2345   
 L  R2346   
 L  R2347   
 L  R2348   
 L  R2349   
 L  R2350   
 L  R2351   
 L  R2352   
 L  R2353   
 L  R2359   
 L  R2360   
 L  R2361   
 L  R2362   
 L  R2363   
 L  R2364   
 L  R2365   
 L  R2366   
 L  R2367   
 L  R2368   
 L  R2374   
 L  R2375   
 L  R2376   
 L  R2377   
 L  R2378   
 L  R2379   
 L  R2380   
 L  R2381   
 L  R2382   
 L  R2383   
 L  R2388   
 L  R2390   
 L  R2391   
 L  R2392   
 L  R2393   
 L  R2394   
 L  R2395   
 L  R2396   
 L  R2397   
 L  R2398   
 L  R2402   
 L  R2403   
 L  R2405   
 L  R2406   
 L  R2407   
 L  R2408   
 L  R2409   
 L  R2410   
 L  R2411   
 L  R2412   
 L  R2413   
 L  R2419   
 L  R2420   
 L  R2421   
 L  R2422   
 L  R2423   
 L  R2424   
 L  R2425   
 L  R2426   
 L  R2427   
 L  R2428   
 L  R2433   
 L  R2434   
 L  R2435   
 L  R2436   
 L  R2437   
 L  R2438   
 L  R2439   
 L  R2440   
 L  R2441   
 L  R2442   
 L  R2443   
 L  R2448   
 L  R2450   
 L  R2451   
 L  R2452   
 L  R2453   
 L  R2454   
 L  R2455   
 L  R2456   
 L  R2457   
 L  R2458   
 L  R2462   
 L  R2463   
 L  R2465   
 L  R2466   
 L  R2467   
 L  R2468   
 L  R2469   
 L  R2470   
 L  R2471   
 L  R2472   
 L  R2473   
 L  R2476   
 L  R2477   
 L  R2479   
 L  R2480   
 L  R2481   
 L  R2482   
 L  R2483   
 L  R2484   
 L  R2485   
 L  R2486   
 L  R2487   
 L  R2491   
 L  R2492   
 L  R2493   
 L  R2494   
 L  R2495   
 L  R2496   
 L  R2497   
 L  R2498   
 L  R2499   
 L  R2500   
 L  R2501   
 L  R2505   
 L  R2507   
 L  R2508   
 L  R2509   
 L  R2510   
 L  R2511   
 L  R2512   
 L  R2513   
 L  R2514   
 L  R2515   
 L  R2521   
 L  R2522   
 L  R2523   
 L  R2524   
 L  R2525   
 L  R2526   
 L  R2527   
 L  R2528   
 L  R2529   
 L  R2535   
 L  R2536   
 L  R2537   
 L  R2538   
 L  R2539   
 L  R2540   
 L  R2541   
 L  R2542   
 L  R2543   
 L  R2548   
 L  R2549   
 L  R2550   
 L  R2551   
 L  R2552   
 L  R2553   
 L  R2554   
 L  R2555   
 L  R2556   
 L  R2557   
 L  R2560   
 L  R2561   
 L  R2563   
 L  R2564   
 L  R2565   
 L  R2566   
 L  R2567   
 L  R2568   
 L  R2569   
 L  R2570   
 L  R2571   
 L  R2577   
 L  R2578   
 L  R2579   
 L  R2580   
 L  R2581   
 L  R2582   
 L  R2583   
 L  R2584   
 L  R2585   
 L  R2591   
 L  R2592   
 L  R2593   
 L  R2594   
 L  R2595   
 L  R2596   
 L  R2597   
 L  R2598   
 L  R2599   
 L  R2605   
 L  R2606   
 L  R2607   
 L  R2608   
 L  R2609   
 L  R2610   
 L  R2611   
 L  R2612   
 L  R2613   
 L  R2619   
 L  R2620   
 L  R2621   
 L  R2622   
 L  R2623   
 L  R2624   
 L  R2625   
 L  R2626   
 L  R2627   
 L  R2633   
 L  R2634   
 L  R2635   
 L  R2636   
 L  R2637   
 L  R2638   
 L  R2639   
 L  R2640   
 L  R2641   
 L  R2646   
 L  R2647   
 L  R2648   
 L  R2649   
 L  R2650   
 L  R2651   
 L  R2652   
 L  R2653   
 L  R2654   
 L  R2655   
 L  R2659   
 L  R2661   
 L  R2662   
 L  R2663   
 L  R2664   
 L  R2665   
 L  R2666   
 L  R2667   
 L  R2668   
 L  R2669   
 L  R2675   
 L  R2676   
 L  R2677   
 L  R2678   
 L  R2679   
 L  R2680   
 L  R2681   
 L  R2682   
 L  R2683   
 L  R2688   
 L  R2689   
 L  R2690   
 L  R2691   
 L  R2692   
 L  R2693   
 L  R2694   
 L  R2695   
 L  R2696   
 L  R2697   
 L  R2701   
 L  R2704   
 L  R2705   
 L  R2706   
 L  R2707   
 L  R2708   
 L  R2709   
 L  R2710   
 L  R2711   
 L  R2715   
 L  R2716   
 L  R2717   
 L  R2718   
 L  R2719   
 L  R2720   
 L  R2721   
 L  R2722   
 L  R2723   
 L  R2724   
 L  R2725   
 L  R2726   
 L  R2727   
 L  R2728   
 L  R2729   
 L  R2730   
 L  R2731   
 L  R2732   
 L  R2733   
 L  R2734   
 L  R2735   
 L  R2736   
 L  R2737   
 L  R2738   
 L  R2739   
 L  R2740   
 L  R2741   
 L  R2742   
 L  R2743   
 L  R2744   
 L  R2745   
 L  R2746   
 L  R2747   
 L  R2748   
 L  R2749   
 L  R2750   
 L  R2751   
 L  R2752   
 L  R2753   
 L  R2754   
 L  R2755   
 L  R2756   
 L  R2757   
 L  R2758   
 L  R2759   
 L  R2760   
 L  R2761   
 E  R2764   
 E  R2765   
 E  R2767   
 E  R2773   
 E  R2774   
 E  R2777   
 E  R2782   
 E  R2784   
 E  R2785   
 E  R2786   
 E  R2793   
 E  R2794   
 E  R2795   
 L  R2800   
 L  R2802   
 L  R2804   
 L  R2805   
 L  R2806   
 L  R2820   
 L  R2831   
 L  R2832   
 L  R2833   
 L  R2834   
 L  R2835   
 L  R2836   
 L  R2840   
 L  R2847   
 L  R2853   
 L  R2855   
 L  R2867   
 L  R2868   
 L  R2869   
 L  R2870   
 L  R2871   
 L  R2872   
 L  R2884   
 E  R2885   
 L  R2887   
 L  R2889   
 L  R2891   
 L  R2892   
 L  R2893   
 L  R2915   
 L  R2916   
 L  R2917   
 L  R2919   
 L  R2921   
 L  R2922   
 L  R2923   
 L  R2932   
COLUMNS
    C0004     OBJ       1000
    C0004     R1919     -1
    C0004     R2207     -1
    C0004     R2477     -1
    C0005     OBJ       1000
    C0005     R1110     -1
    C0005     R1398     -1
    C0005     R1920     -1
    C0005     R2208     -1
    C0006     OBJ       1000
    C0006     R1255     -1
    C0006     R1399     -1
    C0006     R1669     -1
    C0006     R1795     -1
    C0006     R2065     -1
    C0006     R2209     -1
    C0006     R2344     -1
    C0006     R2479     -1
    C0006     R2605     -1
    C0007     OBJ       1000
    C0007     R1256     -1
    C0007     R1535     -1
    C0007     R1670     -1
    C0007     R1796     -1
    C0007     R2066     -1
    C0007     R2210     -1
    C0007     R2345     -1
    C0007     R2480     -1
    C0007     R2606     -1
    C0008     OBJ       1000
    C0008     R1113     -1
    C0008     R1257     -1
    C0008     R1536     -1
    C0008     R1671     -1
    C0008     R1797     -1
    C0008     R1923     -1
    C0008     R2067     -1
    C0008     R2211     -1
    C0008     R2346     -1
    C0008     R2481     -1
    C0008     R2607     -1
    C0009     OBJ       1000
    C0009     R1114     -1
    C0009     R1258     -1
    C0009     R1537     -1
    C0009     R1672     -1
    C0009     R1798     -1
    C0009     R1924     -1
    C0009     R2068     -1
    C0009     R2212     -1
    C0009     R2347     -1
    C0009     R2482     -1
    C0009     R2608     -1
    C0010     OBJ       1000
    C0010     R1115     -1
    C0010     R1259     -1
    C0010     R1538     -1
    C0010     R1673     -1
    C0010     R1799     -1
    C0010     R1925     -1
    C0010     R2069     -1
    C0010     R2213     -1
    C0010     R2348     -1
    C0010     R2483     -1
    C0010     R2609     -1
    C0011     OBJ       1000
    C0011     R1116     -1
    C0011     R1260     -1
    C0011     R1539     -1
    C0011     R1674     -1
    C0011     R1800     -1
    C0011     R1926     -1
    C0011     R2070     -1
    C0011     R2214     -1
    C0011     R2349     -1
    C0011     R2484     -1
    C0011     R2610     -1
    C0012     OBJ       1000
    C0012     R1117     -1
    C0012     R1261     -1
    C0012     R1405     -1
    C0012     R1675     -1
    C0012     R1801     -1
    C0012     R1927     -1
    C0012     R2071     -1
    C0012     R2215     -1
    C0012     R2350     -1
    C0012     R2485     -1
    C0012     R2611     -1
    C0013     OBJ       1000
    C0013     R1118     -1
    C0013     R1262     -1
    C0013     R1406     -1
    C0013     R1676     -1
    C0013     R1802     -1
    C0013     R1928     -1
    C0013     R2072     -1
    C0013     R2216     -1
    C0013     R2351     -1
    C0013     R2486     -1
    C0013     R2612     -1
    C0014     OBJ       1000
    C0014     R1119     -1
    C0014     R1263     -1
    C0014     R1542     -1
    C0014     R1677     -1
    C0014     R1803     -1
    C0014     R1929     -1
    C0014     R2073     -1
    C0014     R2217     -1
    C0014     R2352     -1
    C0014     R2487     -1
    C0014     R2613     -1
    C0015     OBJ       1000
    C0015     R1120     -1
    C0015     R1264     -1
    C0015     R1408     -1
    C0015     R1930     -1
    C0015     R2074     -1
    C0015     R2218     -1
    C0015     R2353     -1
    C0016     OBJ       1000
    C0016     R1121     -1
    C0016     R1265     -1
    C0016     R1931     -1
    C0016     R2075     -1
    C0022     OBJ       1000
    C0022     R1547     -1
    C0022     R1681     -1
    C0022     R2222     -1
    C0022     R2491     -1
    C0023     OBJ       1000
    C0023     R1126     -1
    C0023     R1413     -1
    C0023     R1936     -1
    C0023     R2223     -1
    C0024     OBJ       1000
    C0024     R1127     -1
    C0024     R1271     -1
    C0024     R1549     -1
    C0024     R1683     -1
    C0024     R1809     -1
    C0024     R2081     -1
    C0024     R2224     -1
    C0024     R2359     -1
    C0024     R2493     -1
    C0024     R2619     -1
    C0025     OBJ       1000
    C0025     R1128     -1
    C0025     R1272     -1
    C0025     R1415     -1
    C0025     R1684     -1
    C0025     R1810     -1
    C0025     R2082     -1
    C0025     R2225     -1
    C0025     R2360     -1
    C0025     R2494     -1
    C0025     R2620     -1
    C0026     OBJ       1000
    C0026     R1129     -1
    C0026     R1273     -1
    C0026     R1416     -1
    C0026     R1685     -1
    C0026     R1811     -1
    C0026     R1939     -1
    C0026     R2083     -1
    C0026     R2226     -1
    C0026     R2361     -1
    C0026     R2495     -1
    C0026     R2621     -1
    C0027     OBJ       1000
    C0027     R1130     -1
    C0027     R1274     -1
    C0027     R1552     -1
    C0027     R1686     -1
    C0027     R1812     -1
    C0027     R1940     -1
    C0027     R2084     -1
    C0027     R2227     -1
    C0027     R2362     -1
    C0027     R2496     -1
    C0027     R2622     -1
    C0028     OBJ       1000
    C0028     R1131     -1
    C0028     R1275     -1
    C0028     R1418     -1
    C0028     R1687     -1
    C0028     R1813     -1
    C0028     R1941     -1
    C0028     R2085     -1
    C0028     R2228     -1
    C0028     R2363     -1
    C0028     R2497     -1
    C0028     R2623     -1
    C0029     OBJ       1000
    C0029     R1132     -1
    C0029     R1276     -1
    C0029     R1419     -1
    C0029     R1688     -1
    C0029     R1814     -1
    C0029     R1942     -1
    C0029     R2086     -1
    C0029     R2229     -1
    C0029     R2364     -1
    C0029     R2498     -1
    C0029     R2624     -1
    C0030     OBJ       1000
    C0030     R1133     -1
    C0030     R1277     -1
    C0030     R1420     -1
    C0030     R1689     -1
    C0030     R1815     -1
    C0030     R1943     -1
    C0030     R2087     -1
    C0030     R2230     -1
    C0030     R2365     -1
    C0030     R2499     -1
    C0030     R2625     -1
    C0031     OBJ       1000
    C0031     R1134     -1
    C0031     R1278     -1
    C0031     R1421     -1
    C0031     R1690     -1
    C0031     R1816     -1
    C0031     R1944     -1
    C0031     R2088     -1
    C0031     R2231     -1
    C0031     R2366     -1
    C0031     R2500     -1
    C0031     R2626     -1
    C0032     OBJ       1000
    C0032     R1135     -1
    C0032     R1279     -1
    C0032     R1422     -1
    C0032     R1691     -1
    C0032     R1817     -1
    C0032     R1945     -1
    C0032     R2089     -1
    C0032     R2232     -1
    C0032     R2367     -1
    C0032     R2501     -1
    C0032     R2627     -1
    C0033     OBJ       1000
    C0033     R1136     -1
    C0033     R1280     -1
    C0033     R1423     -1
    C0033     R1946     -1
    C0033     R2090     -1
    C0033     R2233     -1
    C0033     R2368     -1
    C0034     OBJ       1000
    C0034     R1137     -1
    C0034     R1281     -1
    C0034     R1947     -1
    C0034     R2091     -1
    C0040     OBJ       1000
    C0040     R1951     -1
    C0040     R2237     -1
    C0041     OBJ       1000
    C0041     R1142     -1
    C0041     R1563     -1
    C0041     R1952     -1
    C0041     R2238     -1
    C0042     OBJ       1000
    C0042     R1143     -1
    C0042     R1287     -1
    C0042     R1697     -1
    C0042     R1823     -1
    C0042     R1953     -1
    C0042     R2097     -1
    C0042     R2507     -1
    C0042     R2633     -1
    C0043     OBJ       1000
    C0043     R1144     -1
    C0043     R1288     -1
    C0043     R1565     -1
    C0043     R1698     -1
    C0043     R1824     -1
    C0043     R1954     -1
    C0043     R2098     -1
    C0043     R2240     -1
    C0043     R2375     -1
    C0043     R2508     -1
    C0043     R2634     -1
    C0044     OBJ       1000
    C0044     R1145     -1
    C0044     R1289     -1
    C0044     R1431     -1
    C0044     R1699     -1
    C0044     R1825     -1
    C0044     R1955     -1
    C0044     R2099     -1
    C0044     R2241     -1
    C0044     R2376     -1
    C0044     R2509     -1
    C0044     R2635     -1
    C0045     OBJ       1000
    C0045     R1146     -1
    C0045     R1290     -1
    C0045     R1432     -1
    C0045     R1700     -1
    C0045     R1826     -1
    C0045     R1956     -1
    C0045     R2100     -1
    C0045     R2242     -1
    C0045     R2377     -1
    C0045     R2510     -1
    C0045     R2636     -1
    C0046     OBJ       1000
    C0046     R1147     -1
    C0046     R1291     -1
    C0046     R1433     -1
    C0046     R1701     -1
    C0046     R1827     -1
    C0046     R1957     -1
    C0046     R2101     -1
    C0046     R2243     -1
    C0046     R2378     -1
    C0046     R2511     -1
    C0046     R2637     -1
    C0047     OBJ       1000
    C0047     R1148     -1
    C0047     R1292     -1
    C0047     R1434     -1
    C0047     R1702     -1
    C0047     R1828     -1
    C0047     R1958     -1
    C0047     R2102     -1
    C0047     R2244     -1
    C0047     R2379     -1
    C0047     R2512     -1
    C0047     R2638     -1
    C0048     OBJ       1000
    C0048     R1149     -1
    C0048     R1293     -1
    C0048     R1435     -1
    C0048     R1703     -1
    C0048     R1829     -1
    C0048     R1959     -1
    C0048     R2103     -1
    C0048     R2245     -1
    C0048     R2380     -1
    C0048     R2513     -1
    C0048     R2639     -1
    C0049     OBJ       1000
    C0049     R1150     -1
    C0049     R1294     -1
    C0049     R1571     -1
    C0049     R1704     -1
    C0049     R1830     -1
    C0049     R1960     -1
    C0049     R2104     -1
    C0049     R2246     -1
    C0049     R2381     -1
    C0049     R2514     -1
    C0049     R2640     -1
    C0050     OBJ       1000
    C0050     R1151     -1
    C0050     R1295     -1
    C0050     R1572     -1
    C0050     R1705     -1
    C0050     R1831     -1
    C0050     R1961     -1
    C0050     R2105     -1
    C0050     R2247     -1
    C0050     R2382     -1
    C0050     R2515     -1
    C0050     R2641     -1
    C0051     OBJ       1000
    C0051     R1152     -1
    C0051     R1296     -1
    C0051     R1573     -1
    C0051     R1962     -1
    C0051     R2106     -1
    C0051     R2248     -1
    C0051     R2383     -1
    C0052     OBJ       1000
    C0052     R1153     -1
    C0052     R1297     -1
    C0052     R1963     -1
    C0052     R2107     -1
    C0058     OBJ       1000
    C0058     R1301     -1
    C0058     R1835     -1
    C0059     OBJ       1000
    C0059     R1302     -1
    C0059     R2112     -1
    C0059     R2388     -1
    C0060     OBJ       1000
    C0060     R1444     -1
    C0060     R1711     -1
    C0060     R1837     -1
    C0060     R2254     -1
    C0060     R2521     -1
    C0060     R2647     -1
    C0061     OBJ       1000
    C0061     R1160     -1
    C0061     R1580     -1
    C0061     R1712     -1
    C0061     R1838     -1
    C0061     R1970     -1
    C0061     R2255     -1
    C0061     R2390     -1
    C0061     R2522     -1
    C0061     R2648     -1
    C0062     OBJ       1000
    C0062     R1161     -1
    C0062     R1305     -1
    C0062     R1446     -1
    C0062     R1713     -1
    C0062     R1839     -1
    C0062     R1971     -1
    C0062     R2115     -1
    C0062     R2256     -1
    C0062     R2391     -1
    C0062     R2523     -1
    C0062     R2649     -1
    C0063     OBJ       1000
    C0063     R1162     -1
    C0063     R1306     -1
    C0063     R1447     -1
    C0063     R1714     -1
    C0063     R1840     -1
    C0063     R1972     -1
    C0063     R2116     -1
    C0063     R2257     -1
    C0063     R2392     -1
    C0063     R2524     -1
    C0063     R2650     -1
    C0064     OBJ       1000
    C0064     R1163     -1
    C0064     R1307     -1
    C0064     R1448     -1
    C0064     R1715     -1
    C0064     R1841     -1
    C0064     R1973     -1
    C0064     R2117     -1
    C0064     R2258     -1
    C0064     R2393     -1
    C0064     R2525     -1
    C0064     R2651     -1
    C0065     OBJ       1000
    C0065     R1164     -1
    C0065     R1308     -1
    C0065     R1449     -1
    C0065     R1716     -1
    C0065     R1842     -1
    C0065     R1974     -1
    C0065     R2118     -1
    C0065     R2259     -1
    C0065     R2394     -1
    C0065     R2526     -1
    C0065     R2652     -1
    C0066     OBJ       1000
    C0066     R1165     -1
    C0066     R1309     -1
    C0066     R1450     -1
    C0066     R1717     -1
    C0066     R1843     -1
    C0066     R1975     -1
    C0066     R2119     -1
    C0066     R2260     -1
    C0066     R2395     -1
    C0066     R2527     -1
    C0066     R2653     -1
    C0067     OBJ       1000
    C0067     R1166     -1
    C0067     R1310     -1
    C0067     R1586     -1
    C0067     R1718     -1
    C0067     R1844     -1
    C0067     R1976     -1
    C0067     R2120     -1
    C0067     R2261     -1
    C0067     R2396     -1
    C0067     R2528     -1
    C0067     R2654     -1
    C0068     OBJ       1000
    C0068     R1167     -1
    C0068     R1311     -1
    C0068     R1452     -1
    C0068     R1719     -1
    C0068     R1845     -1
    C0068     R1977     -1
    C0068     R2121     -1
    C0068     R2262     -1
    C0068     R2397     -1
    C0068     R2529     -1
    C0068     R2655     -1
    C0069     OBJ       1000
    C0069     R1168     -1
    C0069     R1312     -1
    C0069     R1588     -1
    C0069     R1978     -1
    C0069     R2122     -1
    C0069     R2263     -1
    C0069     R2398     -1
    C0070     OBJ       1000
    C0070     R1169     -1
    C0070     R1313     -1
    C0070     R1979     -1
    C0070     R2123     -1
    C0076     OBJ       1000
    C0076     R2127     -1
    C0076     R2402     -1
    C0077     OBJ       1000
    C0077     R1318     -1
    C0077     R2403     -1
    C0078     OBJ       1000
    C0078     R1594     -1
    C0078     R1725     -1
    C0078     R1851     -1
    C0078     R2269     -1
    C0078     R2535     -1
    C0078     R2661     -1
    C0079     OBJ       1000
    C0079     R1176     -1
    C0079     R1595     -1
    C0079     R1726     -1
    C0079     R1852     -1
    C0079     R1986     -1
    C0079     R2270     -1
    C0079     R2405     -1
    C0079     R2536     -1
    C0079     R2662     -1
    C0080     OBJ       1000
    C0080     R1177     -1
    C0080     R1321     -1
    C0080     R1596     -1
    C0080     R1727     -1
    C0080     R1853     -1
    C0080     R1987     -1
    C0080     R2131     -1
    C0080     R2271     -1
    C0080     R2406     -1
    C0080     R2537     -1
    C0080     R2663     -1
    C0081     OBJ       1000
    C0081     R1178     -1
    C0081     R1322     -1
    C0081     R1597     -1
    C0081     R1728     -1
    C0081     R1854     -1
    C0081     R1988     -1
    C0081     R2132     -1
    C0081     R2272     -1
    C0081     R2407     -1
    C0081     R2538     -1
    C0081     R2664     -1
    C0082     OBJ       1000
    C0082     R1179     -1
    C0082     R1323     -1
    C0082     R1463     -1
    C0082     R1729     -1
    C0082     R1855     -1
    C0082     R1989     -1
    C0082     R2133     -1
    C0082     R2273     -1
    C0082     R2408     -1
    C0082     R2539     -1
    C0082     R2665     -1
    C0083     OBJ       1000
    C0083     R1180     -1
    C0083     R1324     -1
    C0083     R1599     -1
    C0083     R1730     -1
    C0083     R1856     -1
    C0083     R1990     -1
    C0083     R2134     -1
    C0083     R2274     -1
    C0083     R2409     -1
    C0083     R2540     -1
    C0083     R2666     -1
    C0084     OBJ       1000
    C0084     R1181     -1
    C0084     R1325     -1
    C0084     R1465     -1
    C0084     R1731     -1
    C0084     R1857     -1
    C0084     R1991     -1
    C0084     R2135     -1
    C0084     R2275     -1
    C0084     R2410     -1
    C0084     R2541     -1
    C0084     R2667     -1
    C0085     OBJ       1000
    C0085     R1182     -1
    C0085     R1326     -1
    C0085     R1466     -1
    C0085     R1732     -1
    C0085     R1858     -1
    C0085     R1992     -1
    C0085     R2136     -1
    C0085     R2276     -1
    C0085     R2411     -1
    C0085     R2542     -1
    C0085     R2668     -1
    C0086     OBJ       1000
    C0086     R1183     -1
    C0086     R1327     -1
    C0086     R1602     -1
    C0086     R1733     -1
    C0086     R1859     -1
    C0086     R1993     -1
    C0086     R2137     -1
    C0086     R2277     -1
    C0086     R2412     -1
    C0086     R2543     -1
    C0086     R2669     -1
    C0087     OBJ       1000
    C0087     R1184     -1
    C0087     R1328     -1
    C0087     R1468     -1
    C0087     R1994     -1
    C0087     R2138     -1
    C0087     R2278     -1
    C0087     R2413     -1
    C0088     OBJ       1000
    C0088     R1185     -1
    C0088     R1329     -1
    C0088     R1995     -1
    C0088     R2139     -1
    C0094     OBJ       1000
    C0094     R1189     -1
    C0094     R1607     -1
    C0094     R1737     -1
    C0095     OBJ       1000
    C0095     R1190     -1
    C0095     R1473     -1
    C0095     R2000     -1
    C0095     R2283     -1
    C0096     OBJ       1000
    C0096     R1335     -1
    C0096     R1739     -1
    C0096     R1865     -1
    C0096     R2419     -1
    C0096     R2549     -1
    C0096     R2675     -1
    C0097     OBJ       1000
    C0097     R1336     -1
    C0097     R1610     -1
    C0097     R1740     -1
    C0097     R1866     -1
    C0097     R2146     -1
    C0097     R2285     -1
    C0097     R2420     -1
    C0097     R2550     -1
    C0097     R2676     -1
    C0098     OBJ       1000
    C0098     R1193     -1
    C0098     R1337     -1
    C0098     R1476     -1
    C0098     R1741     -1
    C0098     R1867     -1
    C0098     R2003     -1
    C0098     R2147     -1
    C0098     R2286     -1
    C0098     R2421     -1
    C0098     R2551     -1
    C0098     R2677     -1
    C0099     OBJ       1000
    C0099     R1194     -1
    C0099     R1338     -1
    C0099     R1477     -1
    C0099     R1742     -1
    C0099     R1868     -1
    C0099     R2004     -1
    C0099     R2148     -1
    C0099     R2287     -1
    C0099     R2422     -1
    C0099     R2552     -1
    C0099     R2678     -1
    C0100     OBJ       1000
    C0100     R1195     -1
    C0100     R1339     -1
    C0100     R1478     -1
    C0100     R1743     -1
    C0100     R1869     -1
    C0100     R2005     -1
    C0100     R2149     -1
    C0100     R2288     -1
    C0100     R2423     -1
    C0100     R2553     -1
    C0100     R2679     -1
    C0101     OBJ       1000
    C0101     R1196     -1
    C0101     R1340     -1
    C0101     R1479     -1
    C0101     R1744     -1
    C0101     R1870     -1
    C0101     R2006     -1
    C0101     R2150     -1
    C0101     R2289     -1
    C0101     R2424     -1
    C0101     R2554     -1
    C0101     R2680     -1
    C0102     OBJ       1000
    C0102     R1197     -1
    C0102     R1341     -1
    C0102     R1480     -1
    C0102     R1745     -1
    C0102     R1871     -1
    C0102     R2007     -1
    C0102     R2151     -1
    C0102     R2290     -1
    C0102     R2425     -1
    C0102     R2555     -1
    C0102     R2681     -1
    C0103     OBJ       1000
    C0103     R1198     -1
    C0103     R1342     -1
    C0103     R1616     -1
    C0103     R1746     -1
    C0103     R1872     -1
    C0103     R2008     -1
    C0103     R2152     -1
    C0103     R2291     -1
    C0103     R2426     -1
    C0103     R2556     -1
    C0103     R2682     -1
    C0104     OBJ       1000
    C0104     R1199     -1
    C0104     R1343     -1
    C0104     R1617     -1
    C0104     R1747     -1
    C0104     R1873     -1
    C0104     R2009     -1
    C0104     R2153     -1
    C0104     R2292     -1
    C0104     R2427     -1
    C0104     R2557     -1
    C0104     R2683     -1
    C0105     OBJ       1000
    C0105     R1200     -1
    C0105     R1344     -1
    C0105     R1483     -1
    C0105     R2010     -1
    C0105     R2154     -1
    C0105     R2293     -1
    C0105     R2428     -1
    C0106     OBJ       1000
    C0106     R1201     -1
    C0106     R1345     -1
    C0106     R2011     -1
    C0106     R2155     -1
    C0112     OBJ       1000
    C0112     R1877     -1
    C0112     R2297     -1
    C0112     R2561     -1
    C0113     OBJ       1000
    C0113     R1488     -1
    C0113     R2298     -1
    C0113     R2433     -1
    C0114     OBJ       1000
    C0114     R1207     -1
    C0114     R1351     -1
    C0114     R1489     -1
    C0114     R1753     -1
    C0114     R1879     -1
    C0114     R2017     -1
    C0114     R2161     -1
    C0114     R2299     -1
    C0114     R2434     -1
    C0114     R2563     -1
    C0114     R2689     -1
    C0115     OBJ       1000
    C0115     R1208     -1
    C0115     R1352     -1
    C0115     R1490     -1
    C0115     R1754     -1
    C0115     R1880     -1
    C0115     R2018     -1
    C0115     R2162     -1
    C0115     R2300     -1
    C0115     R2435     -1
    C0115     R2564     -1
    C0115     R2690     -1
    C0116     OBJ       1000
    C0116     R1209     -1
    C0116     R1353     -1
    C0116     R1491     -1
    C0116     R1755     -1
    C0116     R1881     -1
    C0116     R2019     -1
    C0116     R2163     -1
    C0116     R2301     -1
    C0116     R2436     -1
    C0116     R2565     -1
    C0116     R2691     -1
    C0117     OBJ       1000
    C0117     R1210     -1
    C0117     R1354     -1
    C0117     R1492     -1
    C0117     R1756     -1
    C0117     R1882     -1
    C0117     R2020     -1
    C0117     R2164     -1
    C0117     R2302     -1
    C0117     R2437     -1
    C0117     R2566     -1
    C0117     R2692     -1
    C0118     OBJ       1000
    C0118     R1211     -1
    C0118     R1355     -1
    C0118     R1493     -1
    C0118     R1757     -1
    C0118     R1883     -1
    C0118     R2021     -1
    C0118     R2165     -1
    C0118     R2303     -1
    C0118     R2438     -1
    C0118     R2567     -1
    C0118     R2693     -1
    C0119     OBJ       1000
    C0119     R1212     -1
    C0119     R1356     -1
    C0119     R1494     -1
    C0119     R1758     -1
    C0119     R1884     -1
    C0119     R2022     -1
    C0119     R2166     -1
    C0119     R2304     -1
    C0119     R2439     -1
    C0119     R2568     -1
    C0119     R2694     -1
    C0120     OBJ       1000
    C0120     R1213     -1
    C0120     R1357     -1
    C0120     R1495     -1
    C0120     R1759     -1
    C0120     R1885     -1
    C0120     R2023     -1
    C0120     R2167     -1
    C0120     R2305     -1
    C0120     R2440     -1
    C0120     R2569     -1
    C0120     R2695     -1
    C0121     OBJ       1000
    C0121     R1214     -1
    C0121     R1358     -1
    C0121     R1496     -1
    C0121     R1760     -1
    C0121     R1886     -1
    C0121     R2024     -1
    C0121     R2168     -1
    C0121     R2306     -1
    C0121     R2441     -1
    C0121     R2570     -1
    C0121     R2696     -1
    C0122     OBJ       1000
    C0122     R1215     -1
    C0122     R1359     -1
    C0122     R1497     -1
    C0122     R1761     -1
    C0122     R1887     -1
    C0122     R2025     -1
    C0122     R2169     -1
    C0122     R2307     -1
    C0122     R2442     -1
    C0122     R2571     -1
    C0122     R2697     -1
    C0123     OBJ       1000
    C0123     R1216     -1
    C0123     R1360     -1
    C0123     R1498     -1
    C0123     R2026     -1
    C0123     R2170     -1
    C0123     R2308     -1
    C0123     R2443     -1
    C0124     OBJ       1000
    C0124     R1217     -1
    C0124     R1361     -1
    C0124     R2027     -1
    C0124     R2171     -1
    C0130     OBJ       1000
    C0130     R1765     -1
    C0130     R2701     -1
    C0131     OBJ       1000
    C0131     R2448     -1
    C0132     OBJ       1000
    C0132     R1223     -1
    C0132     R1767     -1
    C0132     R2033     -1
    C0132     R2577     -1
    C0133     OBJ       1000
    C0133     R1368     -1
    C0133     R1640     -1
    C0133     R1768     -1
    C0133     R1894     -1
    C0133     R2034     -1
    C0133     R2315     -1
    C0133     R2450     -1
    C0133     R2578     -1
    C0133     R2704     -1
    C0134     OBJ       1000
    C0134     R1225     -1
    C0134     R1369     -1
    C0134     R1641     -1
    C0134     R1769     -1
    C0134     R1895     -1
    C0134     R2035     -1
    C0134     R2179     -1
    C0134     R2316     -1
    C0134     R2451     -1
    C0134     R2579     -1
    C0134     R2705     -1
    C0135     OBJ       1000
    C0135     R1226     -1
    C0135     R1370     -1
    C0135     R1507     -1
    C0135     R1770     -1
    C0135     R1896     -1
    C0135     R2036     -1
    C0135     R2180     -1
    C0135     R2317     -1
    C0135     R2452     -1
    C0135     R2580     -1
    C0135     R2706     -1
    C0136     OBJ       1000
    C0136     R1227     -1
    C0136     R1371     -1
    C0136     R1508     -1
    C0136     R1771     -1
    C0136     R1897     -1
    C0136     R2037     -1
    C0136     R2181     -1
    C0136     R2318     -1
    C0136     R2453     -1
    C0136     R2581     -1
    C0136     R2707     -1
    C0137     OBJ       1000
    C0137     R1228     -1
    C0137     R1372     -1
    C0137     R1644     -1
    C0137     R1772     -1
    C0137     R1898     -1
    C0137     R2038     -1
    C0137     R2182     -1
    C0137     R2319     -1
    C0137     R2454     -1
    C0137     R2582     -1
    C0137     R2708     -1
    C0138     OBJ       1000
    C0138     R1229     -1
    C0138     R1373     -1
    C0138     R1645     -1
    C0138     R1773     -1
    C0138     R1899     -1
    C0138     R2039     -1
    C0138     R2183     -1
    C0138     R2320     -1
    C0138     R2455     -1
    C0138     R2583     -1
    C0138     R2709     -1
    C0139     OBJ       1000
    C0139     R1230     -1
    C0139     R1374     -1
    C0139     R1646     -1
    C0139     R1774     -1
    C0139     R1900     -1
    C0139     R2040     -1
    C0139     R2184     -1
    C0139     R2321     -1
    C0139     R2456     -1
    C0139     R2584     -1
    C0139     R2710     -1
    C0140     OBJ       1000
    C0140     R1231     -1
    C0140     R1375     -1
    C0140     R1512     -1
    C0140     R1775     -1
    C0140     R1901     -1
    C0140     R2041     -1
    C0140     R2185     -1
    C0140     R2322     -1
    C0140     R2457     -1
    C0140     R2585     -1
    C0140     R2711     -1
    C0141     OBJ       1000
    C0141     R1232     -1
    C0141     R1376     -1
    C0141     R1648     -1
    C0141     R2042     -1
    C0141     R2186     -1
    C0141     R2323     -1
    C0141     R2458     -1
    C0142     OBJ       1000
    C0142     R1233     -1
    C0142     R1377     -1
    C0142     R2043     -1
    C0142     R2187     -1
    C0148     OBJ       1000
    C0148     R2191     -1
    C0148     R2462     -1
    C0148     R2715     -1
    C0149     OBJ       3.3333333333333331e+02
    C0149     R1382     -1
    C0149     R2192     -1
    C0149     R2463     -1
    C0149     R2716     -1
    C0150     OBJ       1000
    C0150     R1654     -1
    C0150     R2329     -1
    C0151     OBJ       1000
    C0151     R1655     -1
    C0151     R1782     -1
    C0151     R1908     -1
    C0151     R2330     -1
    C0151     R2465     -1
    C0151     R2592     -1
    C0151     R2718     -1
    C0152     OBJ       1000
    C0152     R1241     -1
    C0152     R1385     -1
    C0152     R1656     -1
    C0152     R1783     -1
    C0152     R1909     -1
    C0152     R2051     -1
    C0152     R2195     -1
    C0152     R2331     -1
    C0152     R2466     -1
    C0152     R2593     -1
    C0152     R2719     -1
    C0153     OBJ       1000
    C0153     R1242     -1
    C0153     R1386     -1
    C0153     R1522     -1
    C0153     R1784     -1
    C0153     R1910     -1
    C0153     R2052     -1
    C0153     R2196     -1
    C0153     R2332     -1
    C0153     R2467     -1
    C0153     R2594     -1
    C0153     R2720     -1
    C0154     OBJ       1000
    C0154     R1243     -1
    C0154     R1387     -1
    C0154     R1658     -1
    C0154     R1785     -1
    C0154     R1911     -1
    C0154     R2053     -1
    C0154     R2197     -1
    C0154     R2333     -1
    C0154     R2468     -1
    C0154     R2595     -1
    C0154     R2721     -1
    C0155     OBJ       1000
    C0155     R1244     -1
    C0155     R1388     -1
    C0155     R1659     -1
    C0155     R1786     -1
    C0155     R1912     -1
    C0155     R2054     -1
    C0155     R2198     -1
    C0155     R2334     -1
    C0155     R2469     -1
    C0155     R2596     -1
    C0155     R2722     -1
    C0156     OBJ       1000
    C0156     R1245     -1
    C0156     R1389     -1
    C0156     R1660     -1
    C0156     R1787     -1
    C0156     R1913     -1
    C0156     R2055     -1
    C0156     R2199     -1
    C0156     R2335     -1
    C0156     R2470     -1
    C0156     R2597     -1
    C0156     R2723     -1
    C0157     OBJ       1000
    C0157     R1246     -1
    C0157     R1390     -1
    C0157     R1661     -1
    C0157     R1788     -1
    C0157     R1914     -1
    C0157     R2056     -1
    C0157     R2200     -1
    C0157     R2336     -1
    C0157     R2471     -1
    C0157     R2598     -1
    C0157     R2724     -1
    C0158     OBJ       1000
    C0158     R1247     -1
    C0158     R1391     -1
    C0158     R1662     -1
    C0158     R1789     -1
    C0158     R1915     -1
    C0158     R2057     -1
    C0158     R2201     -1
    C0158     R2337     -1
    C0158     R2472     -1
    C0158     R2599     -1
    C0158     R2725     -1
    C0159     OBJ       1000
    C0159     R1248     -1
    C0159     R1392     -1
    C0159     R1528     -1
    C0159     R2058     -1
    C0159     R2202     -1
    C0159     R2338     -1
    C0159     R2473     -1
    C0160     OBJ       1000
    C0160     R1249     -1
    C0160     R1393     -1
    C0160     R2059     -1
    C0160     R2203     -1
    C0163     OBJ       1000
    C0163     R2726     -1
    C0163     R2735     -1
    C0163     R2744     -1
    C0163     R2753     -1
    C0164     OBJ       1000
    C0164     R2727     -1
    C0164     R2736     -1
    C0164     R2745     -1
    C0164     R2754     -1
    C0165     OBJ       1000
    C0165     R2728     -1
    C0165     R2737     -1
    C0165     R2746     -1
    C0165     R2755     -1
    C0166     OBJ       1000
    C0166     R2729     -1
    C0166     R2738     -1
    C0166     R2747     -1
    C0166     R2756     -1
    C0167     OBJ       1000
    C0167     R2730     -1
    C0167     R2739     -1
    C0167     R2748     -1
    C0167     R2757     -1
    C0168     OBJ       1000
    C0168     R2731     -1
    C0168     R2740     -1
    C0168     R2749     -1
    C0168     R2758     -1
    C0169     OBJ       1000
    C0169     R2732     -1
    C0169     R2741     -1
    C0169     R2750     -1
    C0169     R2759     -1
    C0170     OBJ       1000
    C0170     R2733     -1
    C0170     R2742     -1
    C0170     R2751     -1
    C0170     R2760     -1
    C0171     OBJ       1000
    C0171     R2734     -1
    C0171     R2743     -1
    C0171     R2752     -1
    C0171     R2761     -1
    MARKER    'MARKER'                 'INTORG'
    C0178     R0782     1
    C0178     R0878     1
    C0178     R0896     1
    C0178     R1034     1
    C0178     R1110     1
    C0178     R1271     1
    C0178     R1272     1
    C0178     R1398     1
    C0178     R1399     1
    C0178     R1413     -1
    C0178     R1415     -1
    C0178     R1535     1
    C0178     R1549     -1
    C0178     R1681     -3
    C0178     R1682     -1
    C0178     R1683     -3
    C0178     R1684     -3
    C0178     R1795     -3
    C0178     R1796     -3
    C0178     R1936     1
    C0178     R2065     1
    C0178     R2066     1
    C0178     R2207     -1
    C0178     R2208     -1
    C0178     R2209     -1
    C0178     R2210     -1
    C0178     R2222     1
    C0178     R2223     1
    C0178     R2224     1
    C0178     R2225     1
    C0178     R2344     1
    C0178     R2345     1
    C0178     R2359     -1
    C0178     R2360     -1
    C0178     R2476     -1
    C0178     R2477     -3
    C0178     R2479     -3
    C0178     R2480     -3
    C0178     R2619     -3
    C0178     R2620     -3
    C0178     R2726     1
    C0178     R2736     1
    C0178     R2745     1
    C0178     R2753     1
    C0180     R0782     1
    C0180     R0880     1
    C0180     R0898     1
    C0180     R1034     1
    C0180     R1113     1
    C0180     R1114     1
    C0180     R1272     1
    C0180     R1273     1
    C0180     R1274     1
    C0180     R1399     1
    C0180     R1415     -1
    C0180     R1416     -1
    C0180     R1535     1
    C0180     R1536     1
    C0180     R1537     1
    C0180     R1549     -1
    C0180     R1552     -1
    C0180     R1682     -1
    C0180     R1683     -3
    C0180     R1684     -3
    C0180     R1685     -3
    C0180     R1686     -2
    C0180     R1795     -3
    C0180     R1796     -3
    C0180     R1797     -3
    C0180     R1798     -3
    C0180     R1939     1
    C0180     R1940     1
    C0180     R2066     1
    C0180     R2067     1
    C0180     R2068     1
    C0180     R2209     -1
    C0180     R2210     -1
    C0180     R2211     -1
    C0180     R2212     -1
    C0180     R2224     1
    C0180     R2225     1
    C0180     R2226     1
    C0180     R2227     1
    C0180     R2344     1
    C0180     R2345     1
    C0180     R2346     1
    C0180     R2347     1
    C0180     R2359     -1
    C0180     R2360     -1
    C0180     R2361     -1
    C0180     R2362     -1
    C0180     R2479     -3
    C0180     R2480     -3
    C0180     R2481     -3
    C0180     R2482     -2
    C0180     R2619     -3
    C0180     R2620     -3
    C0180     R2621     -3
    C0180     R2622     -2
    C0180     R2726     1
    C0180     R2736     1
    C0180     R2745     1
    C0180     R2753     1
    C0180     R2800     1
    C0182     R0783     1
    C0182     R0882     1
    C0182     R0900     1
    C0182     R1034     1
    C0182     R1114     1
    C0182     R1115     1
    C0182     R1116     1
    C0182     R1274     1
    C0182     R1275     1
    C0182     R1276     1
    C0182     R1416     -1
    C0182     R1418     -1
    C0182     R1419     -1
    C0182     R1536     1
    C0182     R1537     1
    C0182     R1538     1
    C0182     R1539     1
    C0182     R1552     -1
    C0182     R1670     1
    C0182     R1671     1
    C0182     R1672     1
    C0182     R1673     1
    C0182     R1674     1
    C0182     R1684     -2
    C0182     R1685     -2
    C0182     R1686     -2
    C0182     R1687     -2
    C0182     R1688     -2
    C0182     R1796     -2
    C0182     R1797     -2
    C0182     R1798     -2
    C0182     R1799     -2
    C0182     R1800     -2
    C0182     R1810     1
    C0182     R1811     1
    C0182     R1812     1
    C0182     R1813     1
    C0182     R1814     1
    C0182     R1940     1
    C0182     R1941     1
    C0182     R1942     1
    C0182     R2068     1
    C0182     R2069     1
    C0182     R2070     1
    C0182     R2211     -1
    C0182     R2212     -1
    C0182     R2213     -1
    C0182     R2214     -1
    C0182     R2226     1
    C0182     R2227     1
    C0182     R2228     1
    C0182     R2229     1
    C0182     R2346     1
    C0182     R2347     1
    C0182     R2348     1
    C0182     R2349     1
    C0182     R2361     -1
    C0182     R2362     -1
    C0182     R2363     -1
    C0182     R2364     -1
    C0182     R2480     -2
    C0182     R2481     -2
    C0182     R2482     -2
    C0182     R2483     -1
    C0182     R2484     -2
    C0182     R2494     1
    C0182     R2495     1
    C0182     R2496     1
    C0182     R2497     1
    C0182     R2498     1
    C0182     R2606     1
    C0182     R2607     1
    C0182     R2608     1
    C0182     R2609     1
    C0182     R2610     1
    C0182     R2620     -2
    C0182     R2621     -2
    C0182     R2622     -2
    C0182     R2623     -2
    C0182     R2624     -2
    C0182     R2800     1
    C0184     R0783     1
    C0184     R0884     1
    C0184     R0902     1
    C0184     R1034     1
    C0184     R1116     1
    C0184     R1117     1
    C0184     R1118     1
    C0184     R1276     1
    C0184     R1277     1
    C0184     R1278     1
    C0184     R1405     1
    C0184     R1406     1
    C0184     R1418     -1
    C0184     R1419     -1
    C0184     R1420     -1
    C0184     R1421     -1
    C0184     R1538     1
    C0184     R1539     1
    C0184     R1672     1
    C0184     R1673     1
    C0184     R1674     1
    C0184     R1675     1
    C0184     R1676     1
    C0184     R1686     -2
    C0184     R1687     -2
    C0184     R1688     -2
    C0184     R1689     -2
    C0184     R1690     -2
    C0184     R1798     -2
    C0184     R1799     -2
    C0184     R1800     -2
    C0184     R1801     -2
    C0184     R1802     -2
    C0184     R1812     1
    C0184     R1813     1
    C0184     R1814     1
    C0184     R1815     1
    C0184     R1816     1
    C0184     R1942     1
    C0184     R1943     1
    C0184     R1944     1
    C0184     R2070     1
    C0184     R2071     1
    C0184     R2072     1
    C0184     R2213     -1
    C0184     R2214     -1
    C0184     R2215     -1
    C0184     R2216     -1
    C0184     R2228     1
    C0184     R2229     1
    C0184     R2230     1
    C0184     R2231     1
    C0184     R2348     1
    C0184     R2349     1
    C0184     R2350     1
    C0184     R2351     1
    C0184     R2363     -1
    C0184     R2364     -1
    C0184     R2365     -1
    C0184     R2366     -1
    C0184     R2482     -2
    C0184     R2483     -1
    C0184     R2484     -2
    C0184     R2485     -1
    C0184     R2486     -2
    C0184     R2496     1
    C0184     R2497     1
    C0184     R2498     1
    C0184     R2499     1
    C0184     R2500     1
    C0184     R2608     1
    C0184     R2609     1
    C0184     R2610     1
    C0184     R2611     1
    C0184     R2612     1
    C0184     R2622     -2
    C0184     R2623     -2
    C0184     R2624     -2
    C0184     R2625     -2
    C0184     R2626     -2
    C0186     R0783     1
    C0186     R0886     1
    C0186     R0904     1
    C0186     R1034     1
    C0186     R1118     1
    C0186     R1119     1
    C0186     R1120     1
    C0186     R1278     1
    C0186     R1279     1
    C0186     R1280     1
    C0186     R1405     1
    C0186     R1406     1
    C0186     R1408     1
    C0186     R1420     -1
    C0186     R1421     -1
    C0186     R1422     -1
    C0186     R1423     -1
    C0186     R1542     1
    C0186     R1674     1
    C0186     R1675     1
    C0186     R1676     1
    C0186     R1677     1
    C0186     R1688     -2
    C0186     R1689     -2
    C0186     R1690     -2
    C0186     R1691     -2
    C0186     R1800     -2
    C0186     R1801     -2
    C0186     R1802     -2
    C0186     R1803     -2
    C0186     R1814     1
    C0186     R1815     1
    C0186     R1816     1
    C0186     R1817     1
    C0186     R1944     1
    C0186     R1945     1
    C0186     R1946     1
    C0186     R2072     1
    C0186     R2073     1
    C0186     R2074     1
    C0186     R2215     -1
    C0186     R2216     -1
    C0186     R2217     -1
    C0186     R2218     -1
    C0186     R2230     1
    C0186     R2231     1
    C0186     R2232     1
    C0186     R2233     1
    C0186     R2350     1
    C0186     R2351     1
    C0186     R2352     1
    C0186     R2353     1
    C0186     R2365     -1
    C0186     R2366     -1
    C0186     R2367     -1
    C0186     R2368     -1
    C0186     R2484     -2
    C0186     R2485     -1
    C0186     R2486     -2
    C0186     R2487     -1
    C0186     R2498     1
    C0186     R2499     1
    C0186     R2500     1
    C0186     R2501     1
    C0186     R2610     1
    C0186     R2611     1
    C0186     R2612     1
    C0186     R2613     1
    C0186     R2624     -2
    C0186     R2625     -2
    C0186     R2626     -2
    C0186     R2627     -2
    C0188     R0783     1
    C0188     R0888     1
    C0188     R0906     1
    C0188     R1034     1
    C0188     R1120     1
    C0188     R1121     1
    C0188     R1280     1
    C0188     R1281     1
    C0188     R1408     1
    C0188     R1422     -1
    C0188     R1423     -1
    C0188     R1542     1
    C0188     R1676     1
    C0188     R1677     1
    C0188     R1690     -2
    C0188     R1691     -2
    C0188     R1802     -2
    C0188     R1803     -2
    C0188     R1816     1
    C0188     R1817     1
    C0188     R1946     1
    C0188     R1947     1
    C0188     R2074     1
    C0188     R2075     1
    C0188     R2217     -1
    C0188     R2218     -1
    C0188     R2232     1
    C0188     R2233     1
    C0188     R2352     1
    C0188     R2353     1
    C0188     R2367     -1
    C0188     R2368     -1
    C0188     R2486     -2
    C0188     R2487     -1
    C0188     R2500     1
    C0188     R2501     1
    C0188     R2612     1
    C0188     R2613     1
    C0188     R2626     -2
    C0188     R2627     -2
    C0196     R1142     1
    C0196     R0784     1
    C0196     R0878     1
    C0196     R0914     1
    C0196     R1035     1
    C0196     R1110     1
    C0196     R1287     1
    C0196     R1288     1
    C0196     R1398     1
    C0196     R1399     1
    C0196     R1535     1
    C0196     R1565     -1
    C0196     R1696     -1
    C0196     R1697     -3
    C0196     R1698     -3
    C0196     R1795     -3
    C0196     R1796     -3
    C0196     R1952     1
    C0196     R1953     1
    C0196     R1954     1
    C0196     R2065     1
    C0196     R2066     1
    C0196     R2207     -1
    C0196     R2208     -1
    C0196     R2209     -1
    C0196     R2210     -1
    C0196     R2240     1
    C0196     R2344     1
    C0196     R2345     1
    C0196     R2375     -1
    C0196     R2476     -1
    C0196     R2477     -3
    C0196     R2479     -3
    C0196     R2480     -3
    C0196     R2633     -3
    C0196     R2634     -3
    C0196     R2726     1
    C0196     R2737     1
    C0196     R2746     1
    C0196     R2753     1
    C0198     R0784     1
    C0198     R0880     1
    C0198     R0916     1
    C0198     R1035     1
    C0198     R1113     1
    C0198     R1114     1
    C0198     R1288     1
    C0198     R1289     1
    C0198     R1290     1
    C0198     R1399     1
    C0198     R1431     -1
    C0198     R1432     -1
    C0198     R1535     1
    C0198     R1536     1
    C0198     R1537     1
    C0198     R1565     -1
    C0198     R1696     -1
    C0198     R1697     -3
    C0198     R1698     -3
    C0198     R1699     -3
    C0198     R1700     -2
    C0198     R1795     -3
    C0198     R1796     -3
    C0198     R1797     -3
    C0198     R1798     -3
    C0198     R1954     1
    C0198     R1955     1
    C0198     R1956     1
    C0198     R2066     1
    C0198     R2067     1
    C0198     R2068     1
    C0198     R2209     -1
    C0198     R2210     -1
    C0198     R2211     -1
    C0198     R2212     -1
    C0198     R2240     1
    C0198     R2241     1
    C0198     R2242     1
    C0198     R2344     1
    C0198     R2345     1
    C0198     R2346     1
    C0198     R2347     1
    C0198     R2375     -1
    C0198     R2376     -1
    C0198     R2377     -1
    C0198     R2479     -3
    C0198     R2480     -3
    C0198     R2481     -3
    C0198     R2482     -2
    C0198     R2633     -3
    C0198     R2634     -3
    C0198     R2635     -3
    C0198     R2636     -2
    C0198     R2726     1
    C0198     R2737     1
    C0198     R2746     1
    C0198     R2753     1
    C0198     R2802     1
    C0200     R0785     1
    C0200     R0882     1
    C0200     R0918     1
    C0200     R1035     1
    C0200     R1114     1
    C0200     R1115     1
    C0200     R1116     1
    C0200     R1290     1
    C0200     R1291     1
    C0200     R1292     1
    C0200     R1431     -1
    C0200     R1432     -1
    C0200     R1433     -1
    C0200     R1434     -1
    C0200     R1536     1
    C0200     R1537     1
    C0200     R1538     1
    C0200     R1539     1
    C0200     R1670     1
    C0200     R1671     1
    C0200     R1672     1
    C0200     R1673     1
    C0200     R1674     1
    C0200     R1698     -2
    C0200     R1699     -2
    C0200     R1700     -2
    C0200     R1701     -2
    C0200     R1702     -2
    C0200     R1796     -2
    C0200     R1797     -2
    C0200     R1798     -2
    C0200     R1799     -2
    C0200     R1800     -2
    C0200     R1824     1
    C0200     R1825     1
    C0200     R1826     1
    C0200     R1827     1
    C0200     R1828     1
    C0200     R1956     1
    C0200     R1957     1
    C0200     R1958     1
    C0200     R2068     1
    C0200     R2069     1
    C0200     R2070     1
    C0200     R2211     -1
    C0200     R2212     -1
    C0200     R2213     -1
    C0200     R2214     -1
    C0200     R2241     1
    C0200     R2242     1
    C0200     R2243     1
    C0200     R2244     1
    C0200     R2346     1
    C0200     R2347     1
    C0200     R2348     1
    C0200     R2349     1
    C0200     R2376     -1
    C0200     R2377     -1
    C0200     R2378     -1
    C0200     R2379     -1
    C0200     R2480     -2
    C0200     R2481     -2
    C0200     R2482     -2
    C0200     R2483     -1
    C0200     R2484     -2
    C0200     R2508     1
    C0200     R2509     1
    C0200     R2510     1
    C0200     R2511     1
    C0200     R2512     1
    C0200     R2606     1
    C0200     R2607     1
    C0200     R2608     1
    C0200     R2609     1
    C0200     R2610     1
    C0200     R2634     -2
    C0200     R2635     -2
    C0200     R2636     -2
    C0200     R2637     -2
    C0200     R2638     -2
    C0200     R2802     1
    C0202     R0785     1
    C0202     R0884     1
    C0202     R0920     1
    C0202     R1035     1
    C0202     R1116     1
    C0202     R1117     1
    C0202     R1118     1
    C0202     R1292     1
    C0202     R1293     1
    C0202     R1294     1
    C0202     R1405     1
    C0202     R1406     1
    C0202     R1433     -1
    C0202     R1434     -1
    C0202     R1435     -1
    C0202     R1538     1
    C0202     R1539     1
    C0202     R1571     -1
    C0202     R1672     1
    C0202     R1673     1
    C0202     R1674     1
    C0202     R1675     1
    C0202     R1676     1
    C0202     R1700     -2
    C0202     R1701     -2
    C0202     R1702     -2
    C0202     R1703     -2
    C0202     R1704     -2
    C0202     R1798     -2
    C0202     R1799     -2
    C0202     R1800     -2
    C0202     R1801     -2
    C0202     R1802     -2
    C0202     R1826     1
    C0202     R1827     1
    C0202     R1828     1
    C0202     R1829     1
    C0202     R1830     1
    C0202     R1958     1
    C0202     R1959     1
    C0202     R1960     1
    C0202     R2070     1
    C0202     R2071     1
    C0202     R2072     1
    C0202     R2213     -1
    C0202     R2214     -1
    C0202     R2215     -1
    C0202     R2216     -1
    C0202     R2243     1
    C0202     R2244     1
    C0202     R2245     1
    C0202     R2246     1
    C0202     R2348     1
    C0202     R2349     1
    C0202     R2350     1
    C0202     R2351     1
    C0202     R2378     -1
    C0202     R2379     -1
    C0202     R2380     -1
    C0202     R2381     -1
    C0202     R2482     -2
    C0202     R2483     -1
    C0202     R2484     -2
    C0202     R2485     -1
    C0202     R2486     -2
    C0202     R2510     1
    C0202     R2511     1
    C0202     R2512     1
    C0202     R2513     1
    C0202     R2514     1
    C0202     R2608     1
    C0202     R2609     1
    C0202     R2610     1
    C0202     R2611     1
    C0202     R2612     1
    C0202     R2636     -2
    C0202     R2637     -2
    C0202     R2638     -2
    C0202     R2639     -2
    C0202     R2640     -2
    C0204     R0785     1
    C0204     R0886     1
    C0204     R0922     1
    C0204     R1035     1
    C0204     R1118     1
    C0204     R1119     1
    C0204     R1120     1
    C0204     R1294     1
    C0204     R1295     1
    C0204     R1296     1
    C0204     R1405     1
    C0204     R1406     1
    C0204     R1408     1
    C0204     R1435     -1
    C0204     R1542     1
    C0204     R1571     -1
    C0204     R1572     -1
    C0204     R1573     -1
    C0204     R1674     1
    C0204     R1675     1
    C0204     R1676     1
    C0204     R1677     1
    C0204     R1702     -2
    C0204     R1703     -2
    C0204     R1704     -2
    C0204     R1705     -2
    C0204     R1800     -2
    C0204     R1801     -2
    C0204     R1802     -2
    C0204     R1803     -2
    C0204     R1828     1
    C0204     R1829     1
    C0204     R1830     1
    C0204     R1831     1
    C0204     R1960     1
    C0204     R1961     1
    C0204     R1962     1
    C0204     R2072     1
    C0204     R2073     1
    C0204     R2074     1
    C0204     R2215     -1
    C0204     R2216     -1
    C0204     R2217     -1
    C0204     R2218     -1
    C0204     R2245     1
    C0204     R2246     1
    C0204     R2247     1
    C0204     R2248     1
    C0204     R2350     1
    C0204     R2351     1
    C0204     R2352     1
    C0204     R2353     1
    C0204     R2380     -1
    C0204     R2381     -1
    C0204     R2382     -1
    C0204     R2383     -1
    C0204     R2484     -2
    C0204     R2485     -1
    C0204     R2486     -2
    C0204     R2487     -1
    C0204     R2512     1
    C0204     R2513     1
    C0204     R2514     1
    C0204     R2515     1
    C0204     R2610     1
    C0204     R2611     1
    C0204     R2612     1
    C0204     R2613     1
    C0204     R2638     -2
    C0204     R2639     -2
    C0204     R2640     -2
    C0204     R2641     -2
    C0206     R0785     1
    C0206     R0888     1
    C0206     R0924     1
    C0206     R1035     1
    C0206     R1120     1
    C0206     R1121     1
    C0206     R1296     1
    C0206     R1297     1
    C0206     R1408     1
    C0206     R1542     1
    C0206     R1572     -1
    C0206     R1573     -1
    C0206     R1676     1
    C0206     R1677     1
    C0206     R1704     -2
    C0206     R1705     -2
    C0206     R1802     -2
    C0206     R1803     -2
    C0206     R1830     1
    C0206     R1831     1
    C0206     R1962     1
    C0206     R1963     1
    C0206     R2074     1
    C0206     R2075     1
    C0206     R2217     -1
    C0206     R2218     -1
    C0206     R2247     1
    C0206     R2248     1
    C0206     R2352     1
    C0206     R2353     1
    C0206     R2382     -1
    C0206     R2383     -1
    C0206     R2486     -2
    C0206     R2487     -1
    C0206     R2514     1
    C0206     R2515     1
    C0206     R2612     1
    C0206     R2613     1
    C0206     R2640     -2
    C0206     R2641     -2
    C0213     OBJ       1000
    C0213     R1919     1
    C0213     R0786     1
    C0213     R0877     1
    C0213     R0931     1
    C0213     R1036     1
    C0213     R1110     1
    C0213     R1301     1
    C0213     R1302     1
    C0213     R1398     1
    C0213     R1399     1
    C0213     R1711     -2
    C0213     R1795     -3
    C0213     R1835     1
    C0213     R1920     1
    C0213     R2112     1
    C0213     R2207     1
    C0213     R2208     1
    C0213     R2209     1
    C0213     R2344     -1
    C0213     R2388     1
    C0213     R2477     1
    C0213     R2521     -2
    C0213     R2605     -3
    C0213     R2726     1
    C0213     R2738     1
    C0213     R2744     1
    C0213     R2756     1
    C0213     R2764     1
    C0214     OBJ       65
    C0214     R0786     1
    C0214     R0878     1
    C0214     R0932     1
    C0214     R1036     1
    C0214     R1110     1
    C0214     R1302     1
    C0214     R1398     1
    C0214     R1399     1
    C0214     R1535     1
    C0214     R1580     -1
    C0214     R1711     -2
    C0214     R1712     -2
    C0214     R1795     -3
    C0214     R1796     -3
    C0214     R1835     1
    C0214     R1838     1
    C0214     R1970     1
    C0214     R2065     1
    C0214     R2066     1
    C0214     R2207     -1
    C0214     R2208     -1
    C0214     R2209     -1
    C0214     R2210     -1
    C0214     R2254     1
    C0214     R2255     1
    C0214     R2344     1
    C0214     R2345     1
    C0214     R2388     -1
    C0214     R2390     -1
    C0214     R2476     -1
    C0214     R2477     -2
    C0214     R2479     -3
    C0214     R2480     -3
    C0214     R2522     1
    C0214     R2646     -1
    C0214     R2647     -2
    C0214     R2648     -2
    C0214     R2726     1
    C0214     R2738     1
    C0214     R2747     1
    C0214     R2753     1
    C0214     R2804     1
    C0215     R0786     1
    C0215     R0879     1
    C0215     R0933     1
    C0215     R1036     1
    C0215     R1113     1
    C0215     R1305     1
    C0215     R1398     1
    C0215     R1399     1
    C0215     R1446     -1
    C0215     R1535     1
    C0215     R1536     1
    C0215     R1580     -1
    C0215     R1711     -2
    C0215     R1712     -2
    C0215     R1713     -2
    C0215     R1795     -3
    C0215     R1796     -3
    C0215     R1797     -3
    C0215     R1835     1
    C0215     R1838     1
    C0215     R1839     1
    C0215     R1923     1
    C0215     R2115     1
    C0215     R2208     1
    C0215     R2209     1
    C0215     R2210     1
    C0215     R2211     1
    C0215     R2255     -1
    C0215     R2256     -1
    C0215     R2344     -1
    C0215     R2345     -1
    C0215     R2346     -1
    C0215     R2388     1
    C0215     R2390     1
    C0215     R2391     1
    C0215     R2477     1
    C0215     R2521     -2
    C0215     R2522     -2
    C0215     R2523     -2
    C0215     R2605     -3
    C0215     R2606     -3
    C0215     R2607     -3
    C0215     R2648     1
    C0215     R2649     1
    C0215     R2726     1
    C0215     R2738     1
    C0215     R2744     1
    C0215     R2756     1
    C0215     R2764     1
    C0215     R2804     1
    C0215     R2805     1
    C0216     OBJ       65
    C0216     R0786     1
    C0216     R0880     1
    C0216     R0934     1
    C0216     R1036     1
    C0216     R1113     1
    C0216     R1114     1
    C0216     R1305     1
    C0216     R1306     1
    C0216     R1399     1
    C0216     R1446     -1
    C0216     R1447     -1
    C0216     R1535     1
    C0216     R1536     1
    C0216     R1537     1
    C0216     R1580     -1
    C0216     R1711     -2
    C0216     R1712     -2
    C0216     R1713     -2
    C0216     R1714     -2
    C0216     R1795     -3
    C0216     R1796     -3
    C0216     R1797     -3
    C0216     R1798     -3
    C0216     R1838     1
    C0216     R1839     1
    C0216     R1840     1
    C0216     R1970     1
    C0216     R1971     1
    C0216     R1972     1
    C0216     R2066     1
    C0216     R2067     1
    C0216     R2068     1
    C0216     R2209     -1
    C0216     R2210     -1
    C0216     R2211     -1
    C0216     R2212     -1
    C0216     R2254     1
    C0216     R2255     1
    C0216     R2256     1
    C0216     R2257     1
    C0216     R2344     1
    C0216     R2345     1
    C0216     R2346     1
    C0216     R2347     1
    C0216     R2390     -1
    C0216     R2391     -1
    C0216     R2392     -1
    C0216     R2479     -3
    C0216     R2480     -3
    C0216     R2481     -3
    C0216     R2482     -2
    C0216     R2522     1
    C0216     R2523     1
    C0216     R2524     1
    C0216     R2646     -1
    C0216     R2647     -2
    C0216     R2648     -2
    C0216     R2649     -2
    C0216     R2650     -2
    C0216     R2726     1
    C0216     R2738     1
    C0216     R2747     1
    C0216     R2753     1
    C0216     R2804     1
    C0216     R2805     1
    C0216     R2806     1
    C0217     R0787     1
    C0217     R0881     1
    C0217     R0935     1
    C0217     R1036     1
    C0217     R1113     1
    C0217     R1114     1
    C0217     R1115     1
    C0217     R1305     1
    C0217     R1306     1
    C0217     R1307     1
    C0217     R1446     -1
    C0217     R1447     -1
    C0217     R1448     -1
    C0217     R1535     1
    C0217     R1536     1
    C0217     R1537     1
    C0217     R1538     1
    C0217     R1580     -1
    C0217     R1669     1
    C0217     R1670     1
    C0217     R1671     1
    C0217     R1672     1
    C0217     R1673     1
    C0217     R1711     -1
    C0217     R1712     -2
    C0217     R1713     -2
    C0217     R1714     -2
    C0217     R1715     -2
    C0217     R1795     -2
    C0217     R1796     -2
    C0217     R1797     -2
    C0217     R1798     -2
    C0217     R1799     -2
    C0217     R1837     1
    C0217     R1838     1
    C0217     R1839     1
    C0217     R1840     1
    C0217     R1841     1
    C0217     R1923     1
    C0217     R1924     1
    C0217     R1925     1
    C0217     R2115     1
    C0217     R2116     1
    C0217     R2117     1
    C0217     R2210     1
    C0217     R2211     1
    C0217     R2212     1
    C0217     R2213     1
    C0217     R2255     -1
    C0217     R2256     -1
    C0217     R2257     -1
    C0217     R2258     -1
    C0217     R2345     -1
    C0217     R2346     -1
    C0217     R2347     -1
    C0217     R2348     -1
    C0217     R2390     1
    C0217     R2391     1
    C0217     R2392     1
    C0217     R2393     1
    C0217     R2479     1
    C0217     R2480     1
    C0217     R2481     1
    C0217     R2482     1
    C0217     R2483     1
    C0217     R2521     -1
    C0217     R2522     -2
    C0217     R2523     -2
    C0217     R2524     -2
    C0217     R2525     -2
    C0217     R2605     -2
    C0217     R2606     -2
    C0217     R2607     -2
    C0217     R2608     -2
    C0217     R2609     -2
    C0217     R2647     1
    C0217     R2648     1
    C0217     R2649     1
    C0217     R2650     1
    C0217     R2651     1
    C0217     R2764     -1
    C0217     R2804     1
    C0217     R2805     1
    C0217     R2806     1
    C0219     R0787     1
    C0219     R0883     1
    C0219     R0937     1
    C0219     R1036     1
    C0219     R1115     1
    C0219     R1116     1
    C0219     R1117     1
    C0219     R1307     1
    C0219     R1308     1
    C0219     R1309     1
    C0219     R1405     1
    C0219     R1447     -1
    C0219     R1448     -1
    C0219     R1449     -1
    C0219     R1450     -1
    C0219     R1537     1
    C0219     R1538     1
    C0219     R1539     1
    C0219     R1671     1
    C0219     R1672     1
    C0219     R1673     1
    C0219     R1674     1
    C0219     R1675     1
    C0219     R1713     -2
    C0219     R1714     -2
    C0219     R1715     -2
    C0219     R1716     -2
    C0219     R1717     -2
    C0219     R1797     -2
    C0219     R1798     -2
    C0219     R1799     -2
    C0219     R1800     -2
    C0219     R1801     -2
    C0219     R1839     1
    C0219     R1840     1
    C0219     R1841     1
    C0219     R1842     1
    C0219     R1843     1
    C0219     R1925     1
    C0219     R1926     1
    C0219     R1927     1
    C0219     R2117     1
    C0219     R2118     1
    C0219     R2119     1
    C0219     R2212     1
    C0219     R2213     1
    C0219     R2214     1
    C0219     R2215     1
    C0219     R2257     -1
    C0219     R2258     -1
    C0219     R2259     -1
    C0219     R2260     -1
    C0219     R2347     -1
    C0219     R2348     -1
    C0219     R2349     -1
    C0219     R2350     -1
    C0219     R2392     1
    C0219     R2393     1
    C0219     R2394     1
    C0219     R2395     1
    C0219     R2481     1
    C0219     R2482     1
    C0219     R2483     1
    C0219     R2484     1
    C0219     R2485     1
    C0219     R2523     -2
    C0219     R2524     -2
    C0219     R2525     -2
    C0219     R2526     -2
    C0219     R2527     -2
    C0219     R2607     -2
    C0219     R2608     -2
    C0219     R2609     -2
    C0219     R2610     -2
    C0219     R2611     -2
    C0219     R2649     1
    C0219     R2650     1
    C0219     R2651     1
    C0219     R2652     1
    C0219     R2653     1
    C0219     R2764     -1
    C0219     R2806     1
    C0220     OBJ       65
    C0220     R0787     1
    C0220     R0884     1
    C0220     R0938     1
    C0220     R1036     1
    C0220     R1116     1
    C0220     R1117     1
    C0220     R1118     1
    C0220     R1308     1
    C0220     R1309     1
    C0220     R1310     1
    C0220     R1405     1
    C0220     R1406     1
    C0220     R1448     -1
    C0220     R1449     -1
    C0220     R1450     -1
    C0220     R1538     1
    C0220     R1539     1
    C0220     R1586     -1
    C0220     R1672     1
    C0220     R1673     1
    C0220     R1674     1
    C0220     R1675     1
    C0220     R1676     1
    C0220     R1714     -2
    C0220     R1715     -2
    C0220     R1716     -2
    C0220     R1717     -2
    C0220     R1718     -2
    C0220     R1798     -2
    C0220     R1799     -2
    C0220     R1800     -2
    C0220     R1801     -2
    C0220     R1802     -2
    C0220     R1840     1
    C0220     R1841     1
    C0220     R1842     1
    C0220     R1843     1
    C0220     R1844     1
    C0220     R1974     1
    C0220     R1975     1
    C0220     R1976     1
    C0220     R2070     1
    C0220     R2071     1
    C0220     R2072     1
    C0220     R2213     -1
    C0220     R2214     -1
    C0220     R2215     -1
    C0220     R2216     -1
    C0220     R2258     1
    C0220     R2259     1
    C0220     R2260     1
    C0220     R2261     1
    C0220     R2348     1
    C0220     R2349     1
    C0220     R2350     1
    C0220     R2351     1
    C0220     R2393     -1
    C0220     R2394     -1
    C0220     R2395     -1
    C0220     R2396     -1
    C0220     R2482     -2
    C0220     R2483     -1
    C0220     R2484     -2
    C0220     R2485     -1
    C0220     R2486     -2
    C0220     R2524     1
    C0220     R2525     1
    C0220     R2526     1
    C0220     R2527     1
    C0220     R2528     1
    C0220     R2608     1
    C0220     R2609     1
    C0220     R2610     1
    C0220     R2611     1
    C0220     R2612     1
    C0220     R2650     -2
    C0220     R2651     -2
    C0220     R2652     -2
    C0220     R2653     -2
    C0220     R2654     -2
    C0221     R2806     1
    C0221     R0787     1
    C0221     R0885     1
    C0221     R0939     1
    C0221     R1036     1
    C0221     R1117     1
    C0221     R1118     1
    C0221     R1119     1
    C0221     R1309     1
    C0221     R1310     1
    C0221     R1311     1
    C0221     R1405     1
    C0221     R1406     1
    C0221     R1449     -1
    C0221     R1450     -1
    C0221     R1452     -1
    C0221     R1539     1
    C0221     R1542     1
    C0221     R1586     -1
    C0221     R1673     1
    C0221     R1674     1
    C0221     R1675     1
    C0221     R1676     1
    C0221     R1677     1
    C0221     R1715     -2
    C0221     R1716     -2
    C0221     R1717     -2
    C0221     R1718     -2
    C0221     R1719     -2
    C0221     R1799     -2
    C0221     R1800     -2
    C0221     R1801     -2
    C0221     R1802     -2
    C0221     R1803     -2
    C0221     R1841     1
    C0221     R1842     1
    C0221     R1843     1
    C0221     R1844     1
    C0221     R1845     1
    C0221     R1927     1
    C0221     R1928     1
    C0221     R1929     1
    C0221     R2119     1
    C0221     R2120     1
    C0221     R2121     1
    C0221     R2214     1
    C0221     R2215     1
    C0221     R2216     1
    C0221     R2217     1
    C0221     R2259     -1
    C0221     R2260     -1
    C0221     R2261     -1
    C0221     R2262     -1
    C0221     R2349     -1
    C0221     R2350     -1
    C0221     R2351     -1
    C0221     R2352     -1
    C0221     R2394     1
    C0221     R2395     1
    C0221     R2396     1
    C0221     R2397     1
    C0221     R2483     1
    C0221     R2484     1
    C0221     R2485     1
    C0221     R2486     1
    C0221     R2487     1
    C0221     R2525     -2
    C0221     R2526     -2
    C0221     R2527     -2
    C0221     R2528     -2
    C0221     R2529     -2
    C0221     R2609     -2
    C0221     R2610     -2
    C0221     R2611     -2
    C0221     R2612     -2
    C0221     R2613     -2
    C0221     R2651     1
    C0221     R2652     1
    C0221     R2653     1
    C0221     R2654     1
    C0221     R2655     1
    C0221     R2764     -1
    C0222     OBJ       65
    C0222     R0787     1
    C0222     R0886     1
    C0222     R0940     1
    C0222     R1036     1
    C0222     R1118     1
    C0222     R1119     1
    C0222     R1120     1
    C0222     R1310     1
    C0222     R1311     1
    C0222     R1312     1
    C0222     R1405     1
    C0222     R1406     1
    C0222     R1408     1
    C0222     R1450     -1
    C0222     R1452     -1
    C0222     R1542     1
    C0222     R1586     -1
    C0222     R1588     -1
    C0222     R1674     1
    C0222     R1675     1
    C0222     R1676     1
    C0222     R1677     1
    C0222     R1716     -2
    C0222     R1717     -2
    C0222     R1718     -2
    C0222     R1719     -2
    C0222     R1800     -2
    C0222     R1801     -2
    C0222     R1802     -2
    C0222     R1803     -2
    C0222     R1842     1
    C0222     R1843     1
    C0222     R1844     1
    C0222     R1845     1
    C0222     R1976     1
    C0222     R1977     1
    C0222     R1978     1
    C0222     R2072     1
    C0222     R2073     1
    C0222     R2074     1
    C0222     R2215     -1
    C0222     R2216     -1
    C0222     R2217     -1
    C0222     R2218     -1
    C0222     R2260     1
    C0222     R2261     1
    C0222     R2262     1
    C0222     R2263     1
    C0222     R2350     1
    C0222     R2351     1
    C0222     R2352     1
    C0222     R2353     1
    C0222     R2395     -1
    C0222     R2396     -1
    C0222     R2397     -1
    C0222     R2398     -1
    C0222     R2484     -2
    C0222     R2485     -1
    C0222     R2486     -2
    C0222     R2487     -1
    C0222     R2526     1
    C0222     R2527     1
    C0222     R2528     1
    C0222     R2529     1
    C0222     R2610     1
    C0222     R2611     1
    C0222     R2612     1
    C0222     R2613     1
    C0222     R2652     -2
    C0222     R2653     -2
    C0222     R2654     -2
    C0222     R2655     -2
    C0223     R2806     1
    C0223     R0787     1
    C0223     R0887     1
    C0223     R0941     1
    C0223     R1036     1
    C0223     R1119     1
    C0223     R1120     1
    C0223     R1121     1
    C0223     R1311     1
    C0223     R1312     1
    C0223     R1313     1
    C0223     R1406     1
    C0223     R1408     1
    C0223     R1452     -1
    C0223     R1542     1
    C0223     R1586     -1
    C0223     R1588     -1
    C0223     R1675     1
    C0223     R1676     1
    C0223     R1677     1
    C0223     R1717     -2
    C0223     R1718     -2
    C0223     R1719     -2
    C0223     R1801     -2
    C0223     R1802     -2
    C0223     R1803     -2
    C0223     R1843     1
    C0223     R1844     1
    C0223     R1845     1
    C0223     R1929     1
    C0223     R1930     1
    C0223     R1931     1
    C0223     R2121     1
    C0223     R2122     1
    C0223     R2123     1
    C0223     R2216     1
    C0223     R2217     1
    C0223     R2218     1
    C0223     R2261     -1
    C0223     R2262     -1
    C0223     R2263     -1
    C0223     R2351     -1
    C0223     R2352     -1
    C0223     R2353     -1
    C0223     R2396     1
    C0223     R2397     1
    C0223     R2398     1
    C0223     R2485     1
    C0223     R2486     1
    C0223     R2487     1
    C0223     R2527     -2
    C0223     R2528     -2
    C0223     R2529     -2
    C0223     R2611     -2
    C0223     R2612     -2
    C0223     R2613     -2
    C0223     R2653     1
    C0223     R2654     1
    C0223     R2655     1
    C0223     R2764     -1
    C0224     OBJ       65
    C0224     R0787     1
    C0224     R0888     1
    C0224     R0942     1
    C0224     R1036     1
    C0224     R1120     1
    C0224     R1121     1
    C0224     R1312     1
    C0224     R1313     1
    C0224     R1408     1
    C0224     R1452     -1
    C0224     R1542     1
    C0224     R1588     -1
    C0224     R1676     1
    C0224     R1677     1
    C0224     R1718     -2
    C0224     R1719     -2
    C0224     R1802     -2
    C0224     R1803     -2
    C0224     R1844     1
    C0224     R1845     1
    C0224     R1978     1
    C0224     R1979     1
    C0224     R2074     1
    C0224     R2075     1
    C0224     R2217     -1
    C0224     R2218     -1
    C0224     R2262     1
    C0224     R2263     1
    C0224     R2352     1
    C0224     R2353     1
    C0224     R2397     -1
    C0224     R2398     -1
    C0224     R2486     -2
    C0224     R2487     -1
    C0224     R2528     1
    C0224     R2529     1
    C0224     R2612     1
    C0224     R2613     1
    C0224     R2654     -2
    C0224     R2655     -2
    C0225     R2806     1
    C0225     R0787     1
    C0225     R0889     1
    C0225     R0943     1
    C0225     R1036     1
    C0225     R1121     1
    C0225     R1313     1
    C0225     R1408     1
    C0225     R1588     -1
    C0225     R1677     1
    C0225     R1719     -2
    C0225     R1803     -2
    C0225     R1845     1
    C0225     R1931     1
    C0225     R2123     1
    C0225     R2218     1
    C0225     R2263     -1
    C0225     R2353     -1
    C0225     R2398     1
    C0225     R2487     1
    C0225     R2529     -2
    C0225     R2613     -2
    C0225     R2655     1
    C0225     R2764     -1
    C0290     R0795     1
    C0290     R0882     1
    C0290     R1008     1
    C0290     R1114     1
    C0290     R1115     1
    C0290     R1116     1
    C0290     R1370     1
    C0290     R1371     1
    C0290     R1372     1
    C0290     R1507     -1
    C0290     R1508     -1
    C0290     R1536     1
    C0290     R1537     1
    C0290     R1538     1
    C0290     R1539     1
    C0290     R1641     -1
    C0290     R1644     -1
    C0290     R1670     1
    C0290     R1671     1
    C0290     R1672     1
    C0290     R1673     1
    C0290     R1674     1
    C0290     R1768     -2
    C0290     R1769     -2
    C0290     R1770     -2
    C0290     R1771     -2
    C0290     R1772     -2
    C0290     R1796     -2
    C0290     R1797     -2
    C0290     R1798     -2
    C0290     R1799     -2
    C0290     R1800     -2
    C0290     R1894     1
    C0290     R1895     1
    C0290     R1896     1
    C0290     R1897     1
    C0290     R1898     1
    C0290     R2036     1
    C0290     R2037     1
    C0290     R2038     1
    C0290     R2068     1
    C0290     R2069     1
    C0290     R2070     1
    C0290     R2211     -1
    C0290     R2212     -1
    C0290     R2213     -1
    C0290     R2214     -1
    C0290     R2316     1
    C0290     R2317     1
    C0290     R2318     1
    C0290     R2319     1
    C0290     R2346     1
    C0290     R2347     1
    C0290     R2348     1
    C0290     R2349     1
    C0290     R2451     -1
    C0290     R2452     -1
    C0290     R2453     -1
    C0290     R2454     -1
    C0290     R2480     -2
    C0290     R2481     -2
    C0290     R2482     -2
    C0290     R2483     -1
    C0290     R2484     -2
    C0290     R2578     1
    C0290     R2579     1
    C0290     R2580     1
    C0290     R2581     1
    C0290     R2582     1
    C0290     R2606     1
    C0290     R2607     1
    C0290     R2608     1
    C0290     R2609     1
    C0290     R2610     1
    C0290     R2704     -2
    C0290     R2705     -2
    C0290     R2706     -2
    C0290     R2707     -2
    C0290     R2708     -2
    C0292     R0795     1
    C0292     R0884     1
    C0292     R1010     1
    C0292     R1116     1
    C0292     R1117     1
    C0292     R1118     1
    C0292     R1372     1
    C0292     R1373     1
    C0292     R1374     1
    C0292     R1405     1
    C0292     R1406     1
    C0292     R1508     -1
    C0292     R1538     1
    C0292     R1539     1
    C0292     R1644     -1
    C0292     R1645     -1
    C0292     R1646     -1
    C0292     R1672     1
    C0292     R1673     1
    C0292     R1674     1
    C0292     R1675     1
    C0292     R1676     1
    C0292     R1770     -2
    C0292     R1771     -2
    C0292     R1772     -2
    C0292     R1773     -2
    C0292     R1774     -2
    C0292     R1798     -2
    C0292     R1799     -2
    C0292     R1800     -2
    C0292     R1801     -2
    C0292     R1802     -2
    C0292     R1896     1
    C0292     R1897     1
    C0292     R1898     1
    C0292     R1899     1
    C0292     R1900     1
    C0292     R2038     1
    C0292     R2039     1
    C0292     R2040     1
    C0292     R2070     1
    C0292     R2071     1
    C0292     R2072     1
    C0292     R2213     -1
    C0292     R2214     -1
    C0292     R2215     -1
    C0292     R2216     -1
    C0292     R2318     1
    C0292     R2319     1
    C0292     R2320     1
    C0292     R2321     1
    C0292     R2348     1
    C0292     R2349     1
    C0292     R2350     1
    C0292     R2351     1
    C0292     R2453     -1
    C0292     R2454     -1
    C0292     R2455     -1
    C0292     R2456     -1
    C0292     R2482     -2
    C0292     R2483     -1
    C0292     R2484     -2
    C0292     R2485     -1
    C0292     R2486     -2
    C0292     R2580     1
    C0292     R2581     1
    C0292     R2582     1
    C0292     R2583     1
    C0292     R2584     1
    C0292     R2608     1
    C0292     R2609     1
    C0292     R2610     1
    C0292     R2611     1
    C0292     R2612     1
    C0292     R2706     -2
    C0292     R2707     -2
    C0292     R2708     -2
    C0292     R2709     -2
    C0292     R2710     -2
    C0294     R0795     1
    C0294     R0886     1
    C0294     R1012     1
    C0294     R1118     1
    C0294     R1119     1
    C0294     R1120     1
    C0294     R1374     1
    C0294     R1375     1
    C0294     R1376     1
    C0294     R1405     1
    C0294     R1406     1
    C0294     R1408     1
    C0294     R1512     -1
    C0294     R1542     1
    C0294     R1645     -1
    C0294     R1646     -1
    C0294     R1648     -1
    C0294     R1674     1
    C0294     R1675     1
    C0294     R1676     1
    C0294     R1677     1
    C0294     R1772     -2
    C0294     R1773     -2
    C0294     R1774     -2
    C0294     R1775     -2
    C0294     R1800     -2
    C0294     R1801     -2
    C0294     R1802     -2
    C0294     R1803     -2
    C0294     R1898     1
    C0294     R1899     1
    C0294     R1900     1
    C0294     R1901     1
    C0294     R2040     1
    C0294     R2041     1
    C0294     R2042     1
    C0294     R2072     1
    C0294     R2073     1
    C0294     R2074     1
    C0294     R2215     -1
    C0294     R2216     -1
    C0294     R2217     -1
    C0294     R2218     -1
    C0294     R2320     1
    C0294     R2321     1
    C0294     R2322     1
    C0294     R2323     1
    C0294     R2350     1
    C0294     R2351     1
    C0294     R2352     1
    C0294     R2353     1
    C0294     R2455     -1
    C0294     R2456     -1
    C0294     R2457     -1
    C0294     R2458     -1
    C0294     R2484     -2
    C0294     R2485     -1
    C0294     R2486     -2
    C0294     R2487     -1
    C0294     R2582     1
    C0294     R2583     1
    C0294     R2584     1
    C0294     R2585     1
    C0294     R2610     1
    C0294     R2611     1
    C0294     R2612     1
    C0294     R2613     1
    C0294     R2708     -2
    C0294     R2709     -2
    C0294     R2710     -2
    C0294     R2711     -2
    C0296     R0795     1
    C0296     R0888     1
    C0296     R1014     1
    C0296     R1120     1
    C0296     R1121     1
    C0296     R1376     1
    C0296     R1377     1
    C0296     R1408     1
    C0296     R1512     -1
    C0296     R1542     1
    C0296     R1648     -1
    C0296     R1676     1
    C0296     R1677     1
    C0296     R1774     -2
    C0296     R1775     -2
    C0296     R1802     -2
    C0296     R1803     -2
    C0296     R1900     1
    C0296     R1901     1
    C0296     R2042     1
    C0296     R2043     1
    C0296     R2074     1
    C0296     R2075     1
    C0296     R2217     -1
    C0296     R2218     -1
    C0296     R2322     1
    C0296     R2323     1
    C0296     R2352     1
    C0296     R2353     1
    C0296     R2457     -1
    C0296     R2458     -1
    C0296     R2486     -2
    C0296     R2487     -1
    C0296     R2584     1
    C0296     R2585     1
    C0296     R2612     1
    C0296     R2613     1
    C0296     R2710     -2
    C0296     R2711     -2
    C0303     OBJ       1000
    C0303     R1919     1
    C0303     R0796     1
    C0303     R0877     1
    C0303     R1021     1
    C0303     R1041     1
    C0303     R1110     1
    C0303     R1382     3
    C0303     R1398     1
    C0303     R1399     1
    C0303     R1781     -1
    C0303     R1795     -3
    C0303     R1920     1
    C0303     R2191     1
    C0303     R2192     3
    C0303     R2207     1
    C0303     R2208     1
    C0303     R2209     1
    C0303     R2344     -1
    C0303     R2462     1
    C0303     R2463     3
    C0303     R2591     -1
    C0303     R2605     -3
    C0303     R2726     1
    C0303     R2743     1
    C0303     R2744     1
    C0303     R2761     1
    C0305     R0796     1
    C0305     R0879     1
    C0305     R1023     1
    C0305     R1041     1
    C0305     R1113     1
    C0305     R1385     1
    C0305     R1398     1
    C0305     R1399     1
    C0305     R1535     1
    C0305     R1536     1
    C0305     R1656     -1
    C0305     R1781     -1
    C0305     R1782     -1
    C0305     R1783     -3
    C0305     R1795     -3
    C0305     R1796     -3
    C0305     R1797     -3
    C0305     R1908     1
    C0305     R1923     1
    C0305     R2195     1
    C0305     R2208     1
    C0305     R2209     1
    C0305     R2210     1
    C0305     R2211     1
    C0305     R2331     -1
    C0305     R2344     -1
    C0305     R2345     -1
    C0305     R2346     -1
    C0305     R2463     3
    C0305     R2465     1
    C0305     R2466     1
    C0305     R2591     -1
    C0305     R2592     -1
    C0305     R2593     -3
    C0305     R2605     -3
    C0305     R2606     -3
    C0305     R2607     -3
    C0305     R2718     1
    C0305     R2726     1
    C0305     R2743     1
    C0305     R2744     1
    C0305     R2761     1
    C0305     R2820     1
    C0307     R0797     1
    C0307     R0881     1
    C0307     R1025     1
    C0307     R1041     1
    C0307     R1113     1
    C0307     R1114     1
    C0307     R1115     1
    C0307     R1385     1
    C0307     R1386     1
    C0307     R1387     1
    C0307     R1522     -1
    C0307     R1535     1
    C0307     R1536     1
    C0307     R1537     1
    C0307     R1538     1
    C0307     R1656     -1
    C0307     R1658     -1
    C0307     R1669     1
    C0307     R1670     1
    C0307     R1671     1
    C0307     R1672     1
    C0307     R1673     1
    C0307     R1781     -1
    C0307     R1782     -1
    C0307     R1783     -3
    C0307     R1784     -3
    C0307     R1785     -2
    C0307     R1795     -2
    C0307     R1796     -2
    C0307     R1797     -2
    C0307     R1798     -2
    C0307     R1799     -2
    C0307     R1907     1
    C0307     R1908     1
    C0307     R1923     1
    C0307     R1924     1
    C0307     R1925     1
    C0307     R2195     1
    C0307     R2196     1
    C0307     R2197     1
    C0307     R2210     1
    C0307     R2211     1
    C0307     R2212     1
    C0307     R2213     1
    C0307     R2331     -1
    C0307     R2332     -1
    C0307     R2333     -1
    C0307     R2345     -1
    C0307     R2346     -1
    C0307     R2347     -1
    C0307     R2348     -1
    C0307     R2465     1
    C0307     R2466     1
    C0307     R2467     1
    C0307     R2468     1
    C0307     R2479     1
    C0307     R2480     1
    C0307     R2481     1
    C0307     R2482     1
    C0307     R2483     1
    C0307     R2591     -1
    C0307     R2592     -1
    C0307     R2593     -3
    C0307     R2594     -3
    C0307     R2595     -2
    C0307     R2605     -2
    C0307     R2606     -2
    C0307     R2607     -2
    C0307     R2608     -2
    C0307     R2609     -2
    C0307     R2717     1
    C0307     R2718     1
    C0307     R2820     1
    C0309     R0797     1
    C0309     R0883     1
    C0309     R1027     1
    C0309     R1041     1
    C0309     R1115     1
    C0309     R1116     1
    C0309     R1117     1
    C0309     R1387     1
    C0309     R1388     1
    C0309     R1389     1
    C0309     R1405     1
    C0309     R1522     -1
    C0309     R1537     1
    C0309     R1538     1
    C0309     R1539     1
    C0309     R1658     -1
    C0309     R1659     -1
    C0309     R1660     -1
    C0309     R1671     1
    C0309     R1672     1
    C0309     R1673     1
    C0309     R1674     1
    C0309     R1675     1
    C0309     R1783     -2
    C0309     R1784     -2
    C0309     R1785     -2
    C0309     R1786     -1
    C0309     R1787     -2
    C0309     R1797     -2
    C0309     R1798     -2
    C0309     R1799     -2
    C0309     R1800     -2
    C0309     R1801     -2
    C0309     R1909     1
    C0309     R1910     1
    C0309     R1911     1
    C0309     R1912     1
    C0309     R1913     1
    C0309     R1925     1
    C0309     R1926     1
    C0309     R1927     1
    C0309     R2197     1
    C0309     R2198     1
    C0309     R2199     1
    C0309     R2212     1
    C0309     R2213     1
    C0309     R2214     1
    C0309     R2215     1
    C0309     R2332     -1
    C0309     R2333     -1
    C0309     R2334     -1
    C0309     R2335     -1
    C0309     R2347     -1
    C0309     R2348     -1
    C0309     R2349     -1
    C0309     R2350     -1
    C0309     R2467     1
    C0309     R2468     1
    C0309     R2469     1
    C0309     R2470     1
    C0309     R2481     1
    C0309     R2482     1
    C0309     R2483     1
    C0309     R2484     1
    C0309     R2485     1
    C0309     R2593     -2
    C0309     R2594     -2
    C0309     R2595     -2
    C0309     R2596     -1
    C0309     R2597     -2
    C0309     R2607     -2
    C0309     R2608     -2
    C0309     R2609     -2
    C0309     R2610     -2
    C0309     R2611     -2
    C0309     R2719     1
    C0309     R2720     1
    C0309     R2721     1
    C0309     R2722     1
    C0309     R2723     1
    C0311     R0797     1
    C0311     R0885     1
    C0311     R1029     1
    C0311     R1041     1
    C0311     R1117     1
    C0311     R1118     1
    C0311     R1119     1
    C0311     R1389     1
    C0311     R1390     1
    C0311     R1391     1
    C0311     R1405     1
    C0311     R1406     1
    C0311     R1539     1
    C0311     R1542     1
    C0311     R1659     -1
    C0311     R1660     -1
    C0311     R1661     -1
    C0311     R1662     -1
    C0311     R1673     1
    C0311     R1674     1
    C0311     R1675     1
    C0311     R1676     1
    C0311     R1677     1
    C0311     R1785     -2
    C0311     R1786     -1
    C0311     R1787     -2
    C0311     R1788     -1
    C0311     R1789     -2
    C0311     R1799     -2
    C0311     R1800     -2
    C0311     R1801     -2
    C0311     R1802     -2
    C0311     R1803     -2
    C0311     R1911     1
    C0311     R1912     1
    C0311     R1913     1
    C0311     R1914     1
    C0311     R1915     1
    C0311     R1927     1
    C0311     R1928     1
    C0311     R1929     1
    C0311     R2199     1
    C0311     R2200     1
    C0311     R2201     1
    C0311     R2214     1
    C0311     R2215     1
    C0311     R2216     1
    C0311     R2217     1
    C0311     R2334     -1
    C0311     R2335     -1
    C0311     R2336     -1
    C0311     R2337     -1
    C0311     R2349     -1
    C0311     R2350     -1
    C0311     R2351     -1
    C0311     R2352     -1
    C0311     R2469     1
    C0311     R2470     1
    C0311     R2471     1
    C0311     R2472     1
    C0311     R2483     1
    C0311     R2484     1
    C0311     R2485     1
    C0311     R2486     1
    C0311     R2487     1
    C0311     R2595     -2
    C0311     R2596     -1
    C0311     R2597     -2
    C0311     R2598     -1
    C0311     R2599     -2
    C0311     R2609     -2
    C0311     R2610     -2
    C0311     R2611     -2
    C0311     R2612     -2
    C0311     R2613     -2
    C0311     R2721     1
    C0311     R2722     1
    C0311     R2723     1
    C0311     R2724     1
    C0311     R2725     1
    C0313     R0797     1
    C0313     R0887     1
    C0313     R1031     1
    C0313     R1041     1
    C0313     R1119     1
    C0313     R1120     1
    C0313     R1121     1
    C0313     R1391     1
    C0313     R1392     1
    C0313     R1393     1
    C0313     R1406     1
    C0313     R1408     1
    C0313     R1528     -1
    C0313     R1542     1
    C0313     R1661     -1
    C0313     R1662     -1
    C0313     R1675     1
    C0313     R1676     1
    C0313     R1677     1
    C0313     R1787     -2
    C0313     R1788     -1
    C0313     R1789     -2
    C0313     R1801     -2
    C0313     R1802     -2
    C0313     R1803     -2
    C0313     R1913     1
    C0313     R1914     1
    C0313     R1915     1
    C0313     R1929     1
    C0313     R1930     1
    C0313     R1931     1
    C0313     R2201     1
    C0313     R2202     1
    C0313     R2203     1
    C0313     R2216     1
    C0313     R2217     1
    C0313     R2218     1
    C0313     R2336     -1
    C0313     R2337     -1
    C0313     R2338     -1
    C0313     R2351     -1
    C0313     R2352     -1
    C0313     R2353     -1
    C0313     R2471     1
    C0313     R2472     1
    C0313     R2473     1
    C0313     R2485     1
    C0313     R2486     1
    C0313     R2487     1
    C0313     R2597     -2
    C0313     R2598     -1
    C0313     R2599     -2
    C0313     R2611     -2
    C0313     R2612     -2
    C0313     R2613     -2
    C0313     R2723     1
    C0313     R2724     1
    C0313     R2725     1
    C0315     R0797     1
    C0315     R0889     1
    C0315     R1033     1
    C0315     R1041     1
    C0315     R1121     1
    C0315     R1393     1
    C0315     R1408     1
    C0315     R1528     -1
    C0315     R1677     1
    C0315     R1789     -2
    C0315     R1803     -2
    C0315     R1915     1
    C0315     R1931     1
    C0315     R2203     1
    C0315     R2218     1
    C0315     R2338     -1
    C0315     R2353     -1
    C0315     R2473     1
    C0315     R2487     1
    C0315     R2599     -2
    C0315     R2613     -2
    C0315     R2725     1
    C0325     R0855     1
    C0325     R0881     1
    C0326     R0855     1
    C0326     R0882     1
    C0327     R0855     1
    C0327     R0883     1
    C0328     R0855     1
    C0328     R0884     1
    C0329     R0855     1
    C0329     R0885     1
    C0330     R0855     1
    C0330     R0886     1
    C0331     R0855     1
    C0331     R0887     1
    C0332     R0855     1
    C0332     R0888     1
    C0333     R0855     1
    C0333     R0889     1
    C0340     R0782     1
    C0340     R0878     1
    C0340     R0896     1
    C0340     R1042     1
    C0340     R1126     1
    C0340     R1127     1
    C0340     R1128     1
    C0340     R1255     1
    C0340     R1256     1
    C0340     R1398     -1
    C0340     R1399     -1
    C0340     R1413     1
    C0340     R1415     1
    C0340     R1535     -1
    C0340     R1547     1
    C0340     R1549     1
    C0340     R1668     -1
    C0340     R1669     -3
    C0340     R1670     -3
    C0340     R1809     -3
    C0340     R1810     -3
    C0340     R1920     1
    C0340     R2081     1
    C0340     R2082     1
    C0340     R2207     1
    C0340     R2208     1
    C0340     R2209     1
    C0340     R2210     1
    C0340     R2223     -1
    C0340     R2224     -1
    C0340     R2225     -1
    C0340     R2344     -1
    C0340     R2345     -1
    C0340     R2359     1
    C0340     R2360     1
    C0340     R2491     -3
    C0340     R2492     -1
    C0340     R2493     -3
    C0340     R2494     -3
    C0340     R2605     -3
    C0340     R2606     -3
    C0340     R2727     1
    C0340     R2735     1
    C0340     R2744     1
    C0340     R2754     1
    C0342     R0782     1
    C0342     R0880     1
    C0342     R0898     1
    C0342     R1042     1
    C0342     R1128     1
    C0342     R1129     1
    C0342     R1130     1
    C0342     R1256     1
    C0342     R1257     1
    C0342     R1258     1
    C0342     R1399     -1
    C0342     R1415     1
    C0342     R1416     1
    C0342     R1535     -1
    C0342     R1536     -1
    C0342     R1537     -1
    C0342     R1549     1
    C0342     R1552     1
    C0342     R1668     -1
    C0342     R1669     -3
    C0342     R1670     -3
    C0342     R1671     -3
    C0342     R1672     -2
    C0342     R1809     -3
    C0342     R1810     -3
    C0342     R1811     -3
    C0342     R1812     -3
    C0342     R1923     1
    C0342     R1924     1
    C0342     R2082     1
    C0342     R2083     1
    C0342     R2084     1
    C0342     R2209     1
    C0342     R2210     1
    C0342     R2211     1
    C0342     R2212     1
    C0342     R2224     -1
    C0342     R2225     -1
    C0342     R2226     -1
    C0342     R2227     -1
    C0342     R2344     -1
    C0342     R2345     -1
    C0342     R2346     -1
    C0342     R2347     -1
    C0342     R2359     1
    C0342     R2360     1
    C0342     R2361     1
    C0342     R2362     1
    C0342     R2492     -1
    C0342     R2493     -3
    C0342     R2494     -3
    C0342     R2495     -3
    C0342     R2496     -2
    C0342     R2605     -3
    C0342     R2606     -3
    C0342     R2607     -3
    C0342     R2608     -2
    C0342     R2727     1
    C0342     R2735     1
    C0342     R2744     1
    C0342     R2754     1
    C0342     R2800     1
    C0344     R0783     1
    C0344     R0882     1
    C0344     R0900     1
    C0344     R1042     1
    C0344     R1130     1
    C0344     R1131     1
    C0344     R1132     1
    C0344     R1258     1
    C0344     R1259     1
    C0344     R1260     1
    C0344     R1416     1
    C0344     R1418     1
    C0344     R1419     1
    C0344     R1536     -1
    C0344     R1537     -1
    C0344     R1538     -1
    C0344     R1539     -1
    C0344     R1552     1
    C0344     R1670     -2
    C0344     R1671     -2
    C0344     R1672     -2
    C0344     R1673     -1
    C0344     R1674     -2
    C0344     R1684     1
    C0344     R1685     1
    C0344     R1686     1
    C0344     R1687     1
    C0344     R1688     1
    C0344     R1796     1
    C0344     R1797     1
    C0344     R1798     1
    C0344     R1799     1
    C0344     R1800     1
    C0344     R1810     -2
    C0344     R1811     -2
    C0344     R1812     -2
    C0344     R1813     -2
    C0344     R1814     -2
    C0344     R1924     1
    C0344     R1925     1
    C0344     R1926     1
    C0344     R2084     1
    C0344     R2085     1
    C0344     R2086     1
    C0344     R2211     1
    C0344     R2212     1
    C0344     R2213     1
    C0344     R2214     1
    C0344     R2226     -1
    C0344     R2227     -1
    C0344     R2228     -1
    C0344     R2229     -1
    C0344     R2346     -1
    C0344     R2347     -1
    C0344     R2348     -1
    C0344     R2349     -1
    C0344     R2361     1
    C0344     R2362     1
    C0344     R2363     1
    C0344     R2364     1
    C0344     R2480     1
    C0344     R2481     1
    C0344     R2482     1
    C0344     R2483     1
    C0344     R2484     1
    C0344     R2494     -2
    C0344     R2495     -2
    C0344     R2496     -2
    C0344     R2497     -2
    C0344     R2498     -2
    C0344     R2606     -2
    C0344     R2607     -2
    C0344     R2608     -2
    C0344     R2609     -2
    C0344     R2610     -2
    C0344     R2620     1
    C0344     R2621     1
    C0344     R2622     1
    C0344     R2623     1
    C0344     R2624     1
    C0344     R2800     1
    C0346     R0783     1
    C0346     R0884     1
    C0346     R0902     1
    C0346     R1042     1
    C0346     R1132     1
    C0346     R1133     1
    C0346     R1134     1
    C0346     R1260     1
    C0346     R1261     1
    C0346     R1262     1
    C0346     R1405     -1
    C0346     R1406     -1
    C0346     R1418     1
    C0346     R1419     1
    C0346     R1420     1
    C0346     R1421     1
    C0346     R1538     -1
    C0346     R1539     -1
    C0346     R1672     -2
    C0346     R1673     -1
    C0346     R1674     -2
    C0346     R1675     -1
    C0346     R1676     -2
    C0346     R1686     1
    C0346     R1687     1
    C0346     R1688     1
    C0346     R1689     1
    C0346     R1690     1
    C0346     R1798     1
    C0346     R1799     1
    C0346     R1800     1
    C0346     R1801     1
    C0346     R1802     1
    C0346     R1812     -2
    C0346     R1813     -2
    C0346     R1814     -2
    C0346     R1815     -2
    C0346     R1816     -2
    C0346     R1926     1
    C0346     R1927     1
    C0346     R1928     1
    C0346     R2086     1
    C0346     R2087     1
    C0346     R2088     1
    C0346     R2213     1
    C0346     R2214     1
    C0346     R2215     1
    C0346     R2216     1
    C0346     R2228     -1
    C0346     R2229     -1
    C0346     R2230     -1
    C0346     R2231     -1
    C0346     R2348     -1
    C0346     R2349     -1
    C0346     R2350     -1
    C0346     R2351     -1
    C0346     R2363     1
    C0346     R2364     1
    C0346     R2365     1
    C0346     R2366     1
    C0346     R2482     1
    C0346     R2483     1
    C0346     R2484     1
    C0346     R2485     1
    C0346     R2486     1
    C0346     R2496     -2
    C0346     R2497     -2
    C0346     R2498     -2
    C0346     R2499     -2
    C0346     R2500     -2
    C0346     R2608     -2
    C0346     R2609     -2
    C0346     R2610     -2
    C0346     R2611     -2
    C0346     R2612     -2
    C0346     R2622     1
    C0346     R2623     1
    C0346     R2624     1
    C0346     R2625     1
    C0346     R2626     1
    C0348     R0783     1
    C0348     R0886     1
    C0348     R0904     1
    C0348     R1042     1
    C0348     R1134     1
    C0348     R1135     1
    C0348     R1136     1
    C0348     R1262     1
    C0348     R1263     1
    C0348     R1264     1
    C0348     R1405     -1
    C0348     R1406     -1
    C0348     R1408     -1
    C0348     R1420     1
    C0348     R1421     1
    C0348     R1422     1
    C0348     R1423     1
    C0348     R1542     -1
    C0348     R1674     -2
    C0348     R1675     -1
    C0348     R1676     -2
    C0348     R1677     -1
    C0348     R1688     1
    C0348     R1689     1
    C0348     R1690     1
    C0348     R1691     1
    C0348     R1800     1
    C0348     R1801     1
    C0348     R1802     1
    C0348     R1803     1
    C0348     R1814     -2
    C0348     R1815     -2
    C0348     R1816     -2
    C0348     R1817     -2
    C0348     R1928     1
    C0348     R1929     1
    C0348     R1930     1
    C0348     R2088     1
    C0348     R2089     1
    C0348     R2090     1
    C0348     R2215     1
    C0348     R2216     1
    C0348     R2217     1
    C0348     R2218     1
    C0348     R2230     -1
    C0348     R2231     -1
    C0348     R2232     -1
    C0348     R2233     -1
    C0348     R2350     -1
    C0348     R2351     -1
    C0348     R2352     -1
    C0348     R2353     -1
    C0348     R2365     1
    C0348     R2366     1
    C0348     R2367     1
    C0348     R2368     1
    C0348     R2484     1
    C0348     R2485     1
    C0348     R2486     1
    C0348     R2487     1
    C0348     R2498     -2
    C0348     R2499     -2
    C0348     R2500     -2
    C0348     R2501     -2
    C0348     R2610     -2
    C0348     R2611     -2
    C0348     R2612     -2
    C0348     R2613     -2
    C0348     R2624     1
    C0348     R2625     1
    C0348     R2626     1
    C0348     R2627     1
    C0350     R0783     1
    C0350     R0888     1
    C0350     R0906     1
    C0350     R1042     1
    C0350     R1136     1
    C0350     R1137     1
    C0350     R1264     1
    C0350     R1265     1
    C0350     R1408     -1
    C0350     R1422     1
    C0350     R1423     1
    C0350     R1542     -1
    C0350     R1676     -2
    C0350     R1677     -1
    C0350     R1690     1
    C0350     R1691     1
    C0350     R1802     1
    C0350     R1803     1
    C0350     R1816     -2
    C0350     R1817     -2
    C0350     R1930     1
    C0350     R1931     1
    C0350     R2090     1
    C0350     R2091     1
    C0350     R2217     1
    C0350     R2218     1
    C0350     R2232     -1
    C0350     R2233     -1
    C0350     R2352     -1
    C0350     R2353     -1
    C0350     R2367     1
    C0350     R2368     1
    C0350     R2486     1
    C0350     R2487     1
    C0350     R2500     -2
    C0350     R2501     -2
    C0350     R2612     -2
    C0350     R2613     -2
    C0350     R2626     1
    C0350     R2627     1
    C0362     R0900     1
    C0362     R0918     1
    C0362     R1043     1
    C0362     R1130     1
    C0362     R1131     1
    C0362     R1132     1
    C0362     R1290     1
    C0362     R1291     1
    C0362     R1292     1
    C0362     R1416     1
    C0362     R1418     1
    C0362     R1419     1
    C0362     R1431     -1
    C0362     R1432     -1
    C0362     R1433     -1
    C0362     R1434     -1
    C0362     R1552     1
    C0362     R1684     1
    C0362     R1685     1
    C0362     R1686     1
    C0362     R1687     1
    C0362     R1688     1
    C0362     R1698     -2
    C0362     R1699     -2
    C0362     R1700     -2
    C0362     R1701     -2
    C0362     R1702     -2
    C0362     R1810     -2
    C0362     R1811     -2
    C0362     R1812     -2
    C0362     R1813     -2
    C0362     R1814     -2
    C0362     R1824     1
    C0362     R1825     1
    C0362     R1826     1
    C0362     R1827     1
    C0362     R1828     1
    C0362     R1956     1
    C0362     R1957     1
    C0362     R1958     1
    C0362     R2084     1
    C0362     R2085     1
    C0362     R2086     1
    C0362     R2226     -1
    C0362     R2227     -1
    C0362     R2228     -1
    C0362     R2229     -1
    C0362     R2241     1
    C0362     R2242     1
    C0362     R2243     1
    C0362     R2244     1
    C0362     R2361     1
    C0362     R2362     1
    C0362     R2363     1
    C0362     R2364     1
    C0362     R2376     -1
    C0362     R2377     -1
    C0362     R2378     -1
    C0362     R2379     -1
    C0362     R2494     -2
    C0362     R2495     -2
    C0362     R2496     -2
    C0362     R2497     -2
    C0362     R2498     -2
    C0362     R2508     1
    C0362     R2509     1
    C0362     R2510     1
    C0362     R2511     1
    C0362     R2512     1
    C0362     R2620     1
    C0362     R2621     1
    C0362     R2622     1
    C0362     R2623     1
    C0362     R2624     1
    C0362     R2634     -2
    C0362     R2635     -2
    C0362     R2636     -2
    C0362     R2637     -2
    C0362     R2638     -2
    C0364     R0902     1
    C0364     R0920     1
    C0364     R1043     1
    C0364     R1132     1
    C0364     R1133     1
    C0364     R1134     1
    C0364     R1292     1
    C0364     R1293     1
    C0364     R1294     1
    C0364     R1418     1
    C0364     R1419     1
    C0364     R1420     1
    C0364     R1421     1
    C0364     R1433     -1
    C0364     R1434     -1
    C0364     R1435     -1
    C0364     R1571     -1
    C0364     R1686     1
    C0364     R1687     1
    C0364     R1688     1
    C0364     R1689     1
    C0364     R1690     1
    C0364     R1700     -2
    C0364     R1701     -2
    C0364     R1702     -2
    C0364     R1703     -2
    C0364     R1704     -2
    C0364     R1812     -2
    C0364     R1813     -2
    C0364     R1814     -2
    C0364     R1815     -2
    C0364     R1816     -2
    C0364     R1826     1
    C0364     R1827     1
    C0364     R1828     1
    C0364     R1829     1
    C0364     R1830     1
    C0364     R1958     1
    C0364     R1959     1
    C0364     R1960     1
    C0364     R2086     1
    C0364     R2087     1
    C0364     R2088     1
    C0364     R2228     -1
    C0364     R2229     -1
    C0364     R2230     -1
    C0364     R2231     -1
    C0364     R2243     1
    C0364     R2244     1
    C0364     R2245     1
    C0364     R2246     1
    C0364     R2363     1
    C0364     R2364     1
    C0364     R2365     1
    C0364     R2366     1
    C0364     R2378     -1
    C0364     R2379     -1
    C0364     R2380     -1
    C0364     R2381     -1
    C0364     R2496     -2
    C0364     R2497     -2
    C0364     R2498     -2
    C0364     R2499     -2
    C0364     R2500     -2
    C0364     R2510     1
    C0364     R2511     1
    C0364     R2512     1
    C0364     R2513     1
    C0364     R2514     1
    C0364     R2622     1
    C0364     R2623     1
    C0364     R2624     1
    C0364     R2625     1
    C0364     R2626     1
    C0364     R2636     -2
    C0364     R2637     -2
    C0364     R2638     -2
    C0364     R2639     -2
    C0364     R2640     -2
    C0366     R0904     1
    C0366     R0922     1
    C0366     R1043     1
    C0366     R1134     1
    C0366     R1135     1
    C0366     R1136     1
    C0366     R1294     1
    C0366     R1295     1
    C0366     R1296     1
    C0366     R1420     1
    C0366     R1421     1
    C0366     R1422     1
    C0366     R1423     1
    C0366     R1435     -1
    C0366     R1571     -1
    C0366     R1572     -1
    C0366     R1573     -1
    C0366     R1688     1
    C0366     R1689     1
    C0366     R1690     1
    C0366     R1691     1
    C0366     R1702     -2
    C0366     R1703     -2
    C0366     R1704     -2
    C0366     R1705     -2
    C0366     R1814     -2
    C0366     R1815     -2
    C0366     R1816     -2
    C0366     R1817     -2
    C0366     R1828     1
    C0366     R1829     1
    C0366     R1830     1
    C0366     R1831     1
    C0366     R1960     1
    C0366     R1961     1
    C0366     R1962     1
    C0366     R2088     1
    C0366     R2089     1
    C0366     R2090     1
    C0366     R2230     -1
    C0366     R2231     -1
    C0366     R2232     -1
    C0366     R2233     -1
    C0366     R2245     1
    C0366     R2246     1
    C0366     R2247     1
    C0366     R2248     1
    C0366     R2365     1
    C0366     R2366     1
    C0366     R2367     1
    C0366     R2368     1
    C0366     R2380     -1
    C0366     R2381     -1
    C0366     R2382     -1
    C0366     R2383     -1
    C0366     R2498     -2
    C0366     R2499     -2
    C0366     R2500     -2
    C0366     R2501     -2
    C0366     R2512     1
    C0366     R2513     1
    C0366     R2514     1
    C0366     R2515     1
    C0366     R2624     1
    C0366     R2625     1
    C0366     R2626     1
    C0366     R2627     1
    C0366     R2638     -2
    C0366     R2639     -2
    C0366     R2640     -2
    C0366     R2641     -2
    C0368     R0906     1
    C0368     R0924     1
    C0368     R1043     1
    C0368     R1136     1
    C0368     R1137     1
    C0368     R1296     1
    C0368     R1297     1
    C0368     R1422     1
    C0368     R1423     1
    C0368     R1572     -1
    C0368     R1573     -1
    C0368     R1690     1
    C0368     R1691     1
    C0368     R1704     -2
    C0368     R1705     -2
    C0368     R1816     -2
    C0368     R1817     -2
    C0368     R1830     1
    C0368     R1831     1
    C0368     R1962     1
    C0368     R1963     1
    C0368     R2090     1
    C0368     R2091     1
    C0368     R2232     -1
    C0368     R2233     -1
    C0368     R2247     1
    C0368     R2248     1
    C0368     R2367     1
    C0368     R2368     1
    C0368     R2382     -1
    C0368     R2383     -1
    C0368     R2500     -2
    C0368     R2501     -2
    C0368     R2514     1
    C0368     R2515     1
    C0368     R2626     1
    C0368     R2627     1
    C0368     R2640     -2
    C0368     R2641     -2
    C0397     R0899     1
    C0397     R0953     1
    C0397     R1045     1
    C0397     R1129     1
    C0397     R1130     1
    C0397     R1131     1
    C0397     R1321     1
    C0397     R1322     1
    C0397     R1323     1
    C0397     R1415     1
    C0397     R1416     1
    C0397     R1418     1
    C0397     R1463     -1
    C0397     R1552     1
    C0397     R1595     -1
    C0397     R1596     -1
    C0397     R1597     -1
    C0397     R1683     1
    C0397     R1684     1
    C0397     R1685     1
    C0397     R1686     1
    C0397     R1687     1
    C0397     R1725     -1
    C0397     R1726     -2
    C0397     R1727     -2
    C0397     R1728     -2
    C0397     R1729     -2
    C0397     R1809     -2
    C0397     R1810     -2
    C0397     R1811     -2
    C0397     R1812     -2
    C0397     R1813     -2
    C0397     R1851     1
    C0397     R1852     1
    C0397     R1853     1
    C0397     R1854     1
    C0397     R1855     1
    C0397     R1939     1
    C0397     R1940     1
    C0397     R1941     1
    C0397     R2131     1
    C0397     R2132     1
    C0397     R2133     1
    C0397     R2225     1
    C0397     R2226     1
    C0397     R2227     1
    C0397     R2228     1
    C0397     R2270     -1
    C0397     R2271     -1
    C0397     R2272     -1
    C0397     R2273     -1
    C0397     R2360     -1
    C0397     R2361     -1
    C0397     R2362     -1
    C0397     R2363     -1
    C0397     R2405     1
    C0397     R2406     1
    C0397     R2407     1
    C0397     R2408     1
    C0397     R2493     1
    C0397     R2494     1
    C0397     R2495     1
    C0397     R2496     1
    C0397     R2497     1
    C0397     R2535     -1
    C0397     R2536     -2
    C0397     R2537     -2
    C0397     R2538     -2
    C0397     R2539     -2
    C0397     R2619     -2
    C0397     R2620     -2
    C0397     R2621     -2
    C0397     R2622     -2
    C0397     R2623     -2
    C0397     R2661     1
    C0397     R2662     1
    C0397     R2663     1
    C0397     R2664     1
    C0397     R2665     1
    C0399     R0901     1
    C0399     R0955     1
    C0399     R1045     1
    C0399     R1131     1
    C0399     R1132     1
    C0399     R1133     1
    C0399     R1323     1
    C0399     R1324     1
    C0399     R1325     1
    C0399     R1418     1
    C0399     R1419     1
    C0399     R1420     1
    C0399     R1463     -1
    C0399     R1465     -1
    C0399     R1552     1
    C0399     R1597     -1
    C0399     R1599     -1
    C0399     R1685     1
    C0399     R1686     1
    C0399     R1687     1
    C0399     R1688     1
    C0399     R1689     1
    C0399     R1727     -2
    C0399     R1728     -2
    C0399     R1729     -2
    C0399     R1730     -2
    C0399     R1731     -2
    C0399     R1811     -2
    C0399     R1812     -2
    C0399     R1813     -2
    C0399     R1814     -2
    C0399     R1815     -2
    C0399     R1853     1
    C0399     R1854     1
    C0399     R1855     1
    C0399     R1856     1
    C0399     R1857     1
    C0399     R1941     1
    C0399     R1942     1
    C0399     R1943     1
    C0399     R2133     1
    C0399     R2134     1
    C0399     R2135     1
    C0399     R2227     1
    C0399     R2228     1
    C0399     R2229     1
    C0399     R2230     1
    C0399     R2272     -1
    C0399     R2273     -1
    C0399     R2274     -1
    C0399     R2275     -1
    C0399     R2362     -1
    C0399     R2363     -1
    C0399     R2364     -1
    C0399     R2365     -1
    C0399     R2407     1
    C0399     R2408     1
    C0399     R2409     1
    C0399     R2410     1
    C0399     R2495     1
    C0399     R2496     1
    C0399     R2497     1
    C0399     R2498     1
    C0399     R2499     1
    C0399     R2537     -2
    C0399     R2538     -2
    C0399     R2539     -2
    C0399     R2540     -2
    C0399     R2541     -2
    C0399     R2621     -2
    C0399     R2622     -2
    C0399     R2623     -2
    C0399     R2624     -2
    C0399     R2625     -2
    C0399     R2663     1
    C0399     R2664     1
    C0399     R2665     1
    C0399     R2666     1
    C0399     R2667     1
    C0401     R0903     1
    C0401     R0957     1
    C0401     R1045     1
    C0401     R1133     1
    C0401     R1134     1
    C0401     R1135     1
    C0401     R1325     1
    C0401     R1326     1
    C0401     R1327     1
    C0401     R1419     1
    C0401     R1420     1
    C0401     R1421     1
    C0401     R1422     1
    C0401     R1465     -1
    C0401     R1466     -1
    C0401     R1599     -1
    C0401     R1602     -1
    C0401     R1687     1
    C0401     R1688     1
    C0401     R1689     1
    C0401     R1690     1
    C0401     R1691     1
    C0401     R1729     -2
    C0401     R1730     -2
    C0401     R1731     -2
    C0401     R1732     -2
    C0401     R1733     -2
    C0401     R1813     -2
    C0401     R1814     -2
    C0401     R1815     -2
    C0401     R1816     -2
    C0401     R1817     -2
    C0401     R1855     1
    C0401     R1856     1
    C0401     R1857     1
    C0401     R1858     1
    C0401     R1859     1
    C0401     R1943     1
    C0401     R1944     1
    C0401     R1945     1
    C0401     R2135     1
    C0401     R2136     1
    C0401     R2137     1
    C0401     R2229     1
    C0401     R2230     1
    C0401     R2231     1
    C0401     R2232     1
    C0401     R2274     -1
    C0401     R2275     -1
    C0401     R2276     -1
    C0401     R2277     -1
    C0401     R2364     -1
    C0401     R2365     -1
    C0401     R2366     -1
    C0401     R2367     -1
    C0401     R2409     1
    C0401     R2410     1
    C0401     R2411     1
    C0401     R2412     1
    C0401     R2497     1
    C0401     R2498     1
    C0401     R2499     1
    C0401     R2500     1
    C0401     R2501     1
    C0401     R2539     -2
    C0401     R2540     -2
    C0401     R2541     -2
    C0401     R2542     -2
    C0401     R2543     -2
    C0401     R2623     -2
    C0401     R2624     -2
    C0401     R2625     -2
    C0401     R2626     -2
    C0401     R2627     -2
    C0401     R2665     1
    C0401     R2666     1
    C0401     R2667     1
    C0401     R2668     1
    C0401     R2669     1
    C0403     R0905     1
    C0403     R0959     1
    C0403     R1045     1
    C0403     R1135     1
    C0403     R1136     1
    C0403     R1137     1
    C0403     R1327     1
    C0403     R1328     1
    C0403     R1329     1
    C0403     R1421     1
    C0403     R1422     1
    C0403     R1423     1
    C0403     R1466     -1
    C0403     R1468     -1
    C0403     R1602     -1
    C0403     R1689     1
    C0403     R1690     1
    C0403     R1691     1
    C0403     R1731     -2
    C0403     R1732     -2
    C0403     R1733     -2
    C0403     R1815     -2
    C0403     R1816     -2
    C0403     R1817     -2
    C0403     R1857     1
    C0403     R1858     1
    C0403     R1859     1
    C0403     R1945     1
    C0403     R1946     1
    C0403     R1947     1
    C0403     R2137     1
    C0403     R2138     1
    C0403     R2139     1
    C0403     R2231     1
    C0403     R2232     1
    C0403     R2233     1
    C0403     R2276     -1
    C0403     R2277     -1
    C0403     R2278     -1
    C0403     R2366     -1
    C0403     R2367     -1
    C0403     R2368     -1
    C0403     R2411     1
    C0403     R2412     1
    C0403     R2413     1
    C0403     R2499     1
    C0403     R2500     1
    C0403     R2501     1
    C0403     R2541     -2
    C0403     R2542     -2
    C0403     R2543     -2
    C0403     R2625     -2
    C0403     R2626     -2
    C0403     R2627     -2
    C0403     R2667     1
    C0403     R2668     1
    C0403     R2669     1
    C0405     R0907     1
    C0405     R0961     1
    C0405     R1045     1
    C0405     R1137     1
    C0405     R1329     1
    C0405     R1423     1
    C0405     R1468     -1
    C0405     R1691     1
    C0405     R1733     -2
    C0405     R1817     -2
    C0405     R1859     1
    C0405     R1947     1
    C0405     R2139     1
    C0405     R2233     1
    C0405     R2278     -1
    C0405     R2368     -1
    C0405     R2413     1
    C0405     R2501     1
    C0405     R2543     -2
    C0405     R2627     -2
    C0405     R2669     1
    C0411     R0804     1
    C0411     R0895     1
    C0411     R0967     1
    C0411     R1046     1
    C0411     R1126     1
    C0411     R1127     1
    C0411     R1335     1
    C0411     R1413     1
    C0411     R1473     -1
    C0411     R1547     1
    C0411     R1549     1
    C0411     R1607     -1
    C0411     R1681     1
    C0411     R1737     -2
    C0411     R1738     -1
    C0411     R1739     -2
    C0411     R1809     -3
    C0411     R1936     1
    C0411     R2222     1
    C0411     R2223     1
    C0411     R2224     1
    C0411     R2283     -1
    C0411     R2359     -1
    C0411     R2419     1
    C0411     R2491     1
    C0411     R2548     -1
    C0411     R2549     -2
    C0411     R2619     -3
    C0411     R2727     1
    C0411     R2740     1
    C0411     R2745     1
    C0411     R2758     1
    C0411     R2773     1
    C0412     OBJ       129
    C0412     R0804     1
    C0412     R0896     1
    C0412     R0968     1
    C0412     R1046     1
    C0412     R1126     1
    C0412     R1127     1
    C0412     R1128     1
    C0412     R1335     1
    C0412     R1336     1
    C0412     R1413     1
    C0412     R1415     1
    C0412     R1473     -1
    C0412     R1547     1
    C0412     R1549     1
    C0412     R1607     -1
    C0412     R1610     -1
    C0412     R1737     -2
    C0412     R1738     -1
    C0412     R1739     -2
    C0412     R1740     -2
    C0412     R1809     -3
    C0412     R1810     -3
    C0412     R1866     1
    C0412     R2000     1
    C0412     R2081     1
    C0412     R2082     1
    C0412     R2223     -1
    C0412     R2224     -1
    C0412     R2225     -1
    C0412     R2283     1
    C0412     R2285     1
    C0412     R2359     1
    C0412     R2360     1
    C0412     R2420     -1
    C0412     R2491     -2
    C0412     R2492     -1
    C0412     R2493     -3
    C0412     R2494     -3
    C0412     R2550     1
    C0412     R2675     -2
    C0412     R2676     -2
    C0412     R2727     1
    C0412     R2740     1
    C0412     R2749     1
    C0412     R2754     1
    C0412     R2831     1
    C0413     R0804     1
    C0413     R0897     1
    C0413     R0969     1
    C0413     R1046     1
    C0413     R1127     1
    C0413     R1128     1
    C0413     R1129     1
    C0413     R1335     1
    C0413     R1336     1
    C0413     R1337     1
    C0413     R1413     1
    C0413     R1415     1
    C0413     R1416     1
    C0413     R1473     -1
    C0413     R1476     -1
    C0413     R1549     1
    C0413     R1610     -1
    C0413     R1681     1
    C0413     R1737     -2
    C0413     R1738     -1
    C0413     R1739     -2
    C0413     R1740     -2
    C0413     R1741     -2
    C0413     R1809     -3
    C0413     R1810     -3
    C0413     R1811     -3
    C0413     R1866     1
    C0413     R1867     1
    C0413     R1939     1
    C0413     R2146     1
    C0413     R2147     1
    C0413     R2223     1
    C0413     R2224     1
    C0413     R2225     1
    C0413     R2226     1
    C0413     R2283     -1
    C0413     R2285     -1
    C0413     R2286     -1
    C0413     R2359     -1
    C0413     R2360     -1
    C0413     R2361     -1
    C0413     R2419     1
    C0413     R2420     1
    C0413     R2421     1
    C0413     R2491     1
    C0413     R2548     -1
    C0413     R2549     -2
    C0413     R2550     -2
    C0413     R2551     -2
    C0413     R2619     -3
    C0413     R2620     -3
    C0413     R2621     -3
    C0413     R2676     1
    C0413     R2677     1
    C0413     R2727     1
    C0413     R2740     1
    C0413     R2745     1
    C0413     R2758     1
    C0413     R2773     1
    C0413     R2831     1
    C0413     R2832     1
    C0414     OBJ       129
    C0414     R0804     1
    C0414     R0898     1
    C0414     R0970     1
    C0414     R1046     1
    C0414     R1128     1
    C0414     R1129     1
    C0414     R1130     1
    C0414     R1336     1
    C0414     R1337     1
    C0414     R1338     1
    C0414     R1415     1
    C0414     R1416     1
    C0414     R1476     -1
    C0414     R1477     -1
    C0414     R1549     1
    C0414     R1552     1
    C0414     R1610     -1
    C0414     R1738     -1
    C0414     R1739     -2
    C0414     R1740     -2
    C0414     R1741     -2
    C0414     R1742     -2
    C0414     R1809     -3
    C0414     R1810     -3
    C0414     R1811     -3
    C0414     R1812     -3
    C0414     R1866     1
    C0414     R1867     1
    C0414     R1868     1
    C0414     R2003     1
    C0414     R2004     1
    C0414     R2082     1
    C0414     R2083     1
    C0414     R2084     1
    C0414     R2224     -1
    C0414     R2225     -1
    C0414     R2226     -1
    C0414     R2227     -1
    C0414     R2285     1
    C0414     R2286     1
    C0414     R2287     1
    C0414     R2359     1
    C0414     R2360     1
    C0414     R2361     1
    C0414     R2362     1
    C0414     R2420     -1
    C0414     R2421     -1
    C0414     R2422     -1
    C0414     R2492     -1
    C0414     R2493     -3
    C0414     R2494     -3
    C0414     R2495     -3
    C0414     R2496     -2
    C0414     R2550     1
    C0414     R2551     1
    C0414     R2552     1
    C0414     R2675     -2
    C0414     R2676     -2
    C0414     R2677     -2
    C0414     R2678     -2
    C0414     R2727     1
    C0414     R2740     1
    C0414     R2749     1
    C0414     R2754     1
    C0414     R2831     1
    C0414     R2832     1
    C0414     R2833     1
    C0415     R0805     1
    C0415     R0899     1
    C0415     R0971     1
    C0415     R1046     1
    C0415     R1129     1
    C0415     R1130     1
    C0415     R1131     1
    C0415     R1337     1
    C0415     R1338     1
    C0415     R1339     1
    C0415     R1415     1
    C0415     R1416     1
    C0415     R1418     1
    C0415     R1476     -1
    C0415     R1477     -1
    C0415     R1478     -1
    C0415     R1552     1
    C0415     R1610     -1
    C0415     R1683     1
    C0415     R1684     1
    C0415     R1685     1
    C0415     R1686     1
    C0415     R1687     1
    C0415     R1739     -1
    C0415     R1740     -2
    C0415     R1741     -2
    C0415     R1742     -2
    C0415     R1743     -2
    C0415     R1809     -2
    C0415     R1810     -2
    C0415     R1811     -2
    C0415     R1812     -2
    C0415     R1813     -2
    C0415     R1865     1
    C0415     R1866     1
    C0415     R1867     1
    C0415     R1868     1
    C0415     R1869     1
    C0415     R1939     1
    C0415     R1940     1
    C0415     R1941     1
    C0415     R2147     1
    C0415     R2148     1
    C0415     R2149     1
    C0415     R2225     1
    C0415     R2226     1
    C0415     R2227     1
    C0415     R2228     1
    C0415     R2285     -1
    C0415     R2286     -1
    C0415     R2287     -1
    C0415     R2288     -1
    C0415     R2360     -1
    C0415     R2361     -1
    C0415     R2362     -1
    C0415     R2363     -1
    C0415     R2420     1
    C0415     R2421     1
    C0415     R2422     1
    C0415     R2423     1
    C0415     R2493     1
    C0415     R2494     1
    C0415     R2495     1
    C0415     R2496     1
    C0415     R2497     1
    C0415     R2549     -1
    C0415     R2550     -2
    C0415     R2551     -2
    C0415     R2552     -2
    C0415     R2553     -2
    C0415     R2619     -2
    C0415     R2620     -2
    C0415     R2621     -2
    C0415     R2622     -2
    C0415     R2623     -2
    C0415     R2675     1
    C0415     R2676     1
    C0415     R2677     1
    C0415     R2678     1
    C0415     R2679     1
    C0415     R2773     -1
    C0415     R2831     1
    C0415     R2832     1
    C0415     R2833     1
    C0416     OBJ       129
    C0416     R0805     1
    C0416     R0900     1
    C0416     R0972     1
    C0416     R1046     1
    C0416     R1130     1
    C0416     R1131     1
    C0416     R1132     1
    C0416     R1338     1
    C0416     R1339     1
    C0416     R1340     1
    C0416     R1416     1
    C0416     R1418     1
    C0416     R1419     1
    C0416     R1476     -1
    C0416     R1477     -1
    C0416     R1478     -1
    C0416     R1479     -1
    C0416     R1552     1
    C0416     R1684     1
    C0416     R1685     1
    C0416     R1686     1
    C0416     R1687     1
    C0416     R1688     1
    C0416     R1740     -2
    C0416     R1741     -2
    C0416     R1742     -2
    C0416     R1743     -2
    C0416     R1744     -2
    C0416     R1810     -2
    C0416     R1811     -2
    C0416     R1812     -2
    C0416     R1813     -2
    C0416     R1814     -2
    C0416     R1866     1
    C0416     R1867     1
    C0416     R1868     1
    C0416     R1869     1
    C0416     R1870     1
    C0416     R2004     1
    C0416     R2005     1
    C0416     R2006     1
    C0416     R2084     1
    C0416     R2085     1
    C0416     R2086     1
    C0416     R2226     -1
    C0416     R2227     -1
    C0416     R2228     -1
    C0416     R2229     -1
    C0416     R2286     1
    C0416     R2287     1
    C0416     R2288     1
    C0416     R2289     1
    C0416     R2361     1
    C0416     R2362     1
    C0416     R2363     1
    C0416     R2364     1
    C0416     R2421     -1
    C0416     R2422     -1
    C0416     R2423     -1
    C0416     R2424     -1
    C0416     R2494     -2
    C0416     R2495     -2
    C0416     R2496     -2
    C0416     R2497     -2
    C0416     R2498     -2
    C0416     R2550     1
    C0416     R2551     1
    C0416     R2552     1
    C0416     R2553     1
    C0416     R2554     1
    C0416     R2620     1
    C0416     R2621     1
    C0416     R2622     1
    C0416     R2623     1
    C0416     R2624     1
    C0416     R2676     -2
    C0416     R2677     -2
    C0416     R2678     -2
    C0416     R2679     -2
    C0416     R2680     -2
    C0416     R2832     1
    C0416     R2833     1
    C0417     R0805     1
    C0417     R0901     1
    C0417     R0973     1
    C0417     R1046     1
    C0417     R1131     1
    C0417     R1132     1
    C0417     R1133     1
    C0417     R1339     1
    C0417     R1340     1
    C0417     R1341     1
    C0417     R1418     1
    C0417     R1419     1
    C0417     R1420     1
    C0417     R1477     -1
    C0417     R1478     -1
    C0417     R1479     -1
    C0417     R1480     -1
    C0417     R1552     1
    C0417     R1685     1
    C0417     R1686     1
    C0417     R1687     1
    C0417     R1688     1
    C0417     R1689     1
    C0417     R1741     -2
    C0417     R1742     -2
    C0417     R1743     -2
    C0417     R1744     -2
    C0417     R1745     -2
    C0417     R1811     -2
    C0417     R1812     -2
    C0417     R1813     -2
    C0417     R1814     -2
    C0417     R1815     -2
    C0417     R1867     1
    C0417     R1868     1
    C0417     R1869     1
    C0417     R1870     1
    C0417     R1871     1
    C0417     R1941     1
    C0417     R1942     1
    C0417     R1943     1
    C0417     R2149     1
    C0417     R2150     1
    C0417     R2151     1
    C0417     R2227     1
    C0417     R2228     1
    C0417     R2229     1
    C0417     R2230     1
    C0417     R2287     -1
    C0417     R2288     -1
    C0417     R2289     -1
    C0417     R2290     -1
    C0417     R2362     -1
    C0417     R2363     -1
    C0417     R2364     -1
    C0417     R2365     -1
    C0417     R2422     1
    C0417     R2423     1
    C0417     R2424     1
    C0417     R2425     1
    C0417     R2495     1
    C0417     R2496     1
    C0417     R2497     1
    C0417     R2498     1
    C0417     R2499     1
    C0417     R2551     -2
    C0417     R2552     -2
    C0417     R2553     -2
    C0417     R2554     -2
    C0417     R2555     -2
    C0417     R2621     -2
    C0417     R2622     -2
    C0417     R2623     -2
    C0417     R2624     -2
    C0417     R2625     -2
    C0417     R2677     1
    C0417     R2678     1
    C0417     R2679     1
    C0417     R2680     1
    C0417     R2681     1
    C0417     R2773     -1
    C0417     R2833     1
    C0418     OBJ       129
    C0418     R0805     1
    C0418     R0902     1
    C0418     R0974     1
    C0418     R1046     1
    C0418     R1132     1
    C0418     R1133     1
    C0418     R1134     1
    C0418     R1340     1
    C0418     R1341     1
    C0418     R1342     1
    C0418     R1418     1
    C0418     R1419     1
    C0418     R1420     1
    C0418     R1421     1
    C0418     R1478     -1
    C0418     R1479     -1
    C0418     R1480     -1
    C0418     R1616     -1
    C0418     R1686     1
    C0418     R1687     1
    C0418     R1688     1
    C0418     R1689     1
    C0418     R1690     1
    C0418     R1742     -2
    C0418     R1743     -2
    C0418     R1744     -2
    C0418     R1745     -2
    C0418     R1746     -2
    C0418     R1812     -2
    C0418     R1813     -2
    C0418     R1814     -2
    C0418     R1815     -2
    C0418     R1816     -2
    C0418     R1868     1
    C0418     R1869     1
    C0418     R1870     1
    C0418     R1871     1
    C0418     R1872     1
    C0418     R2006     1
    C0418     R2007     1
    C0418     R2008     1
    C0418     R2086     1
    C0418     R2087     1
    C0418     R2088     1
    C0418     R2228     -1
    C0418     R2229     -1
    C0418     R2230     -1
    C0418     R2231     -1
    C0418     R2288     1
    C0418     R2289     1
    C0418     R2290     1
    C0418     R2291     1
    C0418     R2363     1
    C0418     R2364     1
    C0418     R2365     1
    C0418     R2366     1
    C0418     R2423     -1
    C0418     R2424     -1
    C0418     R2425     -1
    C0418     R2426     -1
    C0418     R2496     -2
    C0418     R2497     -2
    C0418     R2498     -2
    C0418     R2499     -2
    C0418     R2500     -2
    C0418     R2552     1
    C0418     R2553     1
    C0418     R2554     1
    C0418     R2555     1
    C0418     R2556     1
    C0418     R2622     1
    C0418     R2623     1
    C0418     R2624     1
    C0418     R2625     1
    C0418     R2626     1
    C0418     R2678     -2
    C0418     R2679     -2
    C0418     R2680     -2
    C0418     R2681     -2
    C0418     R2682     -2
    C0419     R2833     1
    C0419     R0805     1
    C0419     R0903     1
    C0419     R0975     1
    C0419     R1046     1
    C0419     R1133     1
    C0419     R1134     1
    C0419     R1135     1
    C0419     R1341     1
    C0419     R1342     1
    C0419     R1343     1
    C0419     R1419     1
    C0419     R1420     1
    C0419     R1421     1
    C0419     R1422     1
    C0419     R1479     -1
    C0419     R1480     -1
    C0419     R1616     -1
    C0419     R1617     -1
    C0419     R1687     1
    C0419     R1688     1
    C0419     R1689     1
    C0419     R1690     1
    C0419     R1691     1
    C0419     R1743     -2
    C0419     R1744     -2
    C0419     R1745     -2
    C0419     R1746     -2
    C0419     R1747     -2
    C0419     R1813     -2
    C0419     R1814     -2
    C0419     R1815     -2
    C0419     R1816     -2
    C0419     R1817     -2
    C0419     R1869     1
    C0419     R1870     1
    C0419     R1871     1
    C0419     R1872     1
    C0419     R1873     1
    C0419     R1943     1
    C0419     R1944     1
    C0419     R1945     1
    C0419     R2151     1
    C0419     R2152     1
    C0419     R2153     1
    C0419     R2229     1
    C0419     R2230     1
    C0419     R2231     1
    C0419     R2232     1
    C0419     R2289     -1
    C0419     R2290     -1
    C0419     R2291     -1
    C0419     R2292     -1
    C0419     R2364     -1
    C0419     R2365     -1
    C0419     R2366     -1
    C0419     R2367     -1
    C0419     R2424     1
    C0419     R2425     1
    C0419     R2426     1
    C0419     R2427     1
    C0419     R2497     1
    C0419     R2498     1
    C0419     R2499     1
    C0419     R2500     1
    C0419     R2501     1
    C0419     R2553     -2
    C0419     R2554     -2
    C0419     R2555     -2
    C0419     R2556     -2
    C0419     R2557     -2
    C0419     R2623     -2
    C0419     R2624     -2
    C0419     R2625     -2
    C0419     R2626     -2
    C0419     R2627     -2
    C0419     R2679     1
    C0419     R2680     1
    C0419     R2681     1
    C0419     R2682     1
    C0419     R2683     1
    C0419     R2773     -1
    C0420     OBJ       129
    C0420     R0805     1
    C0420     R0904     1
    C0420     R0976     1
    C0420     R1046     1
    C0420     R1134     1
    C0420     R1135     1
    C0420     R1136     1
    C0420     R1342     1
    C0420     R1343     1
    C0420     R1344     1
    C0420     R1420     1
    C0420     R1421     1
    C0420     R1422     1
    C0420     R1423     1
    C0420     R1480     -1
    C0420     R1483     -1
    C0420     R1616     -1
    C0420     R1617     -1
    C0420     R1688     1
    C0420     R1689     1
    C0420     R1690     1
    C0420     R1691     1
    C0420     R1744     -2
    C0420     R1745     -2
    C0420     R1746     -2
    C0420     R1747     -2
    C0420     R1814     -2
    C0420     R1815     -2
    C0420     R1816     -2
    C0420     R1817     -2
    C0420     R1870     1
    C0420     R1871     1
    C0420     R1872     1
    C0420     R1873     1
    C0420     R2008     1
    C0420     R2009     1
    C0420     R2010     1
    C0420     R2088     1
    C0420     R2089     1
    C0420     R2090     1
    C0420     R2230     -1
    C0420     R2231     -1
    C0420     R2232     -1
    C0420     R2233     -1
    C0420     R2290     1
    C0420     R2291     1
    C0420     R2292     1
    C0420     R2293     1
    C0420     R2365     1
    C0420     R2366     1
    C0420     R2367     1
    C0420     R2368     1
    C0420     R2425     -1
    C0420     R2426     -1
    C0420     R2427     -1
    C0420     R2428     -1
    C0420     R2498     -2
    C0420     R2499     -2
    C0420     R2500     -2
    C0420     R2501     -2
    C0420     R2554     1
    C0420     R2555     1
    C0420     R2556     1
    C0420     R2557     1
    C0420     R2624     1
    C0420     R2625     1
    C0420     R2626     1
    C0420     R2627     1
    C0420     R2680     -2
    C0420     R2681     -2
    C0420     R2682     -2
    C0420     R2683     -2
    C0421     R2833     1
    C0421     R0805     1
    C0421     R0905     1
    C0421     R0977     1
    C0421     R1046     1
    C0421     R1135     1
    C0421     R1136     1
    C0421     R1137     1
    C0421     R1343     1
    C0421     R1344     1
    C0421     R1345     1
    C0421     R1421     1
    C0421     R1422     1
    C0421     R1423     1
    C0421     R1483     -1
    C0421     R1616     -1
    C0421     R1617     -1
    C0421     R1689     1
    C0421     R1690     1
    C0421     R1691     1
    C0421     R1745     -2
    C0421     R1746     -2
    C0421     R1747     -2
    C0421     R1815     -2
    C0421     R1816     -2
    C0421     R1817     -2
    C0421     R1871     1
    C0421     R1872     1
    C0421     R1873     1
    C0421     R1945     1
    C0421     R1946     1
    C0421     R1947     1
    C0421     R2153     1
    C0421     R2154     1
    C0421     R2155     1
    C0421     R2231     1
    C0421     R2232     1
    C0421     R2233     1
    C0421     R2291     -1
    C0421     R2292     -1
    C0421     R2293     -1
    C0421     R2366     -1
    C0421     R2367     -1
    C0421     R2368     -1
    C0421     R2426     1
    C0421     R2427     1
    C0421     R2428     1
    C0421     R2499     1
    C0421     R2500     1
    C0421     R2501     1
    C0421     R2555     -2
    C0421     R2556     -2
    C0421     R2557     -2
    C0421     R2625     -2
    C0421     R2626     -2
    C0421     R2627     -2
    C0421     R2681     1
    C0421     R2682     1
    C0421     R2683     1
    C0421     R2773     -1
    C0422     OBJ       129
    C0422     R0805     1
    C0422     R0906     1
    C0422     R0978     1
    C0422     R1046     1
    C0422     R1136     1
    C0422     R1137     1
    C0422     R1344     1
    C0422     R1345     1
    C0422     R1422     1
    C0422     R1423     1
    C0422     R1483     -1
    C0422     R1617     -1
    C0422     R1690     1
    C0422     R1691     1
    C0422     R1746     -2
    C0422     R1747     -2
    C0422     R1816     -2
    C0422     R1817     -2
    C0422     R1872     1
    C0422     R1873     1
    C0422     R2010     1
    C0422     R2011     1
    C0422     R2090     1
    C0422     R2091     1
    C0422     R2232     -1
    C0422     R2233     -1
    C0422     R2292     1
    C0422     R2293     1
    C0422     R2367     1
    C0422     R2368     1
    C0422     R2427     -1
    C0422     R2428     -1
    C0422     R2500     -2
    C0422     R2501     -2
    C0422     R2556     1
    C0422     R2557     1
    C0422     R2626     1
    C0422     R2627     1
    C0422     R2682     -2
    C0422     R2683     -2
    C0423     R2833     1
    C0423     R0805     1
    C0423     R0907     1
    C0423     R0979     1
    C0423     R1046     1
    C0423     R1137     1
    C0423     R1345     1
    C0423     R1423     1
    C0423     R1483     -1
    C0423     R1691     1
    C0423     R1747     -2
    C0423     R1817     -2
    C0423     R1873     1
    C0423     R1947     1
    C0423     R2155     1
    C0423     R2233     1
    C0423     R2293     -1
    C0423     R2368     -1
    C0423     R2428     1
    C0423     R2501     1
    C0423     R2557     -2
    C0423     R2627     -2
    C0423     R2683     1
    C0423     R2773     -1
    C0429     R0806     1
    C0429     R0895     1
    C0429     R0985     1
    C0429     R1047     1
    C0429     R1126     1
    C0429     R1127     1
    C0429     R1351     1
    C0429     R1413     1
    C0429     R1489     -1
    C0429     R1547     1
    C0429     R1549     1
    C0429     R1681     1
    C0429     R1752     -1
    C0429     R1753     -3
    C0429     R1809     -3
    C0429     R1877     1
    C0429     R1936     1
    C0429     R2161     1
    C0429     R2222     1
    C0429     R2223     1
    C0429     R2224     1
    C0429     R2299     -1
    C0429     R2359     -1
    C0429     R2433     1
    C0429     R2434     1
    C0429     R2491     1
    C0429     R2560     -1
    C0429     R2561     -2
    C0429     R2563     -3
    C0429     R2619     -3
    C0429     R2727     1
    C0429     R2741     1
    C0429     R2745     1
    C0429     R2759     1
    C0429     R2774     1
    C0430     OBJ       148
    C0430     R0806     1
    C0430     R0896     1
    C0430     R0986     1
    C0430     R1047     1
    C0430     R1126     1
    C0430     R1127     1
    C0430     R1128     1
    C0430     R1351     1
    C0430     R1352     1
    C0430     R1413     1
    C0430     R1415     1
    C0430     R1489     -1
    C0430     R1490     -1
    C0430     R1547     1
    C0430     R1549     1
    C0430     R1752     -1
    C0430     R1753     -3
    C0430     R1754     -3
    C0430     R1809     -3
    C0430     R1810     -3
    C0430     R2017     1
    C0430     R2018     1
    C0430     R2081     1
    C0430     R2082     1
    C0430     R2223     -1
    C0430     R2224     -1
    C0430     R2225     -1
    C0430     R2297     1
    C0430     R2298     1
    C0430     R2299     1
    C0430     R2300     1
    C0430     R2359     1
    C0430     R2360     1
    C0430     R2434     -1
    C0430     R2435     -1
    C0430     R2491     -2
    C0430     R2492     -1
    C0430     R2493     -3
    C0430     R2494     -3
    C0430     R2688     -1
    C0430     R2689     -3
    C0430     R2690     -3
    C0430     R2727     1
    C0430     R2741     1
    C0430     R2750     1
    C0430     R2754     1
    C0430     R2834     1
    C0431     R0806     1
    C0431     R0897     1
    C0431     R0987     1
    C0431     R1047     1
    C0431     R1127     1
    C0431     R1128     1
    C0431     R1129     1
    C0431     R1351     1
    C0431     R1352     1
    C0431     R1353     1
    C0431     R1413     1
    C0431     R1415     1
    C0431     R1416     1
    C0431     R1489     -1
    C0431     R1490     -1
    C0431     R1491     -1
    C0431     R1549     1
    C0431     R1681     1
    C0431     R1752     -1
    C0431     R1753     -3
    C0431     R1754     -3
    C0431     R1755     -3
    C0431     R1809     -3
    C0431     R1810     -3
    C0431     R1811     -3
    C0431     R1877     1
    C0431     R1939     1
    C0431     R2161     1
    C0431     R2162     1
    C0431     R2163     1
    C0431     R2223     1
    C0431     R2224     1
    C0431     R2225     1
    C0431     R2226     1
    C0431     R2299     -1
    C0431     R2300     -1
    C0431     R2301     -1
    C0431     R2359     -1
    C0431     R2360     -1
    C0431     R2361     -1
    C0431     R2433     1
    C0431     R2434     1
    C0431     R2435     1
    C0431     R2436     1
    C0431     R2491     1
    C0431     R2561     -2
    C0431     R2563     -3
    C0431     R2564     -3
    C0431     R2565     -3
    C0431     R2619     -3
    C0431     R2620     -3
    C0431     R2621     -3
    C0431     R2727     1
    C0431     R2741     1
    C0431     R2745     1
    C0431     R2759     1
    C0431     R2774     1
    C0431     R2834     1
    C0431     R2835     1
    C0432     OBJ       148
    C0432     R0806     1
    C0432     R0898     1
    C0432     R0988     1
    C0432     R1047     1
    C0432     R1128     1
    C0432     R1129     1
    C0432     R1130     1
    C0432     R1352     1
    C0432     R1353     1
    C0432     R1354     1
    C0432     R1415     1
    C0432     R1416     1
    C0432     R1489     -1
    C0432     R1490     -1
    C0432     R1491     -1
    C0432     R1492     -1
    C0432     R1549     1
    C0432     R1552     1
    C0432     R1752     -1
    C0432     R1753     -3
    C0432     R1754     -3
    C0432     R1755     -3
    C0432     R1756     -2
    C0432     R1809     -3
    C0432     R1810     -3
    C0432     R1811     -3
    C0432     R1812     -3
    C0432     R2018     1
    C0432     R2019     1
    C0432     R2020     1
    C0432     R2082     1
    C0432     R2083     1
    C0432     R2084     1
    C0432     R2224     -1
    C0432     R2225     -1
    C0432     R2226     -1
    C0432     R2227     -1
    C0432     R2299     1
    C0432     R2300     1
    C0432     R2301     1
    C0432     R2302     1
    C0432     R2359     1
    C0432     R2360     1
    C0432     R2361     1
    C0432     R2362     1
    C0432     R2434     -1
    C0432     R2435     -1
    C0432     R2436     -1
    C0432     R2437     -1
    C0432     R2492     -1
    C0432     R2493     -3
    C0432     R2494     -3
    C0432     R2495     -3
    C0432     R2496     -2
    C0432     R2688     -1
    C0432     R2689     -3
    C0432     R2690     -3
    C0432     R2691     -3
    C0432     R2692     -2
    C0432     R2727     1
    C0432     R2741     1
    C0432     R2750     1
    C0432     R2754     1
    C0432     R2834     1
    C0432     R2835     1
    C0432     R2836     1
    C0433     R0807     1
    C0433     R0899     1
    C0433     R0989     1
    C0433     R1047     1
    C0433     R1129     1
    C0433     R1130     1
    C0433     R1131     1
    C0433     R1353     1
    C0433     R1354     1
    C0433     R1355     1
    C0433     R1415     1
    C0433     R1416     1
    C0433     R1418     1
    C0433     R1490     -1
    C0433     R1491     -1
    C0433     R1492     -1
    C0433     R1493     -1
    C0433     R1552     1
    C0433     R1683     1
    C0433     R1684     1
    C0433     R1685     1
    C0433     R1686     1
    C0433     R1687     1
    C0433     R1753     -2
    C0433     R1754     -2
    C0433     R1755     -2
    C0433     R1756     -2
    C0433     R1757     -2
    C0433     R1809     -2
    C0433     R1810     -2
    C0433     R1811     -2
    C0433     R1812     -2
    C0433     R1813     -2
    C0433     R1879     1
    C0433     R1880     1
    C0433     R1881     1
    C0433     R1882     1
    C0433     R1883     1
    C0433     R1939     1
    C0433     R1940     1
    C0433     R1941     1
    C0433     R2163     1
    C0433     R2164     1
    C0433     R2165     1
    C0433     R2225     1
    C0433     R2226     1
    C0433     R2227     1
    C0433     R2228     1
    C0433     R2300     -1
    C0433     R2301     -1
    C0433     R2302     -1
    C0433     R2303     -1
    C0433     R2360     -1
    C0433     R2361     -1
    C0433     R2362     -1
    C0433     R2363     -1
    C0433     R2435     1
    C0433     R2436     1
    C0433     R2437     1
    C0433     R2438     1
    C0433     R2493     1
    C0433     R2494     1
    C0433     R2495     1
    C0433     R2496     1
    C0433     R2497     1
    C0433     R2563     -2
    C0433     R2564     -2
    C0433     R2565     -2
    C0433     R2566     -2
    C0433     R2567     -2
    C0433     R2619     -2
    C0433     R2620     -2
    C0433     R2621     -2
    C0433     R2622     -2
    C0433     R2623     -2
    C0433     R2689     1
    C0433     R2690     1
    C0433     R2691     1
    C0433     R2692     1
    C0433     R2693     1
    C0433     R2774     -1
    C0433     R2834     1
    C0433     R2835     1
    C0433     R2836     1
    C0434     OBJ       148
    C0434     R0807     1
    C0434     R0900     1
    C0434     R0990     1
    C0434     R1047     1
    C0434     R1130     1
    C0434     R1131     1
    C0434     R1132     1
    C0434     R1354     1
    C0434     R1355     1
    C0434     R1356     1
    C0434     R1416     1
    C0434     R1418     1
    C0434     R1419     1
    C0434     R1491     -1
    C0434     R1492     -1
    C0434     R1493     -1
    C0434     R1494     -1
    C0434     R1552     1
    C0434     R1684     1
    C0434     R1685     1
    C0434     R1686     1
    C0434     R1687     1
    C0434     R1688     1
    C0434     R1754     -2
    C0434     R1755     -2
    C0434     R1756     -2
    C0434     R1757     -2
    C0434     R1758     -2
    C0434     R1810     -2
    C0434     R1811     -2
    C0434     R1812     -2
    C0434     R1813     -2
    C0434     R1814     -2
    C0434     R1880     1
    C0434     R1881     1
    C0434     R1882     1
    C0434     R1883     1
    C0434     R1884     1
    C0434     R2020     1
    C0434     R2021     1
    C0434     R2022     1
    C0434     R2084     1
    C0434     R2085     1
    C0434     R2086     1
    C0434     R2226     -1
    C0434     R2227     -1
    C0434     R2228     -1
    C0434     R2229     -1
    C0434     R2301     1
    C0434     R2302     1
    C0434     R2303     1
    C0434     R2304     1
    C0434     R2361     1
    C0434     R2362     1
    C0434     R2363     1
    C0434     R2364     1
    C0434     R2436     -1
    C0434     R2437     -1
    C0434     R2438     -1
    C0434     R2439     -1
    C0434     R2494     -2
    C0434     R2495     -2
    C0434     R2496     -2
    C0434     R2497     -2
    C0434     R2498     -2
    C0434     R2564     1
    C0434     R2565     1
    C0434     R2566     1
    C0434     R2567     1
    C0434     R2568     1
    C0434     R2620     1
    C0434     R2621     1
    C0434     R2622     1
    C0434     R2623     1
    C0434     R2624     1
    C0434     R2690     -2
    C0434     R2691     -2
    C0434     R2692     -2
    C0434     R2693     -2
    C0434     R2694     -2
    C0434     R2835     1
    C0434     R2836     1
    C0435     R0807     1
    C0435     R0901     1
    C0435     R0991     1
    C0435     R1047     1
    C0435     R1131     1
    C0435     R1132     1
    C0435     R1133     1
    C0435     R1355     1
    C0435     R1356     1
    C0435     R1357     1
    C0435     R1418     1
    C0435     R1419     1
    C0435     R1420     1
    C0435     R1492     -1
    C0435     R1493     -1
    C0435     R1494     -1
    C0435     R1495     -1
    C0435     R1552     1
    C0435     R1685     1
    C0435     R1686     1
    C0435     R1687     1
    C0435     R1688     1
    C0435     R1689     1
    C0435     R1755     -2
    C0435     R1756     -2
    C0435     R1757     -2
    C0435     R1758     -2
    C0435     R1759     -2
    C0435     R1811     -2
    C0435     R1812     -2
    C0435     R1813     -2
    C0435     R1814     -2
    C0435     R1815     -2
    C0435     R1881     1
    C0435     R1882     1
    C0435     R1883     1
    C0435     R1884     1
    C0435     R1885     1
    C0435     R1941     1
    C0435     R1942     1
    C0435     R1943     1
    C0435     R2165     1
    C0435     R2166     1
    C0435     R2167     1
    C0435     R2227     1
    C0435     R2228     1
    C0435     R2229     1
    C0435     R2230     1
    C0435     R2302     -1
    C0435     R2303     -1
    C0435     R2304     -1
    C0435     R2305     -1
    C0435     R2362     -1
    C0435     R2363     -1
    C0435     R2364     -1
    C0435     R2365     -1
    C0435     R2437     1
    C0435     R2438     1
    C0435     R2439     1
    C0435     R2440     1
    C0435     R2495     1
    C0435     R2496     1
    C0435     R2497     1
    C0435     R2498     1
    C0435     R2499     1
    C0435     R2565     -2
    C0435     R2566     -2
    C0435     R2567     -2
    C0435     R2568     -2
    C0435     R2569     -2
    C0435     R2621     -2
    C0435     R2622     -2
    C0435     R2623     -2
    C0435     R2624     -2
    C0435     R2625     -2
    C0435     R2691     1
    C0435     R2692     1
    C0435     R2693     1
    C0435     R2694     1
    C0435     R2695     1
    C0435     R2774     -1
    C0435     R2836     1
    C0436     OBJ       148
    C0436     R0807     1
    C0436     R0902     1
    C0436     R0992     1
    C0436     R1047     1
    C0436     R1132     1
    C0436     R1133     1
    C0436     R1134     1
    C0436     R1356     1
    C0436     R1357     1
    C0436     R1358     1
    C0436     R1418     1
    C0436     R1419     1
    C0436     R1420     1
    C0436     R1421     1
    C0436     R1493     -1
    C0436     R1494     -1
    C0436     R1495     -1
    C0436     R1496     -1
    C0436     R1686     1
    C0436     R1687     1
    C0436     R1688     1
    C0436     R1689     1
    C0436     R1690     1
    C0436     R1756     -2
    C0436     R1757     -2
    C0436     R1758     -2
    C0436     R1759     -2
    C0436     R1760     -2
    C0436     R1812     -2
    C0436     R1813     -2
    C0436     R1814     -2
    C0436     R1815     -2
    C0436     R1816     -2
    C0436     R1882     1
    C0436     R1883     1
    C0436     R1884     1
    C0436     R1885     1
    C0436     R1886     1
    C0436     R2022     1
    C0436     R2023     1
    C0436     R2024     1
    C0436     R2086     1
    C0436     R2087     1
    C0436     R2088     1
    C0436     R2228     -1
    C0436     R2229     -1
    C0436     R2230     -1
    C0436     R2231     -1
    C0436     R2303     1
    C0436     R2304     1
    C0436     R2305     1
    C0436     R2306     1
    C0436     R2363     1
    C0436     R2364     1
    C0436     R2365     1
    C0436     R2366     1
    C0436     R2438     -1
    C0436     R2439     -1
    C0436     R2440     -1
    C0436     R2441     -1
    C0436     R2496     -2
    C0436     R2497     -2
    C0436     R2498     -2
    C0436     R2499     -2
    C0436     R2500     -2
    C0436     R2566     1
    C0436     R2567     1
    C0436     R2568     1
    C0436     R2569     1
    C0436     R2570     1
    C0436     R2622     1
    C0436     R2623     1
    C0436     R2624     1
    C0436     R2625     1
    C0436     R2626     1
    C0436     R2692     -2
    C0436     R2693     -2
    C0436     R2694     -2
    C0436     R2695     -2
    C0436     R2696     -2
    C0437     R2836     1
    C0437     R0807     1
    C0437     R0903     1
    C0437     R0993     1
    C0437     R1047     1
    C0437     R1133     1
    C0437     R1134     1
    C0437     R1135     1
    C0437     R1357     1
    C0437     R1358     1
    C0437     R1359     1
    C0437     R1419     1
    C0437     R1420     1
    C0437     R1421     1
    C0437     R1422     1
    C0437     R1494     -1
    C0437     R1495     -1
    C0437     R1496     -1
    C0437     R1497     -1
    C0437     R1687     1
    C0437     R1688     1
    C0437     R1689     1
    C0437     R1690     1
    C0437     R1691     1
    C0437     R1757     -2
    C0437     R1758     -2
    C0437     R1759     -2
    C0437     R1760     -2
    C0437     R1761     -2
    C0437     R1813     -2
    C0437     R1814     -2
    C0437     R1815     -2
    C0437     R1816     -2
    C0437     R1817     -2
    C0437     R1883     1
    C0437     R1884     1
    C0437     R1885     1
    C0437     R1886     1
    C0437     R1887     1
    C0437     R1943     1
    C0437     R1944     1
    C0437     R1945     1
    C0437     R2167     1
    C0437     R2168     1
    C0437     R2169     1
    C0437     R2229     1
    C0437     R2230     1
    C0437     R2231     1
    C0437     R2232     1
    C0437     R2304     -1
    C0437     R2305     -1
    C0437     R2306     -1
    C0437     R2307     -1
    C0437     R2364     -1
    C0437     R2365     -1
    C0437     R2366     -1
    C0437     R2367     -1
    C0437     R2439     1
    C0437     R2440     1
    C0437     R2441     1
    C0437     R2442     1
    C0437     R2497     1
    C0437     R2498     1
    C0437     R2499     1
    C0437     R2500     1
    C0437     R2501     1
    C0437     R2567     -2
    C0437     R2568     -2
    C0437     R2569     -2
    C0437     R2570     -2
    C0437     R2571     -2
    C0437     R2623     -2
    C0437     R2624     -2
    C0437     R2625     -2
    C0437     R2626     -2
    C0437     R2627     -2
    C0437     R2693     1
    C0437     R2694     1
    C0437     R2695     1
    C0437     R2696     1
    C0437     R2697     1
    C0437     R2774     -1
    C0438     OBJ       148
    C0438     R0807     1
    C0438     R0904     1
    C0438     R0994     1
    C0438     R1047     1
    C0438     R1134     1
    C0438     R1135     1
    C0438     R1136     1
    C0438     R1358     1
    C0438     R1359     1
    C0438     R1360     1
    C0438     R1420     1
    C0438     R1421     1
    C0438     R1422     1
    C0438     R1423     1
    C0438     R1495     -1
    C0438     R1496     -1
    C0438     R1497     -1
    C0438     R1498     -1
    C0438     R1688     1
    C0438     R1689     1
    C0438     R1690     1
    C0438     R1691     1
    C0438     R1758     -2
    C0438     R1759     -2
    C0438     R1760     -2
    C0438     R1761     -2
    C0438     R1814     -2
    C0438     R1815     -2
    C0438     R1816     -2
    C0438     R1817     -2
    C0438     R1884     1
    C0438     R1885     1
    C0438     R1886     1
    C0438     R1887     1
    C0438     R2024     1
    C0438     R2025     1
    C0438     R2026     1
    C0438     R2088     1
    C0438     R2089     1
    C0438     R2090     1
    C0438     R2230     -1
    C0438     R2231     -1
    C0438     R2232     -1
    C0438     R2233     -1
    C0438     R2305     1
    C0438     R2306     1
    C0438     R2307     1
    C0438     R2308     1
    C0438     R2365     1
    C0438     R2366     1
    C0438     R2367     1
    C0438     R2368     1
    C0438     R2440     -1
    C0438     R2441     -1
    C0438     R2442     -1
    C0438     R2443     -1
    C0438     R2498     -2
    C0438     R2499     -2
    C0438     R2500     -2
    C0438     R2501     -2
    C0438     R2568     1
    C0438     R2569     1
    C0438     R2570     1
    C0438     R2571     1
    C0438     R2624     1
    C0438     R2625     1
    C0438     R2626     1
    C0438     R2627     1
    C0438     R2694     -2
    C0438     R2695     -2
    C0438     R2696     -2
    C0438     R2697     -2
    C0439     R2836     1
    C0439     R0807     1
    C0439     R0905     1
    C0439     R0995     1
    C0439     R1047     1
    C0439     R1135     1
    C0439     R1136     1
    C0439     R1137     1
    C0439     R1359     1
    C0439     R1360     1
    C0439     R1361     1
    C0439     R1421     1
    C0439     R1422     1
    C0439     R1423     1
    C0439     R1496     -1
    C0439     R1497     -1
    C0439     R1498     -1
    C0439     R1689     1
    C0439     R1690     1
    C0439     R1691     1
    C0439     R1759     -2
    C0439     R1760     -2
    C0439     R1761     -2
    C0439     R1815     -2
    C0439     R1816     -2
    C0439     R1817     -2
    C0439     R1885     1
    C0439     R1886     1
    C0439     R1887     1
    C0439     R1945     1
    C0439     R1946     1
    C0439     R1947     1
    C0439     R2169     1
    C0439     R2170     1
    C0439     R2171     1
    C0439     R2231     1
    C0439     R2232     1
    C0439     R2233     1
    C0439     R2306     -1
    C0439     R2307     -1
    C0439     R2308     -1
    C0439     R2366     -1
    C0439     R2367     -1
    C0439     R2368     -1
    C0439     R2441     1
    C0439     R2442     1
    C0439     R2443     1
    C0439     R2499     1
    C0439     R2500     1
    C0439     R2501     1
    C0439     R2569     -2
    C0439     R2570     -2
    C0439     R2571     -2
    C0439     R2625     -2
    C0439     R2626     -2
    C0439     R2627     -2
    C0439     R2695     1
    C0439     R2696     1
    C0439     R2697     1
    C0439     R2774     -1
    C0440     OBJ       148
    C0440     R0807     1
    C0440     R0906     1
    C0440     R0996     1
    C0440     R1047     1
    C0440     R1136     1
    C0440     R1137     1
    C0440     R1360     1
    C0440     R1361     1
    C0440     R1422     1
    C0440     R1423     1
    C0440     R1497     -1
    C0440     R1498     -1
    C0440     R1690     1
    C0440     R1691     1
    C0440     R1760     -2
    C0440     R1761     -2
    C0440     R1816     -2
    C0440     R1817     -2
    C0440     R1886     1
    C0440     R1887     1
    C0440     R2026     1
    C0440     R2027     1
    C0440     R2090     1
    C0440     R2091     1
    C0440     R2232     -1
    C0440     R2233     -1
    C0440     R2307     1
    C0440     R2308     1
    C0440     R2367     1
    C0440     R2368     1
    C0440     R2442     -1
    C0440     R2443     -1
    C0440     R2500     -2
    C0440     R2501     -2
    C0440     R2570     1
    C0440     R2571     1
    C0440     R2626     1
    C0440     R2627     1
    C0440     R2696     -2
    C0440     R2697     -2
    C0441     R2836     1
    C0441     R0807     1
    C0441     R0907     1
    C0441     R0997     1
    C0441     R1047     1
    C0441     R1137     1
    C0441     R1361     1
    C0441     R1423     1
    C0441     R1498     -1
    C0441     R1691     1
    C0441     R1761     -2
    C0441     R1817     -2
    C0441     R1887     1
    C0441     R1947     1
    C0441     R2171     1
    C0441     R2233     1
    C0441     R2308     -1
    C0441     R2368     -1
    C0441     R2443     1
    C0441     R2501     1
    C0441     R2571     -2
    C0441     R2627     -2
    C0441     R2697     1
    C0441     R2774     -1
    C0465     R0810     1
    C0465     R0895     1
    C0465     R1021     1
    C0465     R1049     1
    C0465     R1126     1
    C0465     R1127     1
    C0465     R1382     3
    C0465     R1413     1
    C0465     R1547     1
    C0465     R1549     1
    C0465     R1781     -1
    C0465     R1809     -3
    C0465     R1936     1
    C0465     R2191     1
    C0465     R2192     3
    C0465     R2222     1
    C0465     R2223     1
    C0465     R2224     1
    C0465     R2359     -1
    C0465     R2462     1
    C0465     R2463     3
    C0465     R2591     -1
    C0465     R2619     -3
    C0465     R2727     1
    C0465     R2743     1
    C0465     R2745     1
    C0465     R2761     1
    C0467     R0810     1
    C0467     R0897     1
    C0467     R1023     1
    C0467     R1049     1
    C0467     R1127     1
    C0467     R1128     1
    C0467     R1129     1
    C0467     R1385     1
    C0467     R1413     1
    C0467     R1415     1
    C0467     R1416     1
    C0467     R1549     1
    C0467     R1656     -1
    C0467     R1781     -1
    C0467     R1782     -1
    C0467     R1783     -3
    C0467     R1809     -3
    C0467     R1810     -3
    C0467     R1811     -3
    C0467     R1908     1
    C0467     R1939     1
    C0467     R2195     1
    C0467     R2223     1
    C0467     R2224     1
    C0467     R2225     1
    C0467     R2226     1
    C0467     R2331     -1
    C0467     R2359     -1
    C0467     R2360     -1
    C0467     R2361     -1
    C0467     R2463     3
    C0467     R2465     1
    C0467     R2466     1
    C0467     R2591     -1
    C0467     R2592     -1
    C0467     R2593     -3
    C0467     R2619     -3
    C0467     R2620     -3
    C0467     R2621     -3
    C0467     R2718     1
    C0467     R2727     1
    C0467     R2743     1
    C0467     R2745     1
    C0467     R2761     1
    C0467     R2840     1
    C0469     R0811     1
    C0469     R0899     1
    C0469     R1025     1
    C0469     R1049     1
    C0469     R1129     1
    C0469     R1130     1
    C0469     R1131     1
    C0469     R1385     1
    C0469     R1386     1
    C0469     R1387     1
    C0469     R1415     1
    C0469     R1416     1
    C0469     R1418     1
    C0469     R1522     -1
    C0469     R1552     1
    C0469     R1656     -1
    C0469     R1658     -1
    C0469     R1683     1
    C0469     R1684     1
    C0469     R1685     1
    C0469     R1686     1
    C0469     R1687     1
    C0469     R1781     -1
    C0469     R1782     -1
    C0469     R1783     -3
    C0469     R1784     -3
    C0469     R1785     -2
    C0469     R1809     -2
    C0469     R1810     -2
    C0469     R1811     -2
    C0469     R1812     -2
    C0469     R1813     -2
    C0469     R1907     1
    C0469     R1908     1
    C0469     R1939     1
    C0469     R1940     1
    C0469     R1941     1
    C0469     R2195     1
    C0469     R2196     1
    C0469     R2197     1
    C0469     R2225     1
    C0469     R2226     1
    C0469     R2227     1
    C0469     R2228     1
    C0469     R2331     -1
    C0469     R2332     -1
    C0469     R2333     -1
    C0469     R2360     -1
    C0469     R2361     -1
    C0469     R2362     -1
    C0469     R2363     -1
    C0469     R2465     1
    C0469     R2466     1
    C0469     R2467     1
    C0469     R2468     1
    C0469     R2493     1
    C0469     R2494     1
    C0469     R2495     1
    C0469     R2496     1
    C0469     R2497     1
    C0469     R2591     -1
    C0469     R2592     -1
    C0469     R2593     -3
    C0469     R2594     -3
    C0469     R2595     -2
    C0469     R2619     -2
    C0469     R2620     -2
    C0469     R2621     -2
    C0469     R2622     -2
    C0469     R2623     -2
    C0469     R2717     1
    C0469     R2718     1
    C0469     R2840     1
    C0471     R0811     1
    C0471     R0901     1
    C0471     R1027     1
    C0471     R1049     1
    C0471     R1131     1
    C0471     R1132     1
    C0471     R1133     1
    C0471     R1387     1
    C0471     R1388     1
    C0471     R1389     1
    C0471     R1418     1
    C0471     R1419     1
    C0471     R1420     1
    C0471     R1522     -1
    C0471     R1552     1
    C0471     R1658     -1
    C0471     R1659     -1
    C0471     R1660     -1
    C0471     R1685     1
    C0471     R1686     1
    C0471     R1687     1
    C0471     R1688     1
    C0471     R1689     1
    C0471     R1783     -2
    C0471     R1784     -2
    C0471     R1785     -2
    C0471     R1786     -1
    C0471     R1787     -2
    C0471     R1811     -2
    C0471     R1812     -2
    C0471     R1813     -2
    C0471     R1814     -2
    C0471     R1815     -2
    C0471     R1909     1
    C0471     R1910     1
    C0471     R1911     1
    C0471     R1912     1
    C0471     R1913     1
    C0471     R1941     1
    C0471     R1942     1
    C0471     R1943     1
    C0471     R2197     1
    C0471     R2198     1
    C0471     R2199     1
    C0471     R2227     1
    C0471     R2228     1
    C0471     R2229     1
    C0471     R2230     1
    C0471     R2332     -1
    C0471     R2333     -1
    C0471     R2334     -1
    C0471     R2335     -1
    C0471     R2362     -1
    C0471     R2363     -1
    C0471     R2364     -1
    C0471     R2365     -1
    C0471     R2467     1
    C0471     R2468     1
    C0471     R2469     1
    C0471     R2470     1
    C0471     R2495     1
    C0471     R2496     1
    C0471     R2497     1
    C0471     R2498     1
    C0471     R2499     1
    C0471     R2593     -2
    C0471     R2594     -2
    C0471     R2595     -2
    C0471     R2596     -1
    C0471     R2597     -2
    C0471     R2621     -2
    C0471     R2622     -2
    C0471     R2623     -2
    C0471     R2624     -2
    C0471     R2625     -2
    C0471     R2719     1
    C0471     R2720     1
    C0471     R2721     1
    C0471     R2722     1
    C0471     R2723     1
    C0473     R0811     1
    C0473     R0903     1
    C0473     R1029     1
    C0473     R1049     1
    C0473     R1133     1
    C0473     R1134     1
    C0473     R1135     1
    C0473     R1389     1
    C0473     R1390     1
    C0473     R1391     1
    C0473     R1419     1
    C0473     R1420     1
    C0473     R1421     1
    C0473     R1422     1
    C0473     R1659     -1
    C0473     R1660     -1
    C0473     R1661     -1
    C0473     R1662     -1
    C0473     R1687     1
    C0473     R1688     1
    C0473     R1689     1
    C0473     R1690     1
    C0473     R1691     1
    C0473     R1785     -2
    C0473     R1786     -1
    C0473     R1787     -2
    C0473     R1788     -1
    C0473     R1789     -2
    C0473     R1813     -2
    C0473     R1814     -2
    C0473     R1815     -2
    C0473     R1816     -2
    C0473     R1817     -2
    C0473     R1911     1
    C0473     R1912     1
    C0473     R1913     1
    C0473     R1914     1
    C0473     R1915     1
    C0473     R1943     1
    C0473     R1944     1
    C0473     R1945     1
    C0473     R2199     1
    C0473     R2200     1
    C0473     R2201     1
    C0473     R2229     1
    C0473     R2230     1
    C0473     R2231     1
    C0473     R2232     1
    C0473     R2334     -1
    C0473     R2335     -1
    C0473     R2336     -1
    C0473     R2337     -1
    C0473     R2364     -1
    C0473     R2365     -1
    C0473     R2366     -1
    C0473     R2367     -1
    C0473     R2469     1
    C0473     R2470     1
    C0473     R2471     1
    C0473     R2472     1
    C0473     R2497     1
    C0473     R2498     1
    C0473     R2499     1
    C0473     R2500     1
    C0473     R2501     1
    C0473     R2595     -2
    C0473     R2596     -1
    C0473     R2597     -2
    C0473     R2598     -1
    C0473     R2599     -2
    C0473     R2623     -2
    C0473     R2624     -2
    C0473     R2625     -2
    C0473     R2626     -2
    C0473     R2627     -2
    C0473     R2721     1
    C0473     R2722     1
    C0473     R2723     1
    C0473     R2724     1
    C0473     R2725     1
    C0475     R0811     1
    C0475     R0905     1
    C0475     R1031     1
    C0475     R1049     1
    C0475     R1135     1
    C0475     R1136     1
    C0475     R1137     1
    C0475     R1391     1
    C0475     R1392     1
    C0475     R1393     1
    C0475     R1421     1
    C0475     R1422     1
    C0475     R1423     1
    C0475     R1528     -1
    C0475     R1661     -1
    C0475     R1662     -1
    C0475     R1689     1
    C0475     R1690     1
    C0475     R1691     1
    C0475     R1787     -2
    C0475     R1788     -1
    C0475     R1789     -2
    C0475     R1815     -2
    C0475     R1816     -2
    C0475     R1817     -2
    C0475     R1913     1
    C0475     R1914     1
    C0475     R1915     1
    C0475     R1945     1
    C0475     R1946     1
    C0475     R1947     1
    C0475     R2201     1
    C0475     R2202     1
    C0475     R2203     1
    C0475     R2231     1
    C0475     R2232     1
    C0475     R2233     1
    C0475     R2336     -1
    C0475     R2337     -1
    C0475     R2338     -1
    C0475     R2366     -1
    C0475     R2367     -1
    C0475     R2368     -1
    C0475     R2471     1
    C0475     R2472     1
    C0475     R2473     1
    C0475     R2499     1
    C0475     R2500     1
    C0475     R2501     1
    C0475     R2597     -2
    C0475     R2598     -1
    C0475     R2599     -2
    C0475     R2625     -2
    C0475     R2626     -2
    C0475     R2627     -2
    C0475     R2723     1
    C0475     R2724     1
    C0475     R2725     1
    C0477     R0811     1
    C0477     R0907     1
    C0477     R1033     1
    C0477     R1049     1
    C0477     R1137     1
    C0477     R1393     1
    C0477     R1423     1
    C0477     R1528     -1
    C0477     R1691     1
    C0477     R1789     -2
    C0477     R1817     -2
    C0477     R1915     1
    C0477     R1947     1
    C0477     R2203     1
    C0477     R2233     1
    C0477     R2338     -1
    C0477     R2368     -1
    C0477     R2473     1
    C0477     R2501     1
    C0477     R2599     -2
    C0477     R2627     -2
    C0477     R2725     1
    C0487     R0857     1
    C0487     R0899     1
    C0488     R0857     1
    C0488     R0900     1
    C0489     R0857     1
    C0489     R0901     1
    C0490     R0857     1
    C0490     R0902     1
    C0491     R0857     1
    C0491     R0903     1
    C0492     R0857     1
    C0492     R0904     1
    C0493     R0857     1
    C0493     R0905     1
    C0494     R0857     1
    C0494     R0906     1
    C0495     R0857     1
    C0495     R0907     1
    C0502     R0784     1
    C0502     R0878     1
    C0502     R0914     1
    C0502     R1050     1
    C0502     R1142     1
    C0502     R1143     1
    C0502     R1144     1
    C0502     R1255     1
    C0502     R1256     1
    C0502     R1398     -1
    C0502     R1399     -1
    C0502     R1429     1
    C0502     R1535     -1
    C0502     R1563     2
    C0502     R1565     1
    C0502     R1668     -1
    C0502     R1669     -3
    C0502     R1670     -3
    C0502     R1823     -3
    C0502     R1824     -3
    C0502     R1920     1
    C0502     R2097     1
    C0502     R2098     1
    C0502     R2207     1
    C0502     R2208     1
    C0502     R2209     1
    C0502     R2210     1
    C0502     R2237     -1
    C0502     R2238     -2
    C0502     R2239     -1
    C0502     R2240     -1
    C0502     R2344     -1
    C0502     R2345     -1
    C0502     R2374     1
    C0502     R2375     1
    C0502     R2505     -1
    C0502     R2507     -3
    C0502     R2508     -3
    C0502     R2605     -3
    C0502     R2606     -3
    C0502     R2728     1
    C0502     R2735     1
    C0502     R2744     1
    C0502     R2755     1
    C0504     R0784     1
    C0504     R0880     1
    C0504     R0916     1
    C0504     R1050     1
    C0504     R1144     1
    C0504     R1145     1
    C0504     R1146     1
    C0504     R1256     1
    C0504     R1257     1
    C0504     R1258     1
    C0504     R1399     -1
    C0504     R1429     1
    C0504     R1431     1
    C0504     R1432     1
    C0504     R1535     -1
    C0504     R1536     -1
    C0504     R1537     -1
    C0504     R1565     1
    C0504     R1668     -1
    C0504     R1669     -3
    C0504     R1670     -3
    C0504     R1671     -3
    C0504     R1672     -2
    C0504     R1823     -3
    C0504     R1824     -3
    C0504     R1825     -3
    C0504     R1826     -3
    C0504     R1923     1
    C0504     R1924     1
    C0504     R2098     1
    C0504     R2099     1
    C0504     R2100     1
    C0504     R2209     1
    C0504     R2210     1
    C0504     R2211     1
    C0504     R2212     1
    C0504     R2239     -1
    C0504     R2240     -1
    C0504     R2241     -1
    C0504     R2242     -1
    C0504     R2344     -1
    C0504     R2345     -1
    C0504     R2346     -1
    C0504     R2347     -1
    C0504     R2374     1
    C0504     R2375     1
    C0504     R2376     1
    C0504     R2377     1
    C0504     R2507     -3
    C0504     R2508     -3
    C0504     R2509     -3
    C0504     R2510     -2
    C0504     R2605     -3
    C0504     R2606     -3
    C0504     R2607     -3
    C0504     R2608     -2
    C0504     R2728     1
    C0504     R2735     1
    C0504     R2744     1
    C0504     R2755     1
    C0504     R2802     1
    C0506     R0785     1
    C0506     R0882     1
    C0506     R0918     1
    C0506     R1050     1
    C0506     R1146     1
    C0506     R1147     1
    C0506     R1148     1
    C0506     R1258     1
    C0506     R1259     1
    C0506     R1260     1
    C0506     R1431     1
    C0506     R1432     1
    C0506     R1433     1
    C0506     R1434     1
    C0506     R1536     -1
    C0506     R1537     -1
    C0506     R1538     -1
    C0506     R1539     -1
    C0506     R1670     -2
    C0506     R1671     -2
    C0506     R1672     -2
    C0506     R1673     -1
    C0506     R1674     -2
    C0506     R1698     1
    C0506     R1699     1
    C0506     R1700     1
    C0506     R1701     1
    C0506     R1702     1
    C0506     R1796     1
    C0506     R1797     1
    C0506     R1798     1
    C0506     R1799     1
    C0506     R1800     1
    C0506     R1824     -2
    C0506     R1825     -2
    C0506     R1826     -2
    C0506     R1827     -2
    C0506     R1828     -2
    C0506     R1924     1
    C0506     R1925     1
    C0506     R1926     1
    C0506     R2100     1
    C0506     R2101     1
    C0506     R2102     1
    C0506     R2211     1
    C0506     R2212     1
    C0506     R2213     1
    C0506     R2214     1
    C0506     R2241     -1
    C0506     R2242     -1
    C0506     R2243     -1
    C0506     R2244     -1
    C0506     R2346     -1
    C0506     R2347     -1
    C0506     R2348     -1
    C0506     R2349     -1
    C0506     R2376     1
    C0506     R2377     1
    C0506     R2378     1
    C0506     R2379     1
    C0506     R2480     1
    C0506     R2481     1
    C0506     R2482     1
    C0506     R2483     1
    C0506     R2484     1
    C0506     R2508     -2
    C0506     R2509     -2
    C0506     R2510     -2
    C0506     R2511     -2
    C0506     R2512     -2
    C0506     R2606     -2
    C0506     R2607     -2
    C0506     R2608     -2
    C0506     R2609     -2
    C0506     R2610     -2
    C0506     R2634     1
    C0506     R2635     1
    C0506     R2636     1
    C0506     R2637     1
    C0506     R2638     1
    C0506     R2802     1
    C0508     R0785     1
    C0508     R0884     1
    C0508     R0920     1
    C0508     R1050     1
    C0508     R1148     1
    C0508     R1149     1
    C0508     R1150     1
    C0508     R1260     1
    C0508     R1261     1
    C0508     R1262     1
    C0508     R1405     -1
    C0508     R1406     -1
    C0508     R1433     1
    C0508     R1434     1
    C0508     R1435     1
    C0508     R1538     -1
    C0508     R1539     -1
    C0508     R1571     1
    C0508     R1672     -2
    C0508     R1673     -1
    C0508     R1674     -2
    C0508     R1675     -1
    C0508     R1676     -2
    C0508     R1700     1
    C0508     R1701     1
    C0508     R1702     1
    C0508     R1703     1
    C0508     R1704     1
    C0508     R1798     1
    C0508     R1799     1
    C0508     R1800     1
    C0508     R1801     1
    C0508     R1802     1
    C0508     R1826     -2
    C0508     R1827     -2
    C0508     R1828     -2
    C0508     R1829     -2
    C0508     R1830     -2
    C0508     R1926     1
    C0508     R1927     1
    C0508     R1928     1
    C0508     R2102     1
    C0508     R2103     1
    C0508     R2104     1
    C0508     R2213     1
    C0508     R2214     1
    C0508     R2215     1
    C0508     R2216     1
    C0508     R2243     -1
    C0508     R2244     -1
    C0508     R2245     -1
    C0508     R2246     -1
    C0508     R2348     -1
    C0508     R2349     -1
    C0508     R2350     -1
    C0508     R2351     -1
    C0508     R2378     1
    C0508     R2379     1
    C0508     R2380     1
    C0508     R2381     1
    C0508     R2482     1
    C0508     R2483     1
    C0508     R2484     1
    C0508     R2485     1
    C0508     R2486     1
    C0508     R2510     -2
    C0508     R2511     -2
    C0508     R2512     -2
    C0508     R2513     -2
    C0508     R2514     -2
    C0508     R2608     -2
    C0508     R2609     -2
    C0508     R2610     -2
    C0508     R2611     -2
    C0508     R2612     -2
    C0508     R2636     1
    C0508     R2637     1
    C0508     R2638     1
    C0508     R2639     1
    C0508     R2640     1
    C0510     R0785     1
    C0510     R0886     1
    C0510     R0922     1
    C0510     R1050     1
    C0510     R1150     1
    C0510     R1151     1
    C0510     R1152     1
    C0510     R1262     1
    C0510     R1263     1
    C0510     R1264     1
    C0510     R1405     -1
    C0510     R1406     -1
    C0510     R1408     -1
    C0510     R1435     1
    C0510     R1542     -1
    C0510     R1571     1
    C0510     R1572     1
    C0510     R1573     1
    C0510     R1674     -2
    C0510     R1675     -1
    C0510     R1676     -2
    C0510     R1677     -1
    C0510     R1702     1
    C0510     R1703     1
    C0510     R1704     1
    C0510     R1705     1
    C0510     R1800     1
    C0510     R1801     1
    C0510     R1802     1
    C0510     R1803     1
    C0510     R1828     -2
    C0510     R1829     -2
    C0510     R1830     -2
    C0510     R1831     -2
    C0510     R1928     1
    C0510     R1929     1
    C0510     R1930     1
    C0510     R2104     1
    C0510     R2105     1
    C0510     R2106     1
    C0510     R2215     1
    C0510     R2216     1
    C0510     R2217     1
    C0510     R2218     1
    C0510     R2245     -1
    C0510     R2246     -1
    C0510     R2247     -1
    C0510     R2248     -1
    C0510     R2350     -1
    C0510     R2351     -1
    C0510     R2352     -1
    C0510     R2353     -1
    C0510     R2380     1
    C0510     R2381     1
    C0510     R2382     1
    C0510     R2383     1
    C0510     R2484     1
    C0510     R2485     1
    C0510     R2486     1
    C0510     R2487     1
    C0510     R2512     -2
    C0510     R2513     -2
    C0510     R2514     -2
    C0510     R2515     -2
    C0510     R2610     -2
    C0510     R2611     -2
    C0510     R2612     -2
    C0510     R2613     -2
    C0510     R2638     1
    C0510     R2639     1
    C0510     R2640     1
    C0510     R2641     1
    C0512     R0785     1
    C0512     R0888     1
    C0512     R0924     1
    C0512     R1050     1
    C0512     R1152     1
    C0512     R1153     1
    C0512     R1264     1
    C0512     R1265     1
    C0512     R1408     -1
    C0512     R1542     -1
    C0512     R1572     1
    C0512     R1573     1
    C0512     R1676     -2
    C0512     R1677     -1
    C0512     R1704     1
    C0512     R1705     1
    C0512     R1802     1
    C0512     R1803     1
    C0512     R1830     -2
    C0512     R1831     -2
    C0512     R1930     1
    C0512     R1931     1
    C0512     R2106     1
    C0512     R2107     1
    C0512     R2217     1
    C0512     R2218     1
    C0512     R2247     -1
    C0512     R2248     -1
    C0512     R2352     -1
    C0512     R2353     -1
    C0512     R2382     1
    C0512     R2383     1
    C0512     R2486     1
    C0512     R2487     1
    C0512     R2514     -2
    C0512     R2515     -2
    C0512     R2612     -2
    C0512     R2613     -2
    C0512     R2640     1
    C0512     R2641     1
    C0555     R1287     1
    C0555     R0814     1
    C0555     R0913     1
    C0555     R1053     1
    C0555     R1142     1
    C0555     R1143     1
    C0555     R1318     1
    C0555     R1563     1
    C0555     R1725     -2
    C0555     R1823     -3
    C0555     R1951     1
    C0555     R1952     1
    C0555     R1953     1
    C0555     R2127     1
    C0555     R2237     2
    C0555     R2238     1
    C0555     R2402     1
    C0555     R2403     1
    C0555     R2535     -2
    C0555     R2633     -3
    C0555     R2728     1
    C0555     R2739     1
    C0555     R2746     1
    C0555     R2757     1
    C0557     R0814     1
    C0557     R0915     1
    C0557     R0951     1
    C0557     R1053     1
    C0557     R1143     1
    C0557     R1144     1
    C0557     R1145     1
    C0557     R1321     1
    C0557     R1431     1
    C0557     R1563     1
    C0557     R1565     1
    C0557     R1595     -1
    C0557     R1596     -1
    C0557     R1725     -2
    C0557     R1726     -2
    C0557     R1727     -2
    C0557     R1823     -3
    C0557     R1824     -3
    C0557     R1825     -3
    C0557     R1852     1
    C0557     R1853     1
    C0557     R1953     1
    C0557     R1954     1
    C0557     R1955     1
    C0557     R2131     1
    C0557     R2238     1
    C0557     R2240     1
    C0557     R2241     1
    C0557     R2270     -1
    C0557     R2271     -1
    C0557     R2375     -1
    C0557     R2376     -1
    C0557     R2403     1
    C0557     R2405     1
    C0557     R2406     1
    C0557     R2535     -2
    C0557     R2536     -2
    C0557     R2537     -2
    C0557     R2633     -3
    C0557     R2634     -3
    C0557     R2635     -3
    C0557     R2662     1
    C0557     R2663     1
    C0557     R2728     1
    C0557     R2739     1
    C0557     R2746     1
    C0557     R2757     1
    C0557     R2847     1
    C0559     R0815     1
    C0559     R0917     1
    C0559     R0953     1
    C0559     R1053     1
    C0559     R1145     1
    C0559     R1146     1
    C0559     R1147     1
    C0559     R1321     1
    C0559     R1322     1
    C0559     R1323     1
    C0559     R1431     1
    C0559     R1432     1
    C0559     R1433     1
    C0559     R1463     -1
    C0559     R1565     1
    C0559     R1595     -1
    C0559     R1596     -1
    C0559     R1597     -1
    C0559     R1697     1
    C0559     R1698     1
    C0559     R1699     1
    C0559     R1700     1
    C0559     R1701     1
    C0559     R1725     -1
    C0559     R1726     -2
    C0559     R1727     -2
    C0559     R1728     -2
    C0559     R1729     -2
    C0559     R1823     -2
    C0559     R1824     -2
    C0559     R1825     -2
    C0559     R1826     -2
    C0559     R1827     -2
    C0559     R1851     1
    C0559     R1852     1
    C0559     R1853     1
    C0559     R1854     1
    C0559     R1855     1
    C0559     R1955     1
    C0559     R1956     1
    C0559     R1957     1
    C0559     R2131     1
    C0559     R2132     1
    C0559     R2133     1
    C0559     R2240     1
    C0559     R2241     1
    C0559     R2242     1
    C0559     R2243     1
    C0559     R2270     -1
    C0559     R2271     -1
    C0559     R2272     -1
    C0559     R2273     -1
    C0559     R2375     -1
    C0559     R2376     -1
    C0559     R2377     -1
    C0559     R2378     -1
    C0559     R2405     1
    C0559     R2406     1
    C0559     R2407     1
    C0559     R2408     1
    C0559     R2507     1
    C0559     R2508     1
    C0559     R2509     1
    C0559     R2510     1
    C0559     R2511     1
    C0559     R2535     -1
    C0559     R2536     -2
    C0559     R2537     -2
    C0559     R2538     -2
    C0559     R2539     -2
    C0559     R2633     -2
    C0559     R2634     -2
    C0559     R2635     -2
    C0559     R2636     -2
    C0559     R2637     -2
    C0559     R2661     1
    C0559     R2662     1
    C0559     R2663     1
    C0559     R2664     1
    C0559     R2665     1
    C0559     R2847     1
    C0561     R0815     1
    C0561     R0919     1
    C0561     R0955     1
    C0561     R1053     1
    C0561     R1147     1
    C0561     R1148     1
    C0561     R1149     1
    C0561     R1323     1
    C0561     R1324     1
    C0561     R1325     1
    C0561     R1432     1
    C0561     R1433     1
    C0561     R1434     1
    C0561     R1435     1
    C0561     R1463     -1
    C0561     R1465     -1
    C0561     R1597     -1
    C0561     R1599     -1
    C0561     R1699     1
    C0561     R1700     1
    C0561     R1701     1
    C0561     R1702     1
    C0561     R1703     1
    C0561     R1727     -2
    C0561     R1728     -2
    C0561     R1729     -2
    C0561     R1730     -2
    C0561     R1731     -2
    C0561     R1825     -2
    C0561     R1826     -2
    C0561     R1827     -2
    C0561     R1828     -2
    C0561     R1829     -2
    C0561     R1853     1
    C0561     R1854     1
    C0561     R1855     1
    C0561     R1856     1
    C0561     R1857     1
    C0561     R1957     1
    C0561     R1958     1
    C0561     R1959     1
    C0561     R2133     1
    C0561     R2134     1
    C0561     R2135     1
    C0561     R2242     1
    C0561     R2243     1
    C0561     R2244     1
    C0561     R2245     1
    C0561     R2272     -1
    C0561     R2273     -1
    C0561     R2274     -1
    C0561     R2275     -1
    C0561     R2377     -1
    C0561     R2378     -1
    C0561     R2379     -1
    C0561     R2380     -1
    C0561     R2407     1
    C0561     R2408     1
    C0561     R2409     1
    C0561     R2410     1
    C0561     R2509     1
    C0561     R2510     1
    C0561     R2511     1
    C0561     R2512     1
    C0561     R2513     1
    C0561     R2537     -2
    C0561     R2538     -2
    C0561     R2539     -2
    C0561     R2540     -2
    C0561     R2541     -2
    C0561     R2635     -2
    C0561     R2636     -2
    C0561     R2637     -2
    C0561     R2638     -2
    C0561     R2639     -2
    C0561     R2663     1
    C0561     R2664     1
    C0561     R2665     1
    C0561     R2666     1
    C0561     R2667     1
    C0563     R0815     1
    C0563     R0921     1
    C0563     R0957     1
    C0563     R1053     1
    C0563     R1149     1
    C0563     R1150     1
    C0563     R1151     1
    C0563     R1325     1
    C0563     R1326     1
    C0563     R1327     1
    C0563     R1434     1
    C0563     R1435     1
    C0563     R1465     -1
    C0563     R1466     -1
    C0563     R1571     1
    C0563     R1572     1
    C0563     R1599     -1
    C0563     R1602     -1
    C0563     R1701     1
    C0563     R1702     1
    C0563     R1703     1
    C0563     R1704     1
    C0563     R1705     1
    C0563     R1729     -2
    C0563     R1730     -2
    C0563     R1731     -2
    C0563     R1732     -2
    C0563     R1733     -2
    C0563     R1827     -2
    C0563     R1828     -2
    C0563     R1829     -2
    C0563     R1830     -2
    C0563     R1831     -2
    C0563     R1855     1
    C0563     R1856     1
    C0563     R1857     1
    C0563     R1858     1
    C0563     R1859     1
    C0563     R1959     1
    C0563     R1960     1
    C0563     R1961     1
    C0563     R2135     1
    C0563     R2136     1
    C0563     R2137     1
    C0563     R2244     1
    C0563     R2245     1
    C0563     R2246     1
    C0563     R2247     1
    C0563     R2274     -1
    C0563     R2275     -1
    C0563     R2276     -1
    C0563     R2277     -1
    C0563     R2379     -1
    C0563     R2380     -1
    C0563     R2381     -1
    C0563     R2382     -1
    C0563     R2409     1
    C0563     R2410     1
    C0563     R2411     1
    C0563     R2412     1
    C0563     R2511     1
    C0563     R2512     1
    C0563     R2513     1
    C0563     R2514     1
    C0563     R2515     1
    C0563     R2539     -2
    C0563     R2540     -2
    C0563     R2541     -2
    C0563     R2542     -2
    C0563     R2543     -2
    C0563     R2637     -2
    C0563     R2638     -2
    C0563     R2639     -2
    C0563     R2640     -2
    C0563     R2641     -2
    C0563     R2665     1
    C0563     R2666     1
    C0563     R2667     1
    C0563     R2668     1
    C0563     R2669     1
    C0565     R0815     1
    C0565     R0923     1
    C0565     R0959     1
    C0565     R1053     1
    C0565     R1151     1
    C0565     R1152     1
    C0565     R1153     1
    C0565     R1327     1
    C0565     R1328     1
    C0565     R1329     1
    C0565     R1466     -1
    C0565     R1468     -1
    C0565     R1571     1
    C0565     R1572     1
    C0565     R1573     1
    C0565     R1602     -1
    C0565     R1703     1
    C0565     R1704     1
    C0565     R1705     1
    C0565     R1731     -2
    C0565     R1732     -2
    C0565     R1733     -2
    C0565     R1829     -2
    C0565     R1830     -2
    C0565     R1831     -2
    C0565     R1857     1
    C0565     R1858     1
    C0565     R1859     1
    C0565     R1961     1
    C0565     R1962     1
    C0565     R1963     1
    C0565     R2137     1
    C0565     R2138     1
    C0565     R2139     1
    C0565     R2246     1
    C0565     R2247     1
    C0565     R2248     1
    C0565     R2276     -1
    C0565     R2277     -1
    C0565     R2278     -1
    C0565     R2381     -1
    C0565     R2382     -1
    C0565     R2383     -1
    C0565     R2411     1
    C0565     R2412     1
    C0565     R2413     1
    C0565     R2513     1
    C0565     R2514     1
    C0565     R2515     1
    C0565     R2541     -2
    C0565     R2542     -2
    C0565     R2543     -2
    C0565     R2639     -2
    C0565     R2640     -2
    C0565     R2641     -2
    C0565     R2667     1
    C0565     R2668     1
    C0565     R2669     1
    C0567     R0815     1
    C0567     R0925     1
    C0567     R0961     1
    C0567     R1053     1
    C0567     R1153     1
    C0567     R1329     1
    C0567     R1468     -1
    C0567     R1573     1
    C0567     R1705     1
    C0567     R1733     -2
    C0567     R1831     -2
    C0567     R1859     1
    C0567     R1963     1
    C0567     R2139     1
    C0567     R2248     1
    C0567     R2278     -1
    C0567     R2383     -1
    C0567     R2413     1
    C0567     R2515     1
    C0567     R2543     -2
    C0567     R2641     -2
    C0567     R2669     1
    C0578     R0918     1
    C0578     R0972     1
    C0578     R1054     1
    C0578     R1146     1
    C0578     R1147     1
    C0578     R1148     1
    C0578     R1338     1
    C0578     R1339     1
    C0578     R1340     1
    C0578     R1431     1
    C0578     R1432     1
    C0578     R1433     1
    C0578     R1434     1
    C0578     R1476     -1
    C0578     R1477     -1
    C0578     R1478     -1
    C0578     R1479     -1
    C0578     R1698     1
    C0578     R1699     1
    C0578     R1700     1
    C0578     R1701     1
    C0578     R1702     1
    C0578     R1740     -2
    C0578     R1741     -2
    C0578     R1742     -2
    C0578     R1743     -2
    C0578     R1744     -2
    C0578     R1824     -2
    C0578     R1825     -2
    C0578     R1826     -2
    C0578     R1827     -2
    C0578     R1828     -2
    C0578     R1866     1
    C0578     R1867     1
    C0578     R1868     1
    C0578     R1869     1
    C0578     R1870     1
    C0578     R2004     1
    C0578     R2005     1
    C0578     R2006     1
    C0578     R2100     1
    C0578     R2101     1
    C0578     R2102     1
    C0578     R2241     -1
    C0578     R2242     -1
    C0578     R2243     -1
    C0578     R2244     -1
    C0578     R2286     1
    C0578     R2287     1
    C0578     R2288     1
    C0578     R2289     1
    C0578     R2376     1
    C0578     R2377     1
    C0578     R2378     1
    C0578     R2379     1
    C0578     R2421     -1
    C0578     R2422     -1
    C0578     R2423     -1
    C0578     R2424     -1
    C0578     R2508     -2
    C0578     R2509     -2
    C0578     R2510     -2
    C0578     R2511     -2
    C0578     R2512     -2
    C0578     R2550     1
    C0578     R2551     1
    C0578     R2552     1
    C0578     R2553     1
    C0578     R2554     1
    C0578     R2634     1
    C0578     R2635     1
    C0578     R2636     1
    C0578     R2637     1
    C0578     R2638     1
    C0578     R2676     -2
    C0578     R2677     -2
    C0578     R2678     -2
    C0578     R2679     -2
    C0578     R2680     -2
    C0580     R0920     1
    C0580     R0974     1
    C0580     R1054     1
    C0580     R1148     1
    C0580     R1149     1
    C0580     R1150     1
    C0580     R1340     1
    C0580     R1341     1
    C0580     R1342     1
    C0580     R1433     1
    C0580     R1434     1
    C0580     R1435     1
    C0580     R1478     -1
    C0580     R1479     -1
    C0580     R1480     -1
    C0580     R1571     1
    C0580     R1616     -1
    C0580     R1700     1
    C0580     R1701     1
    C0580     R1702     1
    C0580     R1703     1
    C0580     R1704     1
    C0580     R1742     -2
    C0580     R1743     -2
    C0580     R1744     -2
    C0580     R1745     -2
    C0580     R1746     -2
    C0580     R1826     -2
    C0580     R1827     -2
    C0580     R1828     -2
    C0580     R1829     -2
    C0580     R1830     -2
    C0580     R1868     1
    C0580     R1869     1
    C0580     R1870     1
    C0580     R1871     1
    C0580     R1872     1
    C0580     R2006     1
    C0580     R2007     1
    C0580     R2008     1
    C0580     R2102     1
    C0580     R2103     1
    C0580     R2104     1
    C0580     R2243     -1
    C0580     R2244     -1
    C0580     R2245     -1
    C0580     R2246     -1
    C0580     R2288     1
    C0580     R2289     1
    C0580     R2290     1
    C0580     R2291     1
    C0580     R2378     1
    C0580     R2379     1
    C0580     R2380     1
    C0580     R2381     1
    C0580     R2423     -1
    C0580     R2424     -1
    C0580     R2425     -1
    C0580     R2426     -1
    C0580     R2510     -2
    C0580     R2511     -2
    C0580     R2512     -2
    C0580     R2513     -2
    C0580     R2514     -2
    C0580     R2552     1
    C0580     R2553     1
    C0580     R2554     1
    C0580     R2555     1
    C0580     R2556     1
    C0580     R2636     1
    C0580     R2637     1
    C0580     R2638     1
    C0580     R2639     1
    C0580     R2640     1
    C0580     R2678     -2
    C0580     R2679     -2
    C0580     R2680     -2
    C0580     R2681     -2
    C0580     R2682     -2
    C0582     R0922     1
    C0582     R0976     1
    C0582     R1054     1
    C0582     R1150     1
    C0582     R1151     1
    C0582     R1152     1
    C0582     R1342     1
    C0582     R1343     1
    C0582     R1344     1
    C0582     R1435     1
    C0582     R1480     -1
    C0582     R1483     -1
    C0582     R1571     1
    C0582     R1572     1
    C0582     R1573     1
    C0582     R1616     -1
    C0582     R1617     -1
    C0582     R1702     1
    C0582     R1703     1
    C0582     R1704     1
    C0582     R1705     1
    C0582     R1744     -2
    C0582     R1745     -2
    C0582     R1746     -2
    C0582     R1747     -2
    C0582     R1828     -2
    C0582     R1829     -2
    C0582     R1830     -2
    C0582     R1831     -2
    C0582     R1870     1
    C0582     R1871     1
    C0582     R1872     1
    C0582     R1873     1
    C0582     R2008     1
    C0582     R2009     1
    C0582     R2010     1
    C0582     R2104     1
    C0582     R2105     1
    C0582     R2106     1
    C0582     R2245     -1
    C0582     R2246     -1
    C0582     R2247     -1
    C0582     R2248     -1
    C0582     R2290     1
    C0582     R2291     1
    C0582     R2292     1
    C0582     R2293     1
    C0582     R2380     1
    C0582     R2381     1
    C0582     R2382     1
    C0582     R2383     1
    C0582     R2425     -1
    C0582     R2426     -1
    C0582     R2427     -1
    C0582     R2428     -1
    C0582     R2512     -2
    C0582     R2513     -2
    C0582     R2514     -2
    C0582     R2515     -2
    C0582     R2554     1
    C0582     R2555     1
    C0582     R2556     1
    C0582     R2557     1
    C0582     R2638     1
    C0582     R2639     1
    C0582     R2640     1
    C0582     R2641     1
    C0582     R2680     -2
    C0582     R2681     -2
    C0582     R2682     -2
    C0582     R2683     -2
    C0584     R0924     1
    C0584     R0978     1
    C0584     R1054     1
    C0584     R1152     1
    C0584     R1153     1
    C0584     R1344     1
    C0584     R1345     1
    C0584     R1483     -1
    C0584     R1572     1
    C0584     R1573     1
    C0584     R1617     -1
    C0584     R1704     1
    C0584     R1705     1
    C0584     R1746     -2
    C0584     R1747     -2
    C0584     R1830     -2
    C0584     R1831     -2
    C0584     R1872     1
    C0584     R1873     1
    C0584     R2010     1
    C0584     R2011     1
    C0584     R2106     1
    C0584     R2107     1
    C0584     R2247     -1
    C0584     R2248     -1
    C0584     R2292     1
    C0584     R2293     1
    C0584     R2382     1
    C0584     R2383     1
    C0584     R2427     -1
    C0584     R2428     -1
    C0584     R2514     -2
    C0584     R2515     -2
    C0584     R2556     1
    C0584     R2557     1
    C0584     R2640     1
    C0584     R2641     1
    C0584     R2682     -2
    C0584     R2683     -2
    C0592     R0818     1
    C0592     R0914     1
    C0592     R0986     1
    C0592     R1055     1
    C0592     R1142     1
    C0592     R1143     1
    C0592     R1144     1
    C0592     R1351     1
    C0592     R1352     1
    C0592     R1489     -1
    C0592     R1490     -1
    C0592     R1563     2
    C0592     R1565     1
    C0592     R1752     -1
    C0592     R1753     -3
    C0592     R1754     -3
    C0592     R1823     -3
    C0592     R1824     -3
    C0592     R2017     1
    C0592     R2018     1
    C0592     R2097     1
    C0592     R2098     1
    C0592     R2237     -1
    C0592     R2238     -2
    C0592     R2239     -1
    C0592     R2240     -1
    C0592     R2297     1
    C0592     R2298     1
    C0592     R2299     1
    C0592     R2300     1
    C0592     R2374     1
    C0592     R2375     1
    C0592     R2434     -1
    C0592     R2435     -1
    C0592     R2505     -1
    C0592     R2507     -3
    C0592     R2508     -3
    C0592     R2688     -1
    C0592     R2689     -3
    C0592     R2690     -3
    C0592     R2728     1
    C0592     R2741     1
    C0592     R2750     1
    C0592     R2755     1
    C0594     R0818     1
    C0594     R0916     1
    C0594     R0988     1
    C0594     R1055     1
    C0594     R1144     1
    C0594     R1145     1
    C0594     R1146     1
    C0594     R1352     1
    C0594     R1353     1
    C0594     R1354     1
    C0594     R1431     1
    C0594     R1432     1
    C0594     R1489     -1
    C0594     R1490     -1
    C0594     R1491     -1
    C0594     R1492     -1
    C0594     R1565     1
    C0594     R1752     -1
    C0594     R1753     -3
    C0594     R1754     -3
    C0594     R1755     -3
    C0594     R1756     -2
    C0594     R1823     -3
    C0594     R1824     -3
    C0594     R1825     -3
    C0594     R1826     -3
    C0594     R2018     1
    C0594     R2019     1
    C0594     R2020     1
    C0594     R2098     1
    C0594     R2099     1
    C0594     R2100     1
    C0594     R2239     -1
    C0594     R2240     -1
    C0594     R2241     -1
    C0594     R2242     -1
    C0594     R2299     1
    C0594     R2300     1
    C0594     R2301     1
    C0594     R2302     1
    C0594     R2374     1
    C0594     R2375     1
    C0594     R2376     1
    C0594     R2377     1
    C0594     R2434     -1
    C0594     R2435     -1
    C0594     R2436     -1
    C0594     R2437     -1
    C0594     R2507     -3
    C0594     R2508     -3
    C0594     R2509     -3
    C0594     R2510     -2
    C0594     R2688     -1
    C0594     R2689     -3
    C0594     R2690     -3
    C0594     R2691     -3
    C0594     R2692     -2
    C0594     R2728     1
    C0594     R2741     1
    C0594     R2750     1
    C0594     R2755     1
    C0594     R2853     1
    C0596     R0819     1
    C0596     R0918     1
    C0596     R0990     1
    C0596     R1055     1
    C0596     R1146     1
    C0596     R1147     1
    C0596     R1148     1
    C0596     R1354     1
    C0596     R1355     1
    C0596     R1356     1
    C0596     R1431     1
    C0596     R1432     1
    C0596     R1433     1
    C0596     R1434     1
    C0596     R1491     -1
    C0596     R1492     -1
    C0596     R1493     -1
    C0596     R1494     -1
    C0596     R1698     1
    C0596     R1699     1
    C0596     R1700     1
    C0596     R1701     1
    C0596     R1702     1
    C0596     R1754     -2
    C0596     R1755     -2
    C0596     R1756     -2
    C0596     R1757     -2
    C0596     R1758     -2
    C0596     R1824     -2
    C0596     R1825     -2
    C0596     R1826     -2
    C0596     R1827     -2
    C0596     R1828     -2
    C0596     R1880     1
    C0596     R1881     1
    C0596     R1882     1
    C0596     R1883     1
    C0596     R1884     1
    C0596     R2020     1
    C0596     R2021     1
    C0596     R2022     1
    C0596     R2100     1
    C0596     R2101     1
    C0596     R2102     1
    C0596     R2241     -1
    C0596     R2242     -1
    C0596     R2243     -1
    C0596     R2244     -1
    C0596     R2301     1
    C0596     R2302     1
    C0596     R2303     1
    C0596     R2304     1
    C0596     R2376     1
    C0596     R2377     1
    C0596     R2378     1
    C0596     R2379     1
    C0596     R2436     -1
    C0596     R2437     -1
    C0596     R2438     -1
    C0596     R2439     -1
    C0596     R2508     -2
    C0596     R2509     -2
    C0596     R2510     -2
    C0596     R2511     -2
    C0596     R2512     -2
    C0596     R2564     1
    C0596     R2565     1
    C0596     R2566     1
    C0596     R2567     1
    C0596     R2568     1
    C0596     R2634     1
    C0596     R2635     1
    C0596     R2636     1
    C0596     R2637     1
    C0596     R2638     1
    C0596     R2690     -2
    C0596     R2691     -2
    C0596     R2692     -2
    C0596     R2693     -2
    C0596     R2694     -2
    C0596     R2853     1
    C0598     R0819     1
    C0598     R0920     1
    C0598     R0992     1
    C0598     R1055     1
    C0598     R1148     1
    C0598     R1149     1
    C0598     R1150     1
    C0598     R1356     1
    C0598     R1357     1
    C0598     R1358     1
    C0598     R1433     1
    C0598     R1434     1
    C0598     R1435     1
    C0598     R1493     -1
    C0598     R1494     -1
    C0598     R1495     -1
    C0598     R1496     -1
    C0598     R1571     1
    C0598     R1700     1
    C0598     R1701     1
    C0598     R1702     1
    C0598     R1703     1
    C0598     R1704     1
    C0598     R1756     -2
    C0598     R1757     -2
    C0598     R1758     -2
    C0598     R1759     -2
    C0598     R1760     -2
    C0598     R1826     -2
    C0598     R1827     -2
    C0598     R1828     -2
    C0598     R1829     -2
    C0598     R1830     -2
    C0598     R1882     1
    C0598     R1883     1
    C0598     R1884     1
    C0598     R1885     1
    C0598     R1886     1
    C0598     R2022     1
    C0598     R2023     1
    C0598     R2024     1
    C0598     R2102     1
    C0598     R2103     1
    C0598     R2104     1
    C0598     R2243     -1
    C0598     R2244     -1
    C0598     R2245     -1
    C0598     R2246     -1
    C0598     R2303     1
    C0598     R2304     1
    C0598     R2305     1
    C0598     R2306     1
    C0598     R2378     1
    C0598     R2379     1
    C0598     R2380     1
    C0598     R2381     1
    C0598     R2438     -1
    C0598     R2439     -1
    C0598     R2440     -1
    C0598     R2441     -1
    C0598     R2510     -2
    C0598     R2511     -2
    C0598     R2512     -2
    C0598     R2513     -2
    C0598     R2514     -2
    C0598     R2566     1
    C0598     R2567     1
    C0598     R2568     1
    C0598     R2569     1
    C0598     R2570     1
    C0598     R2636     1
    C0598     R2637     1
    C0598     R2638     1
    C0598     R2639     1
    C0598     R2640     1
    C0598     R2692     -2
    C0598     R2693     -2
    C0598     R2694     -2
    C0598     R2695     -2
    C0598     R2696     -2
    C0600     R0819     1
    C0600     R0922     1
    C0600     R0994     1
    C0600     R1055     1
    C0600     R1150     1
    C0600     R1151     1
    C0600     R1152     1
    C0600     R1358     1
    C0600     R1359     1
    C0600     R1360     1
    C0600     R1435     1
    C0600     R1495     -1
    C0600     R1496     -1
    C0600     R1497     -1
    C0600     R1498     -1
    C0600     R1571     1
    C0600     R1572     1
    C0600     R1573     1
    C0600     R1702     1
    C0600     R1703     1
    C0600     R1704     1
    C0600     R1705     1
    C0600     R1758     -2
    C0600     R1759     -2
    C0600     R1760     -2
    C0600     R1761     -2
    C0600     R1828     -2
    C0600     R1829     -2
    C0600     R1830     -2
    C0600     R1831     -2
    C0600     R1884     1
    C0600     R1885     1
    C0600     R1886     1
    C0600     R1887     1
    C0600     R2024     1
    C0600     R2025     1
    C0600     R2026     1
    C0600     R2104     1
    C0600     R2105     1
    C0600     R2106     1
    C0600     R2245     -1
    C0600     R2246     -1
    C0600     R2247     -1
    C0600     R2248     -1
    C0600     R2305     1
    C0600     R2306     1
    C0600     R2307     1
    C0600     R2308     1
    C0600     R2380     1
    C0600     R2381     1
    C0600     R2382     1
    C0600     R2383     1
    C0600     R2440     -1
    C0600     R2441     -1
    C0600     R2442     -1
    C0600     R2443     -1
    C0600     R2512     -2
    C0600     R2513     -2
    C0600     R2514     -2
    C0600     R2515     -2
    C0600     R2568     1
    C0600     R2569     1
    C0600     R2570     1
    C0600     R2571     1
    C0600     R2638     1
    C0600     R2639     1
    C0600     R2640     1
    C0600     R2641     1
    C0600     R2694     -2
    C0600     R2695     -2
    C0600     R2696     -2
    C0600     R2697     -2
    C0602     R0819     1
    C0602     R0924     1
    C0602     R0996     1
    C0602     R1055     1
    C0602     R1152     1
    C0602     R1153     1
    C0602     R1360     1
    C0602     R1361     1
    C0602     R1497     -1
    C0602     R1498     -1
    C0602     R1572     1
    C0602     R1573     1
    C0602     R1704     1
    C0602     R1705     1
    C0602     R1760     -2
    C0602     R1761     -2
    C0602     R1830     -2
    C0602     R1831     -2
    C0602     R1886     1
    C0602     R1887     1
    C0602     R2026     1
    C0602     R2027     1
    C0602     R2106     1
    C0602     R2107     1
    C0602     R2247     -1
    C0602     R2248     -1
    C0602     R2307     1
    C0602     R2308     1
    C0602     R2382     1
    C0602     R2383     1
    C0602     R2442     -1
    C0602     R2443     -1
    C0602     R2514     -2
    C0602     R2515     -2
    C0602     R2570     1
    C0602     R2571     1
    C0602     R2640     1
    C0602     R2641     1
    C0602     R2696     -2
    C0602     R2697     -2
    C0611     R0820     1
    C0611     R0915     1
    C0611     R1005     1
    C0611     R1056     1
    C0611     R1143     1
    C0611     R1144     1
    C0611     R1145     1
    C0611     R1368     1
    C0611     R1369     1
    C0611     R1429     1
    C0611     R1431     1
    C0611     R1504     -1
    C0611     R1563     2
    C0611     R1565     1
    C0611     R1640     -1
    C0611     R1641     -1
    C0611     R1767     -3
    C0611     R1768     -3
    C0611     R1769     -3
    C0611     R1823     -3
    C0611     R1824     -3
    C0611     R1825     -3
    C0611     R1953     1
    C0611     R1954     1
    C0611     R1955     1
    C0611     R2179     1
    C0611     R2238     2
    C0611     R2239     1
    C0611     R2240     1
    C0611     R2241     1
    C0611     R2314     -1
    C0611     R2315     -1
    C0611     R2316     -1
    C0611     R2374     -1
    C0611     R2375     -1
    C0611     R2376     -1
    C0611     R2448     1
    C0611     R2450     1
    C0611     R2451     1
    C0611     R2577     -3
    C0611     R2578     -3
    C0611     R2579     -3
    C0611     R2633     -3
    C0611     R2634     -3
    C0611     R2635     -3
    C0611     R2728     1
    C0611     R2742     1
    C0611     R2746     1
    C0611     R2760     1
    C0613     R0821     1
    C0613     R0917     1
    C0613     R1007     1
    C0613     R1056     1
    C0613     R1145     1
    C0613     R1146     1
    C0613     R1147     1
    C0613     R1369     1
    C0613     R1370     1
    C0613     R1371     1
    C0613     R1431     1
    C0613     R1432     1
    C0613     R1433     1
    C0613     R1507     -1
    C0613     R1508     -1
    C0613     R1565     1
    C0613     R1640     -1
    C0613     R1641     -1
    C0613     R1697     1
    C0613     R1698     1
    C0613     R1699     1
    C0613     R1700     1
    C0613     R1701     1
    C0613     R1767     -2
    C0613     R1768     -2
    C0613     R1769     -2
    C0613     R1770     -2
    C0613     R1771     -2
    C0613     R1823     -2
    C0613     R1824     -2
    C0613     R1825     -2
    C0613     R1826     -2
    C0613     R1827     -2
    C0613     R1894     1
    C0613     R1895     1
    C0613     R1896     1
    C0613     R1897     1
    C0613     R1955     1
    C0613     R1956     1
    C0613     R1957     1
    C0613     R2179     1
    C0613     R2180     1
    C0613     R2181     1
    C0613     R2240     1
    C0613     R2241     1
    C0613     R2242     1
    C0613     R2243     1
    C0613     R2315     -1
    C0613     R2316     -1
    C0613     R2317     -1
    C0613     R2318     -1
    C0613     R2375     -1
    C0613     R2376     -1
    C0613     R2377     -1
    C0613     R2378     -1
    C0613     R2450     1
    C0613     R2451     1
    C0613     R2452     1
    C0613     R2453     1
    C0613     R2507     1
    C0613     R2508     1
    C0613     R2509     1
    C0613     R2510     1
    C0613     R2511     1
    C0613     R2577     -2
    C0613     R2578     -2
    C0613     R2579     -2
    C0613     R2580     -2
    C0613     R2581     -2
    C0613     R2633     -2
    C0613     R2634     -2
    C0613     R2635     -2
    C0613     R2636     -2
    C0613     R2637     -2
    C0613     R2704     1
    C0613     R2705     1
    C0613     R2706     1
    C0613     R2707     1
    C0613     R2855     1
    C0615     R0821     1
    C0615     R0919     1
    C0615     R1009     1
    C0615     R1056     1
    C0615     R1147     1
    C0615     R1148     1
    C0615     R1149     1
    C0615     R1371     1
    C0615     R1372     1
    C0615     R1373     1
    C0615     R1432     1
    C0615     R1433     1
    C0615     R1434     1
    C0615     R1435     1
    C0615     R1507     -1
    C0615     R1508     -1
    C0615     R1644     -1
    C0615     R1645     -1
    C0615     R1699     1
    C0615     R1700     1
    C0615     R1701     1
    C0615     R1702     1
    C0615     R1703     1
    C0615     R1769     -2
    C0615     R1770     -2
    C0615     R1771     -2
    C0615     R1772     -2
    C0615     R1773     -2
    C0615     R1825     -2
    C0615     R1826     -2
    C0615     R1827     -2
    C0615     R1828     -2
    C0615     R1829     -2
    C0615     R1895     1
    C0615     R1896     1
    C0615     R1897     1
    C0615     R1898     1
    C0615     R1899     1
    C0615     R1957     1
    C0615     R1958     1
    C0615     R1959     1
    C0615     R2181     1
    C0615     R2182     1
    C0615     R2183     1
    C0615     R2242     1
    C0615     R2243     1
    C0615     R2244     1
    C0615     R2245     1
    C0615     R2317     -1
    C0615     R2318     -1
    C0615     R2319     -1
    C0615     R2320     -1
    C0615     R2377     -1
    C0615     R2378     -1
    C0615     R2379     -1
    C0615     R2380     -1
    C0615     R2452     1
    C0615     R2453     1
    C0615     R2454     1
    C0615     R2455     1
    C0615     R2509     1
    C0615     R2510     1
    C0615     R2511     1
    C0615     R2512     1
    C0615     R2513     1
    C0615     R2579     -2
    C0615     R2580     -2
    C0615     R2581     -2
    C0615     R2582     -2
    C0615     R2583     -2
    C0615     R2635     -2
    C0615     R2636     -2
    C0615     R2637     -2
    C0615     R2638     -2
    C0615     R2639     -2
    C0615     R2705     1
    C0615     R2706     1
    C0615     R2707     1
    C0615     R2708     1
    C0615     R2709     1
    C0617     R0821     1
    C0617     R0921     1
    C0617     R1011     1
    C0617     R1056     1
    C0617     R1149     1
    C0617     R1150     1
    C0617     R1151     1
    C0617     R1373     1
    C0617     R1374     1
    C0617     R1375     1
    C0617     R1434     1
    C0617     R1435     1
    C0617     R1512     -1
    C0617     R1571     1
    C0617     R1572     1
    C0617     R1644     -1
    C0617     R1645     -1
    C0617     R1646     -1
    C0617     R1701     1
    C0617     R1702     1
    C0617     R1703     1
    C0617     R1704     1
    C0617     R1705     1
    C0617     R1771     -2
    C0617     R1772     -2
    C0617     R1773     -2
    C0617     R1774     -2
    C0617     R1775     -2
    C0617     R1827     -2
    C0617     R1828     -2
    C0617     R1829     -2
    C0617     R1830     -2
    C0617     R1831     -2
    C0617     R1897     1
    C0617     R1898     1
    C0617     R1899     1
    C0617     R1900     1
    C0617     R1901     1
    C0617     R1959     1
    C0617     R1960     1
    C0617     R1961     1
    C0617     R2183     1
    C0617     R2184     1
    C0617     R2185     1
    C0617     R2244     1
    C0617     R2245     1
    C0617     R2246     1
    C0617     R2247     1
    C0617     R2319     -1
    C0617     R2320     -1
    C0617     R2321     -1
    C0617     R2322     -1
    C0617     R2379     -1
    C0617     R2380     -1
    C0617     R2381     -1
    C0617     R2382     -1
    C0617     R2454     1
    C0617     R2455     1
    C0617     R2456     1
    C0617     R2457     1
    C0617     R2511     1
    C0617     R2512     1
    C0617     R2513     1
    C0617     R2514     1
    C0617     R2515     1
    C0617     R2581     -2
    C0617     R2582     -2
    C0617     R2583     -2
    C0617     R2584     -2
    C0617     R2585     -2
    C0617     R2637     -2
    C0617     R2638     -2
    C0617     R2639     -2
    C0617     R2640     -2
    C0617     R2641     -2
    C0617     R2707     1
    C0617     R2708     1
    C0617     R2709     1
    C0617     R2710     1
    C0617     R2711     1
    C0619     R0821     1
    C0619     R0923     1
    C0619     R1013     1
    C0619     R1056     1
    C0619     R1151     1
    C0619     R1152     1
    C0619     R1153     1
    C0619     R1375     1
    C0619     R1376     1
    C0619     R1377     1
    C0619     R1512     -1
    C0619     R1571     1
    C0619     R1572     1
    C0619     R1573     1
    C0619     R1646     -1
    C0619     R1648     -1
    C0619     R1703     1
    C0619     R1704     1
    C0619     R1705     1
    C0619     R1773     -2
    C0619     R1774     -2
    C0619     R1775     -2
    C0619     R1829     -2
    C0619     R1830     -2
    C0619     R1831     -2
    C0619     R1899     1
    C0619     R1900     1
    C0619     R1901     1
    C0619     R1961     1
    C0619     R1962     1
    C0619     R1963     1
    C0619     R2185     1
    C0619     R2186     1
    C0619     R2187     1
    C0619     R2246     1
    C0619     R2247     1
    C0619     R2248     1
    C0619     R2321     -1
    C0619     R2322     -1
    C0619     R2323     -1
    C0619     R2381     -1
    C0619     R2382     -1
    C0619     R2383     -1
    C0619     R2456     1
    C0619     R2457     1
    C0619     R2458     1
    C0619     R2513     1
    C0619     R2514     1
    C0619     R2515     1
    C0619     R2583     -2
    C0619     R2584     -2
    C0619     R2585     -2
    C0619     R2639     -2
    C0619     R2640     -2
    C0619     R2641     -2
    C0619     R2709     1
    C0619     R2710     1
    C0619     R2711     1
    C0621     R0821     1
    C0621     R0925     1
    C0621     R1015     1
    C0621     R1056     1
    C0621     R1153     1
    C0621     R1377     1
    C0621     R1573     1
    C0621     R1648     -1
    C0621     R1705     1
    C0621     R1775     -2
    C0621     R1831     -2
    C0621     R1901     1
    C0621     R1963     1
    C0621     R2187     1
    C0621     R2248     1
    C0621     R2323     -1
    C0621     R2383     -1
    C0621     R2458     1
    C0621     R2515     1
    C0621     R2585     -2
    C0621     R2641     -2
    C0621     R2711     1
    C0631     R0917     1
    C0631     R1025     1
    C0631     R1145     1
    C0631     R1146     1
    C0631     R1147     1
    C0631     R1385     1
    C0631     R1386     1
    C0631     R1387     1
    C0631     R1431     1
    C0631     R1432     1
    C0631     R1433     1
    C0631     R1522     -1
    C0631     R1565     1
    C0631     R1656     -1
    C0631     R1658     -1
    C0631     R1697     1
    C0631     R1698     1
    C0631     R1699     1
    C0631     R1700     1
    C0631     R1701     1
    C0631     R1781     -1
    C0631     R1782     -1
    C0631     R1783     -3
    C0631     R1784     -3
    C0631     R1785     -2
    C0631     R1823     -2
    C0631     R1824     -2
    C0631     R1825     -2
    C0631     R1826     -2
    C0631     R1827     -2
    C0631     R1907     1
    C0631     R1908     1
    C0631     R1955     1
    C0631     R1956     1
    C0631     R1957     1
    C0631     R2195     1
    C0631     R2196     1
    C0631     R2197     1
    C0631     R2240     1
    C0631     R2241     1
    C0631     R2242     1
    C0631     R2243     1
    C0631     R2331     -1
    C0631     R2332     -1
    C0631     R2333     -1
    C0631     R2375     -1
    C0631     R2376     -1
    C0631     R2377     -1
    C0631     R2378     -1
    C0631     R2465     1
    C0631     R2466     1
    C0631     R2467     1
    C0631     R2468     1
    C0631     R2507     1
    C0631     R2508     1
    C0631     R2509     1
    C0631     R2510     1
    C0631     R2511     1
    C0631     R2591     -1
    C0631     R2592     -1
    C0631     R2593     -3
    C0631     R2594     -3
    C0631     R2595     -2
    C0631     R2633     -2
    C0631     R2634     -2
    C0631     R2635     -2
    C0631     R2636     -2
    C0631     R2637     -2
    C0631     R2717     1
    C0631     R2718     1
    C0631     R2782     -1
    C0633     R0919     1
    C0633     R1027     1
    C0633     R1147     1
    C0633     R1148     1
    C0633     R1149     1
    C0633     R1387     1
    C0633     R1388     1
    C0633     R1389     1
    C0633     R1432     1
    C0633     R1433     1
    C0633     R1434     1
    C0633     R1435     1
    C0633     R1522     -1
    C0633     R1658     -1
    C0633     R1659     -1
    C0633     R1660     -1
    C0633     R1699     1
    C0633     R1700     1
    C0633     R1701     1
    C0633     R1702     1
    C0633     R1703     1
    C0633     R1783     -2
    C0633     R1784     -2
    C0633     R1785     -2
    C0633     R1786     -1
    C0633     R1787     -2
    C0633     R1825     -2
    C0633     R1826     -2
    C0633     R1827     -2
    C0633     R1828     -2
    C0633     R1829     -2
    C0633     R1909     1
    C0633     R1910     1
    C0633     R1911     1
    C0633     R1912     1
    C0633     R1913     1
    C0633     R1957     1
    C0633     R1958     1
    C0633     R1959     1
    C0633     R2197     1
    C0633     R2198     1
    C0633     R2199     1
    C0633     R2242     1
    C0633     R2243     1
    C0633     R2244     1
    C0633     R2245     1
    C0633     R2332     -1
    C0633     R2333     -1
    C0633     R2334     -1
    C0633     R2335     -1
    C0633     R2377     -1
    C0633     R2378     -1
    C0633     R2379     -1
    C0633     R2380     -1
    C0633     R2467     1
    C0633     R2468     1
    C0633     R2469     1
    C0633     R2470     1
    C0633     R2509     1
    C0633     R2510     1
    C0633     R2511     1
    C0633     R2512     1
    C0633     R2513     1
    C0633     R2593     -2
    C0633     R2594     -2
    C0633     R2595     -2
    C0633     R2596     -1
    C0633     R2597     -2
    C0633     R2635     -2
    C0633     R2636     -2
    C0633     R2637     -2
    C0633     R2638     -2
    C0633     R2639     -2
    C0633     R2719     1
    C0633     R2720     1
    C0633     R2721     1
    C0633     R2722     1
    C0633     R2723     1
    C0633     R2782     -1
    C0635     R0921     1
    C0635     R1029     1
    C0635     R1149     1
    C0635     R1150     1
    C0635     R1151     1
    C0635     R1389     1
    C0635     R1390     1
    C0635     R1391     1
    C0635     R1434     1
    C0635     R1435     1
    C0635     R1571     1
    C0635     R1572     1
    C0635     R1659     -1
    C0635     R1660     -1
    C0635     R1661     -1
    C0635     R1662     -1
    C0635     R1701     1
    C0635     R1702     1
    C0635     R1703     1
    C0635     R1704     1
    C0635     R1705     1
    C0635     R1785     -2
    C0635     R1786     -1
    C0635     R1787     -2
    C0635     R1788     -1
    C0635     R1789     -2
    C0635     R1827     -2
    C0635     R1828     -2
    C0635     R1829     -2
    C0635     R1830     -2
    C0635     R1831     -2
    C0635     R1911     1
    C0635     R1912     1
    C0635     R1913     1
    C0635     R1914     1
    C0635     R1915     1
    C0635     R1959     1
    C0635     R1960     1
    C0635     R1961     1
    C0635     R2199     1
    C0635     R2200     1
    C0635     R2201     1
    C0635     R2244     1
    C0635     R2245     1
    C0635     R2246     1
    C0635     R2247     1
    C0635     R2334     -1
    C0635     R2335     -1
    C0635     R2336     -1
    C0635     R2337     -1
    C0635     R2379     -1
    C0635     R2380     -1
    C0635     R2381     -1
    C0635     R2382     -1
    C0635     R2469     1
    C0635     R2470     1
    C0635     R2471     1
    C0635     R2472     1
    C0635     R2511     1
    C0635     R2512     1
    C0635     R2513     1
    C0635     R2514     1
    C0635     R2515     1
    C0635     R2595     -2
    C0635     R2596     -1
    C0635     R2597     -2
    C0635     R2598     -1
    C0635     R2599     -2
    C0635     R2637     -2
    C0635     R2638     -2
    C0635     R2639     -2
    C0635     R2640     -2
    C0635     R2641     -2
    C0635     R2721     1
    C0635     R2722     1
    C0635     R2723     1
    C0635     R2724     1
    C0635     R2725     1
    C0635     R2782     -1
    C0637     R0923     1
    C0637     R1031     1
    C0637     R1151     1
    C0637     R1152     1
    C0637     R1153     1
    C0637     R1391     1
    C0637     R1392     1
    C0637     R1393     1
    C0637     R1528     -1
    C0637     R1571     1
    C0637     R1572     1
    C0637     R1573     1
    C0637     R1661     -1
    C0637     R1662     -1
    C0637     R1703     1
    C0637     R1704     1
    C0637     R1705     1
    C0637     R1787     -2
    C0637     R1788     -1
    C0637     R1789     -2
    C0637     R1829     -2
    C0637     R1830     -2
    C0637     R1831     -2
    C0637     R1913     1
    C0637     R1914     1
    C0637     R1915     1
    C0637     R1961     1
    C0637     R1962     1
    C0637     R1963     1
    C0637     R2201     1
    C0637     R2202     1
    C0637     R2203     1
    C0637     R2246     1
    C0637     R2247     1
    C0637     R2248     1
    C0637     R2336     -1
    C0637     R2337     -1
    C0637     R2338     -1
    C0637     R2381     -1
    C0637     R2382     -1
    C0637     R2383     -1
    C0637     R2471     1
    C0637     R2472     1
    C0637     R2473     1
    C0637     R2513     1
    C0637     R2514     1
    C0637     R2515     1
    C0637     R2597     -2
    C0637     R2598     -1
    C0637     R2599     -2
    C0637     R2639     -2
    C0637     R2640     -2
    C0637     R2641     -2
    C0637     R2723     1
    C0637     R2724     1
    C0637     R2725     1
    C0637     R2782     -1
    C0639     R0925     1
    C0639     R1033     1
    C0639     R1153     1
    C0639     R1393     1
    C0639     R1528     -1
    C0639     R1573     1
    C0639     R1705     1
    C0639     R1789     -2
    C0639     R1831     -2
    C0639     R1915     1
    C0639     R1963     1
    C0639     R2203     1
    C0639     R2248     1
    C0639     R2338     -1
    C0639     R2383     -1
    C0639     R2473     1
    C0639     R2515     1
    C0639     R2599     -2
    C0639     R2641     -2
    C0639     R2725     1
    C0639     R2782     -1
    C0649     R0859     1
    C0649     R0917     1
    C0650     R0859     1
    C0650     R0918     1
    C0651     R0859     1
    C0651     R0919     1
    C0652     R0859     1
    C0652     R0920     1
    C0653     R0859     1
    C0653     R0921     1
    C0654     R0859     1
    C0654     R0922     1
    C0655     R0859     1
    C0655     R0923     1
    C0656     R0859     1
    C0656     R0924     1
    C0657     R0859     1
    C0657     R0925     1
    C0663     R0786     1
    C0663     R0877     1
    C0663     R0931     1
    C0663     R1058     1
    C0663     R1255     1
    C0663     R1398     -1
    C0663     R1399     -1
    C0663     R1444     1
    C0663     R1668     -1
    C0663     R1669     -3
    C0663     R1835     -2
    C0663     R1836     -1
    C0663     R1837     -2
    C0663     R2065     1
    C0663     R2207     -1
    C0663     R2208     -1
    C0663     R2209     -1
    C0663     R2254     1
    C0663     R2344     1
    C0663     R2388     -1
    C0663     R2476     -1
    C0663     R2477     -2
    C0663     R2479     -3
    C0663     R2646     -1
    C0663     R2647     -2
    C0663     R2729     1
    C0663     R2735     1
    C0663     R2747     1
    C0663     R2753     1
    C0663     R2764     1
    C0665     R0786     1
    C0665     R0879     1
    C0665     R0933     1
    C0665     R1058     1
    C0665     R1160     1
    C0665     R1161     1
    C0665     R1255     1
    C0665     R1256     1
    C0665     R1257     1
    C0665     R1398     -1
    C0665     R1399     -1
    C0665     R1444     1
    C0665     R1446     1
    C0665     R1535     -1
    C0665     R1536     -1
    C0665     R1580     1
    C0665     R1668     -1
    C0665     R1669     -3
    C0665     R1670     -3
    C0665     R1671     -3
    C0665     R1712     1
    C0665     R1713     1
    C0665     R1835     -2
    C0665     R1836     -1
    C0665     R1837     -2
    C0665     R1838     -2
    C0665     R1839     -2
    C0665     R1970     1
    C0665     R1971     1
    C0665     R2065     1
    C0665     R2066     1
    C0665     R2067     1
    C0665     R2208     -1
    C0665     R2209     -1
    C0665     R2210     -1
    C0665     R2211     -1
    C0665     R2254     1
    C0665     R2255     1
    C0665     R2256     1
    C0665     R2344     1
    C0665     R2345     1
    C0665     R2346     1
    C0665     R2388     -1
    C0665     R2390     -1
    C0665     R2391     -1
    C0665     R2477     -2
    C0665     R2479     -3
    C0665     R2480     -3
    C0665     R2481     -3
    C0665     R2522     1
    C0665     R2523     1
    C0665     R2646     -1
    C0665     R2647     -2
    C0665     R2648     -2
    C0665     R2649     -2
    C0665     R2729     1
    C0665     R2735     1
    C0665     R2747     1
    C0665     R2753     1
    C0665     R2764     1
    C0665     R2804     1
    C0665     R2805     1
    C0666     OBJ       65
    C0666     R0786     1
    C0666     R0880     1
    C0666     R0934     1
    C0666     R1058     1
    C0666     R1160     1
    C0666     R1161     1
    C0666     R1162     1
    C0666     R1256     1
    C0666     R1257     1
    C0666     R1258     1
    C0666     R1399     -1
    C0666     R1444     1
    C0666     R1446     1
    C0666     R1447     1
    C0666     R1535     -1
    C0666     R1536     -1
    C0666     R1537     -1
    C0666     R1580     1
    C0666     R1668     -1
    C0666     R1669     -3
    C0666     R1670     -3
    C0666     R1671     -3
    C0666     R1672     -2
    C0666     R1712     1
    C0666     R1713     1
    C0666     R1714     1
    C0666     R1836     -1
    C0666     R1837     -2
    C0666     R1838     -2
    C0666     R1839     -2
    C0666     R1840     -2
    C0666     R1923     1
    C0666     R1924     1
    C0666     R2115     1
    C0666     R2116     1
    C0666     R2209     1
    C0666     R2210     1
    C0666     R2211     1
    C0666     R2212     1
    C0666     R2255     -1
    C0666     R2256     -1
    C0666     R2257     -1
    C0666     R2344     -1
    C0666     R2345     -1
    C0666     R2346     -1
    C0666     R2347     -1
    C0666     R2390     1
    C0666     R2391     1
    C0666     R2392     1
    C0666     R2521     -2
    C0666     R2522     -2
    C0666     R2523     -2
    C0666     R2524     -2
    C0666     R2605     -3
    C0666     R2606     -3
    C0666     R2607     -3
    C0666     R2608     -2
    C0666     R2648     1
    C0666     R2649     1
    C0666     R2650     1
    C0666     R2729     1
    C0666     R2735     1
    C0666     R2744     1
    C0666     R2756     1
    C0666     R2804     1
    C0666     R2805     1
    C0666     R2806     1
    C0667     R0787     1
    C0667     R0881     1
    C0667     R0935     1
    C0667     R1058     1
    C0667     R1161     1
    C0667     R1162     1
    C0667     R1163     1
    C0667     R1257     1
    C0667     R1258     1
    C0667     R1259     1
    C0667     R1446     1
    C0667     R1447     1
    C0667     R1448     1
    C0667     R1535     -1
    C0667     R1536     -1
    C0667     R1537     -1
    C0667     R1538     -1
    C0667     R1580     1
    C0667     R1669     -2
    C0667     R1670     -2
    C0667     R1671     -2
    C0667     R1672     -2
    C0667     R1673     -1
    C0667     R1711     1
    C0667     R1712     1
    C0667     R1713     1
    C0667     R1714     1
    C0667     R1715     1
    C0667     R1795     1
    C0667     R1796     1
    C0667     R1797     1
    C0667     R1798     1
    C0667     R1799     1
    C0667     R1837     -1
    C0667     R1838     -2
    C0667     R1839     -2
    C0667     R1840     -2
    C0667     R1841     -2
    C0667     R1971     1
    C0667     R1972     1
    C0667     R1973     1
    C0667     R2067     1
    C0667     R2068     1
    C0667     R2069     1
    C0667     R2210     -1
    C0667     R2211     -1
    C0667     R2212     -1
    C0667     R2213     -1
    C0667     R2255     1
    C0667     R2256     1
    C0667     R2257     1
    C0667     R2258     1
    C0667     R2345     1
    C0667     R2346     1
    C0667     R2347     1
    C0667     R2348     1
    C0667     R2390     -1
    C0667     R2391     -1
    C0667     R2392     -1
    C0667     R2393     -1
    C0667     R2479     -2
    C0667     R2480     -2
    C0667     R2481     -2
    C0667     R2482     -2
    C0667     R2483     -1
    C0667     R2521     1
    C0667     R2522     1
    C0667     R2523     1
    C0667     R2524     1
    C0667     R2525     1
    C0667     R2605     1
    C0667     R2606     1
    C0667     R2607     1
    C0667     R2608     1
    C0667     R2609     1
    C0667     R2647     -1
    C0667     R2648     -2
    C0667     R2649     -2
    C0667     R2650     -2
    C0667     R2651     -2
    C0667     R2764     -1
    C0667     R2804     1
    C0667     R2805     1
    C0667     R2806     1
    C0668     OBJ       65
    C0668     R0787     1
    C0668     R0882     1
    C0668     R0936     1
    C0668     R1058     1
    C0668     R1162     1
    C0668     R1163     1
    C0668     R1164     1
    C0668     R1258     1
    C0668     R1259     1
    C0668     R1260     1
    C0668     R1446     1
    C0668     R1447     1
    C0668     R1448     1
    C0668     R1449     1
    C0668     R1536     -1
    C0668     R1537     -1
    C0668     R1538     -1
    C0668     R1539     -1
    C0668     R1670     -2
    C0668     R1671     -2
    C0668     R1672     -2
    C0668     R1673     -1
    C0668     R1674     -2
    C0668     R1712     1
    C0668     R1713     1
    C0668     R1714     1
    C0668     R1715     1
    C0668     R1716     1
    C0668     R1796     1
    C0668     R1797     1
    C0668     R1798     1
    C0668     R1799     1
    C0668     R1800     1
    C0668     R1838     -2
    C0668     R1839     -2
    C0668     R1840     -2
    C0668     R1841     -2
    C0668     R1842     -2
    C0668     R1924     1
    C0668     R1925     1
    C0668     R1926     1
    C0668     R2116     1
    C0668     R2117     1
    C0668     R2118     1
    C0668     R2211     1
    C0668     R2212     1
    C0668     R2213     1
    C0668     R2214     1
    C0668     R2256     -1
    C0668     R2257     -1
    C0668     R2258     -1
    C0668     R2259     -1
    C0668     R2346     -1
    C0668     R2347     -1
    C0668     R2348     -1
    C0668     R2349     -1
    C0668     R2391     1
    C0668     R2392     1
    C0668     R2393     1
    C0668     R2394     1
    C0668     R2480     1
    C0668     R2481     1
    C0668     R2482     1
    C0668     R2483     1
    C0668     R2484     1
    C0668     R2522     -2
    C0668     R2523     -2
    C0668     R2524     -2
    C0668     R2525     -2
    C0668     R2526     -2
    C0668     R2606     -2
    C0668     R2607     -2
    C0668     R2608     -2
    C0668     R2609     -2
    C0668     R2610     -2
    C0668     R2648     1
    C0668     R2649     1
    C0668     R2650     1
    C0668     R2651     1
    C0668     R2652     1
    C0668     R2805     1
    C0668     R2806     1
    C0669     R0787     1
    C0669     R0883     1
    C0669     R0937     1
    C0669     R1058     1
    C0669     R1163     1
    C0669     R1164     1
    C0669     R1165     1
    C0669     R1259     1
    C0669     R1260     1
    C0669     R1261     1
    C0669     R1405     -1
    C0669     R1447     1
    C0669     R1448     1
    C0669     R1449     1
    C0669     R1450     1
    C0669     R1537     -1
    C0669     R1538     -1
    C0669     R1539     -1
    C0669     R1671     -2
    C0669     R1672     -2
    C0669     R1673     -1
    C0669     R1674     -2
    C0669     R1675     -1
    C0669     R1713     1
    C0669     R1714     1
    C0669     R1715     1
    C0669     R1716     1
    C0669     R1717     1
    C0669     R1797     1
    C0669     R1798     1
    C0669     R1799     1
    C0669     R1800     1
    C0669     R1801     1
    C0669     R1839     -2
    C0669     R1840     -2
    C0669     R1841     -2
    C0669     R1842     -2
    C0669     R1843     -2
    C0669     R1973     1
    C0669     R1974     1
    C0669     R1975     1
    C0669     R2069     1
    C0669     R2070     1
    C0669     R2071     1
    C0669     R2212     -1
    C0669     R2213     -1
    C0669     R2214     -1
    C0669     R2215     -1
    C0669     R2257     1
    C0669     R2258     1
    C0669     R2259     1
    C0669     R2260     1
    C0669     R2347     1
    C0669     R2348     1
    C0669     R2349     1
    C0669     R2350     1
    C0669     R2392     -1
    C0669     R2393     -1
    C0669     R2394     -1
    C0669     R2395     -1
    C0669     R2481     -2
    C0669     R2482     -2
    C0669     R2483     -1
    C0669     R2484     -2
    C0669     R2485     -1
    C0669     R2523     1
    C0669     R2524     1
    C0669     R2525     1
    C0669     R2526     1
    C0669     R2527     1
    C0669     R2607     1
    C0669     R2608     1
    C0669     R2609     1
    C0669     R2610     1
    C0669     R2611     1
    C0669     R2649     -2
    C0669     R2650     -2
    C0669     R2651     -2
    C0669     R2652     -2
    C0669     R2653     -2
    C0669     R2764     -1
    C0669     R2806     1
    C0670     OBJ       65
    C0670     R0787     1
    C0670     R0884     1
    C0670     R0938     1
    C0670     R1058     1
    C0670     R1164     1
    C0670     R1165     1
    C0670     R1166     1
    C0670     R1260     1
    C0670     R1261     1
    C0670     R1262     1
    C0670     R1405     -1
    C0670     R1406     -1
    C0670     R1448     1
    C0670     R1449     1
    C0670     R1450     1
    C0670     R1538     -1
    C0670     R1539     -1
    C0670     R1586     1
    C0670     R1672     -2
    C0670     R1673     -1
    C0670     R1674     -2
    C0670     R1675     -1
    C0670     R1676     -2
    C0670     R1714     1
    C0670     R1715     1
    C0670     R1716     1
    C0670     R1717     1
    C0670     R1718     1
    C0670     R1798     1
    C0670     R1799     1
    C0670     R1800     1
    C0670     R1801     1
    C0670     R1802     1
    C0670     R1840     -2
    C0670     R1841     -2
    C0670     R1842     -2
    C0670     R1843     -2
    C0670     R1844     -2
    C0670     R1926     1
    C0670     R1927     1
    C0670     R1928     1
    C0670     R2118     1
    C0670     R2119     1
    C0670     R2120     1
    C0670     R2213     1
    C0670     R2214     1
    C0670     R2215     1
    C0670     R2216     1
    C0670     R2258     -1
    C0670     R2259     -1
    C0670     R2260     -1
    C0670     R2261     -1
    C0670     R2348     -1
    C0670     R2349     -1
    C0670     R2350     -1
    C0670     R2351     -1
    C0670     R2393     1
    C0670     R2394     1
    C0670     R2395     1
    C0670     R2396     1
    C0670     R2482     1
    C0670     R2483     1
    C0670     R2484     1
    C0670     R2485     1
    C0670     R2486     1
    C0670     R2524     -2
    C0670     R2525     -2
    C0670     R2526     -2
    C0670     R2527     -2
    C0670     R2528     -2
    C0670     R2608     -2
    C0670     R2609     -2
    C0670     R2610     -2
    C0670     R2611     -2
    C0670     R2612     -2
    C0670     R2650     1
    C0670     R2651     1
    C0670     R2652     1
    C0670     R2653     1
    C0670     R2654     1
    C0671     R2806     1
    C0671     R0787     1
    C0671     R0885     1
    C0671     R0939     1
    C0671     R1058     1
    C0671     R1165     1
    C0671     R1166     1
    C0671     R1167     1
    C0671     R1261     1
    C0671     R1262     1
    C0671     R1263     1
    C0671     R1405     -1
    C0671     R1406     -1
    C0671     R1449     1
    C0671     R1450     1
    C0671     R1452     1
    C0671     R1539     -1
    C0671     R1542     -1
    C0671     R1586     1
    C0671     R1673     -1
    C0671     R1674     -2
    C0671     R1675     -1
    C0671     R1676     -2
    C0671     R1677     -1
    C0671     R1715     1
    C0671     R1716     1
    C0671     R1717     1
    C0671     R1718     1
    C0671     R1719     1
    C0671     R1799     1
    C0671     R1800     1
    C0671     R1801     1
    C0671     R1802     1
    C0671     R1803     1
    C0671     R1841     -2
    C0671     R1842     -2
    C0671     R1843     -2
    C0671     R1844     -2
    C0671     R1845     -2
    C0671     R1975     1
    C0671     R1976     1
    C0671     R1977     1
    C0671     R2071     1
    C0671     R2072     1
    C0671     R2073     1
    C0671     R2214     -1
    C0671     R2215     -1
    C0671     R2216     -1
    C0671     R2217     -1
    C0671     R2259     1
    C0671     R2260     1
    C0671     R2261     1
    C0671     R2262     1
    C0671     R2349     1
    C0671     R2350     1
    C0671     R2351     1
    C0671     R2352     1
    C0671     R2394     -1
    C0671     R2395     -1
    C0671     R2396     -1
    C0671     R2397     -1
    C0671     R2483     -1
    C0671     R2484     -2
    C0671     R2485     -1
    C0671     R2486     -2
    C0671     R2487     -1
    C0671     R2525     1
    C0671     R2526     1
    C0671     R2527     1
    C0671     R2528     1
    C0671     R2529     1
    C0671     R2609     1
    C0671     R2610     1
    C0671     R2611     1
    C0671     R2612     1
    C0671     R2613     1
    C0671     R2651     -2
    C0671     R2652     -2
    C0671     R2653     -2
    C0671     R2654     -2
    C0671     R2655     -2
    C0671     R2764     -1
    C0672     OBJ       65
    C0672     R0787     1
    C0672     R0886     1
    C0672     R0940     1
    C0672     R1058     1
    C0672     R1166     1
    C0672     R1167     1
    C0672     R1168     1
    C0672     R1262     1
    C0672     R1263     1
    C0672     R1264     1
    C0672     R1405     -1
    C0672     R1406     -1
    C0672     R1408     -1
    C0672     R1450     1
    C0672     R1452     1
    C0672     R1542     -1
    C0672     R1586     1
    C0672     R1588     1
    C0672     R1674     -2
    C0672     R1675     -1
    C0672     R1676     -2
    C0672     R1677     -1
    C0672     R1716     1
    C0672     R1717     1
    C0672     R1718     1
    C0672     R1719     1
    C0672     R1800     1
    C0672     R1801     1
    C0672     R1802     1
    C0672     R1803     1
    C0672     R1842     -2
    C0672     R1843     -2
    C0672     R1844     -2
    C0672     R1845     -2
    C0672     R1928     1
    C0672     R1929     1
    C0672     R1930     1
    C0672     R2120     1
    C0672     R2121     1
    C0672     R2122     1
    C0672     R2215     1
    C0672     R2216     1
    C0672     R2217     1
    C0672     R2218     1
    C0672     R2260     -1
    C0672     R2261     -1
    C0672     R2262     -1
    C0672     R2263     -1
    C0672     R2350     -1
    C0672     R2351     -1
    C0672     R2352     -1
    C0672     R2353     -1
    C0672     R2395     1
    C0672     R2396     1
    C0672     R2397     1
    C0672     R2398     1
    C0672     R2484     1
    C0672     R2485     1
    C0672     R2486     1
    C0672     R2487     1
    C0672     R2526     -2
    C0672     R2527     -2
    C0672     R2528     -2
    C0672     R2529     -2
    C0672     R2610     -2
    C0672     R2611     -2
    C0672     R2612     -2
    C0672     R2613     -2
    C0672     R2652     1
    C0672     R2653     1
    C0672     R2654     1
    C0672     R2655     1
    C0673     R2806     1
    C0673     R0787     1
    C0673     R0887     1
    C0673     R0941     1
    C0673     R1058     1
    C0673     R1167     1
    C0673     R1168     1
    C0673     R1169     1
    C0673     R1263     1
    C0673     R1264     1
    C0673     R1265     1
    C0673     R1406     -1
    C0673     R1408     -1
    C0673     R1452     1
    C0673     R1542     -1
    C0673     R1586     1
    C0673     R1588     1
    C0673     R1675     -1
    C0673     R1676     -2
    C0673     R1677     -1
    C0673     R1717     1
    C0673     R1718     1
    C0673     R1719     1
    C0673     R1801     1
    C0673     R1802     1
    C0673     R1803     1
    C0673     R1843     -2
    C0673     R1844     -2
    C0673     R1845     -2
    C0673     R1977     1
    C0673     R1978     1
    C0673     R1979     1
    C0673     R2073     1
    C0673     R2074     1
    C0673     R2075     1
    C0673     R2216     -1
    C0673     R2217     -1
    C0673     R2218     -1
    C0673     R2261     1
    C0673     R2262     1
    C0673     R2263     1
    C0673     R2351     1
    C0673     R2352     1
    C0673     R2353     1
    C0673     R2396     -1
    C0673     R2397     -1
    C0673     R2398     -1
    C0673     R2485     -1
    C0673     R2486     -2
    C0673     R2487     -1
    C0673     R2527     1
    C0673     R2528     1
    C0673     R2529     1
    C0673     R2611     1
    C0673     R2612     1
    C0673     R2613     1
    C0673     R2653     -2
    C0673     R2654     -2
    C0673     R2655     -2
    C0673     R2764     -1
    C0674     OBJ       65
    C0674     R0787     1
    C0674     R0888     1
    C0674     R0942     1
    C0674     R1058     1
    C0674     R1168     1
    C0674     R1169     1
    C0674     R1264     1
    C0674     R1265     1
    C0674     R1408     -1
    C0674     R1452     1
    C0674     R1542     -1
    C0674     R1588     1
    C0674     R1676     -2
    C0674     R1677     -1
    C0674     R1718     1
    C0674     R1719     1
    C0674     R1802     1
    C0674     R1803     1
    C0674     R1844     -2
    C0674     R1845     -2
    C0674     R1930     1
    C0674     R1931     1
    C0674     R2122     1
    C0674     R2123     1
    C0674     R2217     1
    C0674     R2218     1
    C0674     R2262     -1
    C0674     R2263     -1
    C0674     R2352     -1
    C0674     R2353     -1
    C0674     R2397     1
    C0674     R2398     1
    C0674     R2486     1
    C0674     R2487     1
    C0674     R2528     -2
    C0674     R2529     -2
    C0674     R2612     -2
    C0674     R2613     -2
    C0674     R2654     1
    C0674     R2655     1
    C0675     R2806     1
    C0675     R0787     1
    C0675     R0889     1
    C0675     R0943     1
    C0675     R1058     1
    C0675     R1169     1
    C0675     R1265     1
    C0675     R1408     -1
    C0675     R1588     1
    C0675     R1677     -1
    C0675     R1719     1
    C0675     R1803     1
    C0675     R1845     -2
    C0675     R1979     1
    C0675     R2075     1
    C0675     R2218     -1
    C0675     R2263     1
    C0675     R2353     1
    C0675     R2398     -1
    C0675     R2487     -1
    C0675     R2529     1
    C0675     R2613     1
    C0675     R2655     -2
    C0675     R2764     -1
    C0685     R0801     1
    C0685     R0899     1
    C0685     R0935     1
    C0685     R1161     1
    C0685     R1162     1
    C0685     R1163     1
    C0685     R1273     1
    C0685     R1274     1
    C0685     R1275     1
    C0685     R1415     -1
    C0685     R1416     -1
    C0685     R1418     -1
    C0685     R1446     1
    C0685     R1447     1
    C0685     R1448     1
    C0685     R1552     -1
    C0685     R1580     1
    C0685     R1683     -2
    C0685     R1684     -2
    C0685     R1685     -2
    C0685     R1686     -2
    C0685     R1687     -2
    C0685     R1711     1
    C0685     R1712     1
    C0685     R1713     1
    C0685     R1714     1
    C0685     R1715     1
    C0685     R1809     1
    C0685     R1810     1
    C0685     R1811     1
    C0685     R1812     1
    C0685     R1813     1
    C0685     R1837     -1
    C0685     R1838     -2
    C0685     R1839     -2
    C0685     R1840     -2
    C0685     R1841     -2
    C0685     R1971     1
    C0685     R1972     1
    C0685     R1973     1
    C0685     R2083     1
    C0685     R2084     1
    C0685     R2085     1
    C0685     R2225     -1
    C0685     R2226     -1
    C0685     R2227     -1
    C0685     R2228     -1
    C0685     R2255     1
    C0685     R2256     1
    C0685     R2257     1
    C0685     R2258     1
    C0685     R2360     1
    C0685     R2361     1
    C0685     R2362     1
    C0685     R2363     1
    C0685     R2390     -1
    C0685     R2391     -1
    C0685     R2392     -1
    C0685     R2393     -1
    C0685     R2493     -2
    C0685     R2494     -2
    C0685     R2495     -2
    C0685     R2496     -2
    C0685     R2497     -2
    C0685     R2521     1
    C0685     R2522     1
    C0685     R2523     1
    C0685     R2524     1
    C0685     R2525     1
    C0685     R2619     1
    C0685     R2620     1
    C0685     R2621     1
    C0685     R2622     1
    C0685     R2623     1
    C0685     R2647     -1
    C0685     R2648     -2
    C0685     R2649     -2
    C0685     R2650     -2
    C0685     R2651     -2
    C0687     R0801     1
    C0687     R0901     1
    C0687     R0937     1
    C0687     R1163     1
    C0687     R1164     1
    C0687     R1165     1
    C0687     R1275     1
    C0687     R1276     1
    C0687     R1277     1
    C0687     R1418     -1
    C0687     R1419     -1
    C0687     R1420     -1
    C0687     R1447     1
    C0687     R1448     1
    C0687     R1449     1
    C0687     R1450     1
    C0687     R1552     -1
    C0687     R1685     -2
    C0687     R1686     -2
    C0687     R1687     -2
    C0687     R1688     -2
    C0687     R1689     -2
    C0687     R1713     1
    C0687     R1714     1
    C0687     R1715     1
    C0687     R1716     1
    C0687     R1717     1
    C0687     R1811     1
    C0687     R1812     1
    C0687     R1813     1
    C0687     R1814     1
    C0687     R1815     1
    C0687     R1839     -2
    C0687     R1840     -2
    C0687     R1841     -2
    C0687     R1842     -2
    C0687     R1843     -2
    C0687     R1973     1
    C0687     R1974     1
    C0687     R1975     1
    C0687     R2085     1
    C0687     R2086     1
    C0687     R2087     1
    C0687     R2227     -1
    C0687     R2228     -1
    C0687     R2229     -1
    C0687     R2230     -1
    C0687     R2257     1
    C0687     R2258     1
    C0687     R2259     1
    C0687     R2260     1
    C0687     R2362     1
    C0687     R2363     1
    C0687     R2364     1
    C0687     R2365     1
    C0687     R2392     -1
    C0687     R2393     -1
    C0687     R2394     -1
    C0687     R2395     -1
    C0687     R2495     -2
    C0687     R2496     -2
    C0687     R2497     -2
    C0687     R2498     -2
    C0687     R2499     -2
    C0687     R2523     1
    C0687     R2524     1
    C0687     R2525     1
    C0687     R2526     1
    C0687     R2527     1
    C0687     R2621     1
    C0687     R2622     1
    C0687     R2623     1
    C0687     R2624     1
    C0687     R2625     1
    C0687     R2649     -2
    C0687     R2650     -2
    C0687     R2651     -2
    C0687     R2652     -2
    C0687     R2653     -2
    C0689     R0801     1
    C0689     R0903     1
    C0689     R0939     1
    C0689     R1165     1
    C0689     R1166     1
    C0689     R1167     1
    C0689     R1277     1
    C0689     R1278     1
    C0689     R1279     1
    C0689     R1419     -1
    C0689     R1420     -1
    C0689     R1421     -1
    C0689     R1422     -1
    C0689     R1449     1
    C0689     R1450     1
    C0689     R1452     1
    C0689     R1586     1
    C0689     R1687     -2
    C0689     R1688     -2
    C0689     R1689     -2
    C0689     R1690     -2
    C0689     R1691     -2
    C0689     R1715     1
    C0689     R1716     1
    C0689     R1717     1
    C0689     R1718     1
    C0689     R1719     1
    C0689     R1813     1
    C0689     R1814     1
    C0689     R1815     1
    C0689     R1816     1
    C0689     R1817     1
    C0689     R1841     -2
    C0689     R1842     -2
    C0689     R1843     -2
    C0689     R1844     -2
    C0689     R1845     -2
    C0689     R1975     1
    C0689     R1976     1
    C0689     R1977     1
    C0689     R2087     1
    C0689     R2088     1
    C0689     R2089     1
    C0689     R2229     -1
    C0689     R2230     -1
    C0689     R2231     -1
    C0689     R2232     -1
    C0689     R2259     1
    C0689     R2260     1
    C0689     R2261     1
    C0689     R2262     1
    C0689     R2364     1
    C0689     R2365     1
    C0689     R2366     1
    C0689     R2367     1
    C0689     R2394     -1
    C0689     R2395     -1
    C0689     R2396     -1
    C0689     R2397     -1
    C0689     R2497     -2
    C0689     R2498     -2
    C0689     R2499     -2
    C0689     R2500     -2
    C0689     R2501     -2
    C0689     R2525     1
    C0689     R2526     1
    C0689     R2527     1
    C0689     R2528     1
    C0689     R2529     1
    C0689     R2623     1
    C0689     R2624     1
    C0689     R2625     1
    C0689     R2626     1
    C0689     R2627     1
    C0689     R2651     -2
    C0689     R2652     -2
    C0689     R2653     -2
    C0689     R2654     -2
    C0689     R2655     -2
    C0691     R0801     1
    C0691     R0905     1
    C0691     R0941     1
    C0691     R1167     1
    C0691     R1168     1
    C0691     R1169     1
    C0691     R1279     1
    C0691     R1280     1
    C0691     R1281     1
    C0691     R1421     -1
    C0691     R1422     -1
    C0691     R1423     -1
    C0691     R1452     1
    C0691     R1586     1
    C0691     R1588     1
    C0691     R1689     -2
    C0691     R1690     -2
    C0691     R1691     -2
    C0691     R1717     1
    C0691     R1718     1
    C0691     R1719     1
    C0691     R1815     1
    C0691     R1816     1
    C0691     R1817     1
    C0691     R1843     -2
    C0691     R1844     -2
    C0691     R1845     -2
    C0691     R1977     1
    C0691     R1978     1
    C0691     R1979     1
    C0691     R2089     1
    C0691     R2090     1
    C0691     R2091     1
    C0691     R2231     -1
    C0691     R2232     -1
    C0691     R2233     -1
    C0691     R2261     1
    C0691     R2262     1
    C0691     R2263     1
    C0691     R2366     1
    C0691     R2367     1
    C0691     R2368     1
    C0691     R2396     -1
    C0691     R2397     -1
    C0691     R2398     -1
    C0691     R2499     -2
    C0691     R2500     -2
    C0691     R2501     -2
    C0691     R2527     1
    C0691     R2528     1
    C0691     R2529     1
    C0691     R2625     1
    C0691     R2626     1
    C0691     R2627     1
    C0691     R2653     -2
    C0691     R2654     -2
    C0691     R2655     -2
    C0693     R0801     1
    C0693     R0907     1
    C0693     R0943     1
    C0693     R1169     1
    C0693     R1281     1
    C0693     R1423     -1
    C0693     R1588     1
    C0693     R1691     -2
    C0693     R1719     1
    C0693     R1817     1
    C0693     R1845     -2
    C0693     R1979     1
    C0693     R2091     1
    C0693     R2233     -1
    C0693     R2263     1
    C0693     R2368     1
    C0693     R2398     -1
    C0693     R2501     -2
    C0693     R2529     1
    C0693     R2627     1
    C0693     R2655     -2
    C0703     R0917     1
    C0703     R0935     1
    C0703     R1161     1
    C0703     R1162     1
    C0703     R1163     1
    C0703     R1289     1
    C0703     R1290     1
    C0703     R1291     1
    C0703     R1431     -1
    C0703     R1432     -1
    C0703     R1433     -1
    C0703     R1446     1
    C0703     R1447     1
    C0703     R1448     1
    C0703     R1565     -1
    C0703     R1580     1
    C0703     R1697     -2
    C0703     R1698     -2
    C0703     R1699     -2
    C0703     R1700     -2
    C0703     R1701     -2
    C0703     R1711     1
    C0703     R1712     1
    C0703     R1713     1
    C0703     R1714     1
    C0703     R1715     1
    C0703     R1823     1
    C0703     R1824     1
    C0703     R1825     1
    C0703     R1826     1
    C0703     R1827     1
    C0703     R1837     -1
    C0703     R1838     -2
    C0703     R1839     -2
    C0703     R1840     -2
    C0703     R1841     -2
    C0703     R1971     1
    C0703     R1972     1
    C0703     R1973     1
    C0703     R2099     1
    C0703     R2100     1
    C0703     R2101     1
    C0703     R2240     -1
    C0703     R2241     -1
    C0703     R2242     -1
    C0703     R2243     -1
    C0703     R2255     1
    C0703     R2256     1
    C0703     R2257     1
    C0703     R2258     1
    C0703     R2375     1
    C0703     R2376     1
    C0703     R2377     1
    C0703     R2378     1
    C0703     R2390     -1
    C0703     R2391     -1
    C0703     R2392     -1
    C0703     R2393     -1
    C0703     R2507     -2
    C0703     R2508     -2
    C0703     R2509     -2
    C0703     R2510     -2
    C0703     R2511     -2
    C0703     R2521     1
    C0703     R2522     1
    C0703     R2523     1
    C0703     R2524     1
    C0703     R2525     1
    C0703     R2633     1
    C0703     R2634     1
    C0703     R2635     1
    C0703     R2636     1
    C0703     R2637     1
    C0703     R2647     -1
    C0703     R2648     -2
    C0703     R2649     -2
    C0703     R2650     -2
    C0703     R2651     -2
    C0703     R2777     -1
    C0705     R0919     1
    C0705     R0937     1
    C0705     R1163     1
    C0705     R1164     1
    C0705     R1165     1
    C0705     R1291     1
    C0705     R1292     1
    C0705     R1293     1
    C0705     R1432     -1
    C0705     R1433     -1
    C0705     R1434     -1
    C0705     R1435     -1
    C0705     R1447     1
    C0705     R1448     1
    C0705     R1449     1
    C0705     R1450     1
    C0705     R1699     -2
    C0705     R1700     -2
    C0705     R1701     -2
    C0705     R1702     -2
    C0705     R1703     -2
    C0705     R1713     1
    C0705     R1714     1
    C0705     R1715     1
    C0705     R1716     1
    C0705     R1717     1
    C0705     R1825     1
    C0705     R1826     1
    C0705     R1827     1
    C0705     R1828     1
    C0705     R1829     1
    C0705     R1839     -2
    C0705     R1840     -2
    C0705     R1841     -2
    C0705     R1842     -2
    C0705     R1843     -2
    C0705     R1973     1
    C0705     R1974     1
    C0705     R1975     1
    C0705     R2101     1
    C0705     R2102     1
    C0705     R2103     1
    C0705     R2242     -1
    C0705     R2243     -1
    C0705     R2244     -1
    C0705     R2245     -1
    C0705     R2257     1
    C0705     R2258     1
    C0705     R2259     1
    C0705     R2260     1
    C0705     R2377     1
    C0705     R2378     1
    C0705     R2379     1
    C0705     R2380     1
    C0705     R2392     -1
    C0705     R2393     -1
    C0705     R2394     -1
    C0705     R2395     -1
    C0705     R2509     -2
    C0705     R2510     -2
    C0705     R2511     -2
    C0705     R2512     -2
    C0705     R2513     -2
    C0705     R2523     1
    C0705     R2524     1
    C0705     R2525     1
    C0705     R2526     1
    C0705     R2527     1
    C0705     R2635     1
    C0705     R2636     1
    C0705     R2637     1
    C0705     R2638     1
    C0705     R2639     1
    C0705     R2649     -2
    C0705     R2650     -2
    C0705     R2651     -2
    C0705     R2652     -2
    C0705     R2653     -2
    C0705     R2777     -1
    C0707     R0921     1
    C0707     R0939     1
    C0707     R1165     1
    C0707     R1166     1
    C0707     R1167     1
    C0707     R1293     1
    C0707     R1294     1
    C0707     R1295     1
    C0707     R1434     -1
    C0707     R1435     -1
    C0707     R1449     1
    C0707     R1450     1
    C0707     R1452     1
    C0707     R1571     -1
    C0707     R1572     -1
    C0707     R1586     1
    C0707     R1701     -2
    C0707     R1702     -2
    C0707     R1703     -2
    C0707     R1704     -2
    C0707     R1705     -2
    C0707     R1715     1
    C0707     R1716     1
    C0707     R1717     1
    C0707     R1718     1
    C0707     R1719     1
    C0707     R1827     1
    C0707     R1828     1
    C0707     R1829     1
    C0707     R1830     1
    C0707     R1831     1
    C0707     R1841     -2
    C0707     R1842     -2
    C0707     R1843     -2
    C0707     R1844     -2
    C0707     R1845     -2
    C0707     R1975     1
    C0707     R1976     1
    C0707     R1977     1
    C0707     R2103     1
    C0707     R2104     1
    C0707     R2105     1
    C0707     R2244     -1
    C0707     R2245     -1
    C0707     R2246     -1
    C0707     R2247     -1
    C0707     R2259     1
    C0707     R2260     1
    C0707     R2261     1
    C0707     R2262     1
    C0707     R2379     1
    C0707     R2380     1
    C0707     R2381     1
    C0707     R2382     1
    C0707     R2394     -1
    C0707     R2395     -1
    C0707     R2396     -1
    C0707     R2397     -1
    C0707     R2511     -2
    C0707     R2512     -2
    C0707     R2513     -2
    C0707     R2514     -2
    C0707     R2515     -2
    C0707     R2525     1
    C0707     R2526     1
    C0707     R2527     1
    C0707     R2528     1
    C0707     R2529     1
    C0707     R2637     1
    C0707     R2638     1
    C0707     R2639     1
    C0707     R2640     1
    C0707     R2641     1
    C0707     R2651     -2
    C0707     R2652     -2
    C0707     R2653     -2
    C0707     R2654     -2
    C0707     R2655     -2
    C0707     R2777     -1
    C0709     R0923     1
    C0709     R0941     1
    C0709     R1167     1
    C0709     R1168     1
    C0709     R1169     1
    C0709     R1295     1
    C0709     R1296     1
    C0709     R1297     1
    C0709     R1452     1
    C0709     R1571     -1
    C0709     R1572     -1
    C0709     R1573     -1
    C0709     R1586     1
    C0709     R1588     1
    C0709     R1703     -2
    C0709     R1704     -2
    C0709     R1705     -2
    C0709     R1717     1
    C0709     R1718     1
    C0709     R1719     1
    C0709     R1829     1
    C0709     R1830     1
    C0709     R1831     1
    C0709     R1843     -2
    C0709     R1844     -2
    C0709     R1845     -2
    C0709     R1977     1
    C0709     R1978     1
    C0709     R1979     1
    C0709     R2105     1
    C0709     R2106     1
    C0709     R2107     1
    C0709     R2246     -1
    C0709     R2247     -1
    C0709     R2248     -1
    C0709     R2261     1
    C0709     R2262     1
    C0709     R2263     1
    C0709     R2381     1
    C0709     R2382     1
    C0709     R2383     1
    C0709     R2396     -1
    C0709     R2397     -1
    C0709     R2398     -1
    C0709     R2513     -2
    C0709     R2514     -2
    C0709     R2515     -2
    C0709     R2527     1
    C0709     R2528     1
    C0709     R2529     1
    C0709     R2639     1
    C0709     R2640     1
    C0709     R2641     1
    C0709     R2653     -2
    C0709     R2654     -2
    C0709     R2655     -2
    C0709     R2777     -1
    C0711     R0925     1
    C0711     R0943     1
    C0711     R1169     1
    C0711     R1297     1
    C0711     R1573     -1
    C0711     R1588     1
    C0711     R1705     -2
    C0711     R1719     1
    C0711     R1831     1
    C0711     R1845     -2
    C0711     R1979     1
    C0711     R2107     1
    C0711     R2248     -1
    C0711     R2263     1
    C0711     R2383     1
    C0711     R2398     -1
    C0711     R2515     -2
    C0711     R2529     1
    C0711     R2641     1
    C0711     R2655     -2
    C0711     R2777     -1
    C0722     R0825     1
    C0722     R0936     1
    C0722     R0954     1
    C0722     R1162     1
    C0722     R1163     1
    C0722     R1164     1
    C0722     R1322     1
    C0722     R1323     1
    C0722     R1324     1
    C0722     R1446     1
    C0722     R1447     1
    C0722     R1448     1
    C0722     R1449     1
    C0722     R1463     -1
    C0722     R1596     -1
    C0722     R1597     -1
    C0722     R1599     -1
    C0722     R1712     1
    C0722     R1713     1
    C0722     R1714     1
    C0722     R1715     1
    C0722     R1716     1
    C0722     R1726     -2
    C0722     R1727     -2
    C0722     R1728     -2
    C0722     R1729     -2
    C0722     R1730     -2
    C0722     R1838     -2
    C0722     R1839     -2
    C0722     R1840     -2
    C0722     R1841     -2
    C0722     R1842     -2
    C0722     R1852     1
    C0722     R1853     1
    C0722     R1854     1
    C0722     R1855     1
    C0722     R1856     1
    C0722     R1988     1
    C0722     R1989     1
    C0722     R1990     1
    C0722     R2116     1
    C0722     R2117     1
    C0722     R2118     1
    C0722     R2256     -1
    C0722     R2257     -1
    C0722     R2258     -1
    C0722     R2259     -1
    C0722     R2271     1
    C0722     R2272     1
    C0722     R2273     1
    C0722     R2274     1
    C0722     R2391     1
    C0722     R2392     1
    C0722     R2393     1
    C0722     R2394     1
    C0722     R2406     -1
    C0722     R2407     -1
    C0722     R2408     -1
    C0722     R2409     -1
    C0722     R2522     -2
    C0722     R2523     -2
    C0722     R2524     -2
    C0722     R2525     -2
    C0722     R2526     -2
    C0722     R2536     1
    C0722     R2537     1
    C0722     R2538     1
    C0722     R2539     1
    C0722     R2540     1
    C0722     R2648     1
    C0722     R2649     1
    C0722     R2650     1
    C0722     R2651     1
    C0722     R2652     1
    C0722     R2662     -2
    C0722     R2663     -2
    C0722     R2664     -2
    C0722     R2665     -1
    C0722     R2666     -2
    C0724     R0825     1
    C0724     R0938     1
    C0724     R0956     1
    C0724     R1164     1
    C0724     R1165     1
    C0724     R1166     1
    C0724     R1324     1
    C0724     R1325     1
    C0724     R1326     1
    C0724     R1448     1
    C0724     R1449     1
    C0724     R1450     1
    C0724     R1463     -1
    C0724     R1465     -1
    C0724     R1466     -1
    C0724     R1586     1
    C0724     R1599     -1
    C0724     R1714     1
    C0724     R1715     1
    C0724     R1716     1
    C0724     R1717     1
    C0724     R1718     1
    C0724     R1728     -2
    C0724     R1729     -2
    C0724     R1730     -2
    C0724     R1731     -2
    C0724     R1732     -2
    C0724     R1840     -2
    C0724     R1841     -2
    C0724     R1842     -2
    C0724     R1843     -2
    C0724     R1844     -2
    C0724     R1854     1
    C0724     R1855     1
    C0724     R1856     1
    C0724     R1857     1
    C0724     R1858     1
    C0724     R1990     1
    C0724     R1991     1
    C0724     R1992     1
    C0724     R2118     1
    C0724     R2119     1
    C0724     R2120     1
    C0724     R2258     -1
    C0724     R2259     -1
    C0724     R2260     -1
    C0724     R2261     -1
    C0724     R2273     1
    C0724     R2274     1
    C0724     R2275     1
    C0724     R2276     1
    C0724     R2393     1
    C0724     R2394     1
    C0724     R2395     1
    C0724     R2396     1
    C0724     R2408     -1
    C0724     R2409     -1
    C0724     R2410     -1
    C0724     R2411     -1
    C0724     R2524     -2
    C0724     R2525     -2
    C0724     R2526     -2
    C0724     R2527     -2
    C0724     R2528     -2
    C0724     R2538     1
    C0724     R2539     1
    C0724     R2540     1
    C0724     R2541     1
    C0724     R2542     1
    C0724     R2650     1
    C0724     R2651     1
    C0724     R2652     1
    C0724     R2653     1
    C0724     R2654     1
    C0724     R2664     -2
    C0724     R2665     -1
    C0724     R2666     -2
    C0724     R2667     -1
    C0724     R2668     -2
    C0726     R0825     1
    C0726     R0940     1
    C0726     R0958     1
    C0726     R1166     1
    C0726     R1167     1
    C0726     R1168     1
    C0726     R1326     1
    C0726     R1327     1
    C0726     R1328     1
    C0726     R1450     1
    C0726     R1452     1
    C0726     R1465     -1
    C0726     R1466     -1
    C0726     R1468     -1
    C0726     R1586     1
    C0726     R1588     1
    C0726     R1602     -1
    C0726     R1716     1
    C0726     R1717     1
    C0726     R1718     1
    C0726     R1719     1
    C0726     R1730     -2
    C0726     R1731     -2
    C0726     R1732     -2
    C0726     R1733     -2
    C0726     R1842     -2
    C0726     R1843     -2
    C0726     R1844     -2
    C0726     R1845     -2
    C0726     R1856     1
    C0726     R1857     1
    C0726     R1858     1
    C0726     R1859     1
    C0726     R1992     1
    C0726     R1993     1
    C0726     R1994     1
    C0726     R2120     1
    C0726     R2121     1
    C0726     R2122     1
    C0726     R2260     -1
    C0726     R2261     -1
    C0726     R2262     -1
    C0726     R2263     -1
    C0726     R2275     1
    C0726     R2276     1
    C0726     R2277     1
    C0726     R2278     1
    C0726     R2395     1
    C0726     R2396     1
    C0726     R2397     1
    C0726     R2398     1
    C0726     R2410     -1
    C0726     R2411     -1
    C0726     R2412     -1
    C0726     R2413     -1
    C0726     R2526     -2
    C0726     R2527     -2
    C0726     R2528     -2
    C0726     R2529     -2
    C0726     R2540     1
    C0726     R2541     1
    C0726     R2542     1
    C0726     R2543     1
    C0726     R2652     1
    C0726     R2653     1
    C0726     R2654     1
    C0726     R2655     1
    C0726     R2666     -2
    C0726     R2667     -1
    C0726     R2668     -2
    C0726     R2669     -1
    C0728     R0825     1
    C0728     R0942     1
    C0728     R0960     1
    C0728     R1168     1
    C0728     R1169     1
    C0728     R1328     1
    C0728     R1329     1
    C0728     R1452     1
    C0728     R1468     -1
    C0728     R1588     1
    C0728     R1602     -1
    C0728     R1718     1
    C0728     R1719     1
    C0728     R1732     -2
    C0728     R1733     -2
    C0728     R1844     -2
    C0728     R1845     -2
    C0728     R1858     1
    C0728     R1859     1
    C0728     R1994     1
    C0728     R1995     1
    C0728     R2122     1
    C0728     R2123     1
    C0728     R2262     -1
    C0728     R2263     -1
    C0728     R2277     1
    C0728     R2278     1
    C0728     R2397     1
    C0728     R2398     1
    C0728     R2412     -1
    C0728     R2413     -1
    C0728     R2528     -2
    C0728     R2529     -2
    C0728     R2542     1
    C0728     R2543     1
    C0728     R2654     1
    C0728     R2655     1
    C0728     R2668     -2
    C0728     R2669     -1
    C0753     R0828     1
    C0753     R0931     1
    C0753     R0985     1
    C0753     R1063     1
    C0753     R1351     1
    C0753     R1444     1
    C0753     R1489     -1
    C0753     R1752     -1
    C0753     R1753     -3
    C0753     R1835     -2
    C0753     R1836     -1
    C0753     R1837     -2
    C0753     R1877     1
    C0753     R2161     1
    C0753     R2254     1
    C0753     R2299     -1
    C0753     R2388     -1
    C0753     R2433     1
    C0753     R2434     1
    C0753     R2560     -1
    C0753     R2561     -2
    C0753     R2563     -3
    C0753     R2646     -1
    C0753     R2647     -2
    C0753     R2729     1
    C0753     R2741     1
    C0753     R2747     1
    C0753     R2759     1
    C0753     R2785     1
    C0754     OBJ       99
    C0754     R0828     1
    C0754     R0932     1
    C0754     R0986     1
    C0754     R1063     1
    C0754     R1160     1
    C0754     R1351     1
    C0754     R1352     1
    C0754     R1444     1
    C0754     R1489     -1
    C0754     R1490     -1
    C0754     R1580     1
    C0754     R1712     1
    C0754     R1752     -1
    C0754     R1753     -3
    C0754     R1754     -3
    C0754     R1835     -2
    C0754     R1836     -1
    C0754     R1837     -2
    C0754     R1838     -2
    C0754     R2017     1
    C0754     R2018     1
    C0754     R2112     1
    C0754     R2255     -1
    C0754     R2297     1
    C0754     R2298     1
    C0754     R2299     1
    C0754     R2300     1
    C0754     R2388     1
    C0754     R2390     1
    C0754     R2434     -1
    C0754     R2435     -1
    C0754     R2521     -2
    C0754     R2522     -2
    C0754     R2648     1
    C0754     R2688     -1
    C0754     R2689     -3
    C0754     R2690     -3
    C0754     R2729     1
    C0754     R2741     1
    C0754     R2750     1
    C0754     R2756     1
    C0754     R2867     1
    C0755     R0828     1
    C0755     R0933     1
    C0755     R0987     1
    C0755     R1063     1
    C0755     R1160     1
    C0755     R1161     1
    C0755     R1351     1
    C0755     R1352     1
    C0755     R1353     1
    C0755     R1444     1
    C0755     R1446     1
    C0755     R1489     -1
    C0755     R1490     -1
    C0755     R1491     -1
    C0755     R1580     1
    C0755     R1712     1
    C0755     R1713     1
    C0755     R1752     -1
    C0755     R1753     -3
    C0755     R1754     -3
    C0755     R1755     -3
    C0755     R1835     -2
    C0755     R1836     -1
    C0755     R1837     -2
    C0755     R1838     -2
    C0755     R1839     -2
    C0755     R1877     1
    C0755     R1970     1
    C0755     R1971     1
    C0755     R2161     1
    C0755     R2162     1
    C0755     R2163     1
    C0755     R2254     1
    C0755     R2255     1
    C0755     R2256     1
    C0755     R2299     -1
    C0755     R2300     -1
    C0755     R2301     -1
    C0755     R2388     -1
    C0755     R2390     -1
    C0755     R2391     -1
    C0755     R2433     1
    C0755     R2434     1
    C0755     R2435     1
    C0755     R2436     1
    C0755     R2522     1
    C0755     R2523     1
    C0755     R2561     -2
    C0755     R2563     -3
    C0755     R2564     -3
    C0755     R2565     -3
    C0755     R2646     -1
    C0755     R2647     -2
    C0755     R2648     -2
    C0755     R2649     -2
    C0755     R2729     1
    C0755     R2741     1
    C0755     R2747     1
    C0755     R2759     1
    C0755     R2785     1
    C0755     R2867     1
    C0755     R2868     1
    C0756     OBJ       99
    C0756     R0828     1
    C0756     R0934     1
    C0756     R0988     1
    C0756     R1063     1
    C0756     R1160     1
    C0756     R1161     1
    C0756     R1162     1
    C0756     R1352     1
    C0756     R1353     1
    C0756     R1354     1
    C0756     R1444     1
    C0756     R1446     1
    C0756     R1447     1
    C0756     R1489     -1
    C0756     R1490     -1
    C0756     R1491     -1
    C0756     R1492     -1
    C0756     R1580     1
    C0756     R1712     1
    C0756     R1713     1
    C0756     R1714     1
    C0756     R1752     -1
    C0756     R1753     -3
    C0756     R1754     -3
    C0756     R1755     -3
    C0756     R1756     -2
    C0756     R1836     -1
    C0756     R1837     -2
    C0756     R1838     -2
    C0756     R1839     -2
    C0756     R1840     -2
    C0756     R2018     1
    C0756     R2019     1
    C0756     R2020     1
    C0756     R2115     1
    C0756     R2116     1
    C0756     R2255     -1
    C0756     R2256     -1
    C0756     R2257     -1
    C0756     R2299     1
    C0756     R2300     1
    C0756     R2301     1
    C0756     R2302     1
    C0756     R2390     1
    C0756     R2391     1
    C0756     R2392     1
    C0756     R2434     -1
    C0756     R2435     -1
    C0756     R2436     -1
    C0756     R2437     -1
    C0756     R2521     -2
    C0756     R2522     -2
    C0756     R2523     -2
    C0756     R2524     -2
    C0756     R2648     1
    C0756     R2649     1
    C0756     R2650     1
    C0756     R2688     -1
    C0756     R2689     -3
    C0756     R2690     -3
    C0756     R2691     -3
    C0756     R2692     -2
    C0756     R2729     1
    C0756     R2741     1
    C0756     R2750     1
    C0756     R2756     1
    C0756     R2867     1
    C0756     R2868     1
    C0756     R2869     1
    C0757     R0829     1
    C0757     R0935     1
    C0757     R0989     1
    C0757     R1063     1
    C0757     R1161     1
    C0757     R1162     1
    C0757     R1163     1
    C0757     R1353     1
    C0757     R1354     1
    C0757     R1355     1
    C0757     R1446     1
    C0757     R1447     1
    C0757     R1448     1
    C0757     R1490     -1
    C0757     R1491     -1
    C0757     R1492     -1
    C0757     R1493     -1
    C0757     R1580     1
    C0757     R1711     1
    C0757     R1712     1
    C0757     R1713     1
    C0757     R1714     1
    C0757     R1715     1
    C0757     R1753     -2
    C0757     R1754     -2
    C0757     R1755     -2
    C0757     R1756     -2
    C0757     R1757     -2
    C0757     R1837     -1
    C0757     R1838     -2
    C0757     R1839     -2
    C0757     R1840     -2
    C0757     R1841     -2
    C0757     R1879     1
    C0757     R1880     1
    C0757     R1881     1
    C0757     R1882     1
    C0757     R1883     1
    C0757     R1971     1
    C0757     R1972     1
    C0757     R1973     1
    C0757     R2163     1
    C0757     R2164     1
    C0757     R2165     1
    C0757     R2255     1
    C0757     R2256     1
    C0757     R2257     1
    C0757     R2258     1
    C0757     R2300     -1
    C0757     R2301     -1
    C0757     R2302     -1
    C0757     R2303     -1
    C0757     R2390     -1
    C0757     R2391     -1
    C0757     R2392     -1
    C0757     R2393     -1
    C0757     R2435     1
    C0757     R2436     1
    C0757     R2437     1
    C0757     R2438     1
    C0757     R2521     1
    C0757     R2522     1
    C0757     R2523     1
    C0757     R2524     1
    C0757     R2525     1
    C0757     R2563     -2
    C0757     R2564     -2
    C0757     R2565     -2
    C0757     R2566     -2
    C0757     R2567     -2
    C0757     R2647     -1
    C0757     R2648     -2
    C0757     R2649     -2
    C0757     R2650     -2
    C0757     R2651     -2
    C0757     R2689     1
    C0757     R2690     1
    C0757     R2691     1
    C0757     R2692     1
    C0757     R2693     1
    C0757     R2785     -1
    C0757     R2867     1
    C0757     R2868     1
    C0757     R2869     1
    C0758     OBJ       99
    C0758     R0829     1
    C0758     R0936     1
    C0758     R0990     1
    C0758     R1063     1
    C0758     R1162     1
    C0758     R1163     1
    C0758     R1164     1
    C0758     R1354     1
    C0758     R1355     1
    C0758     R1356     1
    C0758     R1446     1
    C0758     R1447     1
    C0758     R1448     1
    C0758     R1449     1
    C0758     R1491     -1
    C0758     R1492     -1
    C0758     R1493     -1
    C0758     R1494     -1
    C0758     R1712     1
    C0758     R1713     1
    C0758     R1714     1
    C0758     R1715     1
    C0758     R1716     1
    C0758     R1754     -2
    C0758     R1755     -2
    C0758     R1756     -2
    C0758     R1757     -2
    C0758     R1758     -2
    C0758     R1838     -2
    C0758     R1839     -2
    C0758     R1840     -2
    C0758     R1841     -2
    C0758     R1842     -2
    C0758     R1880     1
    C0758     R1881     1
    C0758     R1882     1
    C0758     R1883     1
    C0758     R1884     1
    C0758     R2020     1
    C0758     R2021     1
    C0758     R2022     1
    C0758     R2116     1
    C0758     R2117     1
    C0758     R2118     1
    C0758     R2256     -1
    C0758     R2257     -1
    C0758     R2258     -1
    C0758     R2259     -1
    C0758     R2301     1
    C0758     R2302     1
    C0758     R2303     1
    C0758     R2304     1
    C0758     R2391     1
    C0758     R2392     1
    C0758     R2393     1
    C0758     R2394     1
    C0758     R2436     -1
    C0758     R2437     -1
    C0758     R2438     -1
    C0758     R2439     -1
    C0758     R2522     -2
    C0758     R2523     -2
    C0758     R2524     -2
    C0758     R2525     -2
    C0758     R2526     -2
    C0758     R2564     1
    C0758     R2565     1
    C0758     R2566     1
    C0758     R2567     1
    C0758     R2568     1
    C0758     R2648     1
    C0758     R2649     1
    C0758     R2650     1
    C0758     R2651     1
    C0758     R2652     1
    C0758     R2690     -2
    C0758     R2691     -2
    C0758     R2692     -2
    C0758     R2693     -2
    C0758     R2694     -2
    C0758     R2868     1
    C0758     R2869     1
    C0759     R0829     1
    C0759     R0937     1
    C0759     R0991     1
    C0759     R1063     1
    C0759     R1163     1
    C0759     R1164     1
    C0759     R1165     1
    C0759     R1355     1
    C0759     R1356     1
    C0759     R1357     1
    C0759     R1447     1
    C0759     R1448     1
    C0759     R1449     1
    C0759     R1450     1
    C0759     R1492     -1
    C0759     R1493     -1
    C0759     R1494     -1
    C0759     R1495     -1
    C0759     R1713     1
    C0759     R1714     1
    C0759     R1715     1
    C0759     R1716     1
    C0759     R1717     1
    C0759     R1755     -2
    C0759     R1756     -2
    C0759     R1757     -2
    C0759     R1758     -2
    C0759     R1759     -2
    C0759     R1839     -2
    C0759     R1840     -2
    C0759     R1841     -2
    C0759     R1842     -2
    C0759     R1843     -2
    C0759     R1881     1
    C0759     R1882     1
    C0759     R1883     1
    C0759     R1884     1
    C0759     R1885     1
    C0759     R1973     1
    C0759     R1974     1
    C0759     R1975     1
    C0759     R2165     1
    C0759     R2166     1
    C0759     R2167     1
    C0759     R2257     1
    C0759     R2258     1
    C0759     R2259     1
    C0759     R2260     1
    C0759     R2302     -1
    C0759     R2303     -1
    C0759     R2304     -1
    C0759     R2305     -1
    C0759     R2392     -1
    C0759     R2393     -1
    C0759     R2394     -1
    C0759     R2395     -1
    C0759     R2437     1
    C0759     R2438     1
    C0759     R2439     1
    C0759     R2440     1
    C0759     R2523     1
    C0759     R2524     1
    C0759     R2525     1
    C0759     R2526     1
    C0759     R2527     1
    C0759     R2565     -2
    C0759     R2566     -2
    C0759     R2567     -2
    C0759     R2568     -2
    C0759     R2569     -2
    C0759     R2649     -2
    C0759     R2650     -2
    C0759     R2651     -2
    C0759     R2652     -2
    C0759     R2653     -2
    C0759     R2691     1
    C0759     R2692     1
    C0759     R2693     1
    C0759     R2694     1
    C0759     R2695     1
    C0759     R2785     -1
    C0759     R2869     1
    C0760     OBJ       99
    C0760     R0829     1
    C0760     R0938     1
    C0760     R0992     1
    C0760     R1063     1
    C0760     R1164     1
    C0760     R1165     1
    C0760     R1166     1
    C0760     R1356     1
    C0760     R1357     1
    C0760     R1358     1
    C0760     R1448     1
    C0760     R1449     1
    C0760     R1450     1
    C0760     R1493     -1
    C0760     R1494     -1
    C0760     R1495     -1
    C0760     R1496     -1
    C0760     R1586     1
    C0760     R1714     1
    C0760     R1715     1
    C0760     R1716     1
    C0760     R1717     1
    C0760     R1718     1
    C0760     R1756     -2
    C0760     R1757     -2
    C0760     R1758     -2
    C0760     R1759     -2
    C0760     R1760     -2
    C0760     R1840     -2
    C0760     R1841     -2
    C0760     R1842     -2
    C0760     R1843     -2
    C0760     R1844     -2
    C0760     R1882     1
    C0760     R1883     1
    C0760     R1884     1
    C0760     R1885     1
    C0760     R1886     1
    C0760     R2022     1
    C0760     R2023     1
    C0760     R2024     1
    C0760     R2118     1
    C0760     R2119     1
    C0760     R2120     1
    C0760     R2258     -1
    C0760     R2259     -1
    C0760     R2260     -1
    C0760     R2261     -1
    C0760     R2303     1
    C0760     R2304     1
    C0760     R2305     1
    C0760     R2306     1
    C0760     R2393     1
    C0760     R2394     1
    C0760     R2395     1
    C0760     R2396     1
    C0760     R2438     -1
    C0760     R2439     -1
    C0760     R2440     -1
    C0760     R2441     -1
    C0760     R2524     -2
    C0760     R2525     -2
    C0760     R2526     -2
    C0760     R2527     -2
    C0760     R2528     -2
    C0760     R2566     1
    C0760     R2567     1
    C0760     R2568     1
    C0760     R2569     1
    C0760     R2570     1
    C0760     R2650     1
    C0760     R2651     1
    C0760     R2652     1
    C0760     R2653     1
    C0760     R2654     1
    C0760     R2692     -2
    C0760     R2693     -2
    C0760     R2694     -2
    C0760     R2695     -2
    C0760     R2696     -2
    C0761     R2869     1
    C0761     R0829     1
    C0761     R0939     1
    C0761     R0993     1
    C0761     R1063     1
    C0761     R1165     1
    C0761     R1166     1
    C0761     R1167     1
    C0761     R1357     1
    C0761     R1358     1
    C0761     R1359     1
    C0761     R1449     1
    C0761     R1450     1
    C0761     R1452     1
    C0761     R1494     -1
    C0761     R1495     -1
    C0761     R1496     -1
    C0761     R1497     -1
    C0761     R1586     1
    C0761     R1715     1
    C0761     R1716     1
    C0761     R1717     1
    C0761     R1718     1
    C0761     R1719     1
    C0761     R1757     -2
    C0761     R1758     -2
    C0761     R1759     -2
    C0761     R1760     -2
    C0761     R1761     -2
    C0761     R1841     -2
    C0761     R1842     -2
    C0761     R1843     -2
    C0761     R1844     -2
    C0761     R1845     -2
    C0761     R1883     1
    C0761     R1884     1
    C0761     R1885     1
    C0761     R1886     1
    C0761     R1887     1
    C0761     R1975     1
    C0761     R1976     1
    C0761     R1977     1
    C0761     R2167     1
    C0761     R2168     1
    C0761     R2169     1
    C0761     R2259     1
    C0761     R2260     1
    C0761     R2261     1
    C0761     R2262     1
    C0761     R2304     -1
    C0761     R2305     -1
    C0761     R2306     -1
    C0761     R2307     -1
    C0761     R2394     -1
    C0761     R2395     -1
    C0761     R2396     -1
    C0761     R2397     -1
    C0761     R2439     1
    C0761     R2440     1
    C0761     R2441     1
    C0761     R2442     1
    C0761     R2525     1
    C0761     R2526     1
    C0761     R2527     1
    C0761     R2528     1
    C0761     R2529     1
    C0761     R2567     -2
    C0761     R2568     -2
    C0761     R2569     -2
    C0761     R2570     -2
    C0761     R2571     -2
    C0761     R2651     -2
    C0761     R2652     -2
    C0761     R2653     -2
    C0761     R2654     -2
    C0761     R2655     -2
    C0761     R2693     1
    C0761     R2694     1
    C0761     R2695     1
    C0761     R2696     1
    C0761     R2697     1
    C0761     R2785     -1
    C0762     OBJ       99
    C0762     R0829     1
    C0762     R0940     1
    C0762     R0994     1
    C0762     R1063     1
    C0762     R1166     1
    C0762     R1167     1
    C0762     R1168     1
    C0762     R1358     1
    C0762     R1359     1
    C0762     R1360     1
    C0762     R1450     1
    C0762     R1452     1
    C0762     R1495     -1
    C0762     R1496     -1
    C0762     R1497     -1
    C0762     R1498     -1
    C0762     R1586     1
    C0762     R1588     1
    C0762     R1716     1
    C0762     R1717     1
    C0762     R1718     1
    C0762     R1719     1
    C0762     R1758     -2
    C0762     R1759     -2
    C0762     R1760     -2
    C0762     R1761     -2
    C0762     R1842     -2
    C0762     R1843     -2
    C0762     R1844     -2
    C0762     R1845     -2
    C0762     R1884     1
    C0762     R1885     1
    C0762     R1886     1
    C0762     R1887     1
    C0762     R2024     1
    C0762     R2025     1
    C0762     R2026     1
    C0762     R2120     1
    C0762     R2121     1
    C0762     R2122     1
    C0762     R2260     -1
    C0762     R2261     -1
    C0762     R2262     -1
    C0762     R2263     -1
    C0762     R2305     1
    C0762     R2306     1
    C0762     R2307     1
    C0762     R2308     1
    C0762     R2395     1
    C0762     R2396     1
    C0762     R2397     1
    C0762     R2398     1
    C0762     R2440     -1
    C0762     R2441     -1
    C0762     R2442     -1
    C0762     R2443     -1
    C0762     R2526     -2
    C0762     R2527     -2
    C0762     R2528     -2
    C0762     R2529     -2
    C0762     R2568     1
    C0762     R2569     1
    C0762     R2570     1
    C0762     R2571     1
    C0762     R2652     1
    C0762     R2653     1
    C0762     R2654     1
    C0762     R2655     1
    C0762     R2694     -2
    C0762     R2695     -2
    C0762     R2696     -2
    C0762     R2697     -2
    C0763     R2869     1
    C0763     R0829     1
    C0763     R0941     1
    C0763     R0995     1
    C0763     R1063     1
    C0763     R1167     1
    C0763     R1168     1
    C0763     R1169     1
    C0763     R1359     1
    C0763     R1360     1
    C0763     R1361     1
    C0763     R1452     1
    C0763     R1496     -1
    C0763     R1497     -1
    C0763     R1498     -1
    C0763     R1586     1
    C0763     R1588     1
    C0763     R1717     1
    C0763     R1718     1
    C0763     R1719     1
    C0763     R1759     -2
    C0763     R1760     -2
    C0763     R1761     -2
    C0763     R1843     -2
    C0763     R1844     -2
    C0763     R1845     -2
    C0763     R1885     1
    C0763     R1886     1
    C0763     R1887     1
    C0763     R1977     1
    C0763     R1978     1
    C0763     R1979     1
    C0763     R2169     1
    C0763     R2170     1
    C0763     R2171     1
    C0763     R2261     1
    C0763     R2262     1
    C0763     R2263     1
    C0763     R2306     -1
    C0763     R2307     -1
    C0763     R2308     -1
    C0763     R2396     -1
    C0763     R2397     -1
    C0763     R2398     -1
    C0763     R2441     1
    C0763     R2442     1
    C0763     R2443     1
    C0763     R2527     1
    C0763     R2528     1
    C0763     R2529     1
    C0763     R2569     -2
    C0763     R2570     -2
    C0763     R2571     -2
    C0763     R2653     -2
    C0763     R2654     -2
    C0763     R2655     -2
    C0763     R2695     1
    C0763     R2696     1
    C0763     R2697     1
    C0763     R2785     -1
    C0764     OBJ       99
    C0764     R0829     1
    C0764     R0942     1
    C0764     R0996     1
    C0764     R1063     1
    C0764     R1168     1
    C0764     R1169     1
    C0764     R1360     1
    C0764     R1361     1
    C0764     R1452     1
    C0764     R1497     -1
    C0764     R1498     -1
    C0764     R1588     1
    C0764     R1718     1
    C0764     R1719     1
    C0764     R1760     -2
    C0764     R1761     -2
    C0764     R1844     -2
    C0764     R1845     -2
    C0764     R1886     1
    C0764     R1887     1
    C0764     R2026     1
    C0764     R2027     1
    C0764     R2122     1
    C0764     R2123     1
    C0764     R2262     -1
    C0764     R2263     -1
    C0764     R2307     1
    C0764     R2308     1
    C0764     R2397     1
    C0764     R2398     1
    C0764     R2442     -1
    C0764     R2443     -1
    C0764     R2528     -2
    C0764     R2529     -2
    C0764     R2570     1
    C0764     R2571     1
    C0764     R2654     1
    C0764     R2655     1
    C0764     R2696     -2
    C0764     R2697     -2
    C0765     R2869     1
    C0765     R0829     1
    C0765     R0943     1
    C0765     R0997     1
    C0765     R1063     1
    C0765     R1169     1
    C0765     R1361     1
    C0765     R1498     -1
    C0765     R1588     1
    C0765     R1719     1
    C0765     R1761     -2
    C0765     R1845     -2
    C0765     R1887     1
    C0765     R1979     1
    C0765     R2171     1
    C0765     R2263     1
    C0765     R2308     -1
    C0765     R2398     -1
    C0765     R2443     1
    C0765     R2529     1
    C0765     R2571     -2
    C0765     R2655     -2
    C0765     R2697     1
    C0765     R2785     -1
    C0772     OBJ       87
    C0772     R0830     1
    C0772     R0932     1
    C0772     R1004     1
    C0772     R1064     1
    C0772     R1160     1
    C0772     R1368     1
    C0772     R1444     1
    C0772     R1504     -1
    C0772     R1580     1
    C0772     R1640     -1
    C0772     R1712     1
    C0772     R1767     -3
    C0772     R1768     -3
    C0772     R1835     -2
    C0772     R1836     -1
    C0772     R1837     -2
    C0772     R1838     -2
    C0772     R2033     1
    C0772     R2034     1
    C0772     R2112     1
    C0772     R2255     -1
    C0772     R2315     1
    C0772     R2388     1
    C0772     R2390     1
    C0772     R2450     -1
    C0772     R2521     -2
    C0772     R2522     -2
    C0772     R2648     1
    C0772     R2701     -1
    C0772     R2704     -3
    C0772     R2729     1
    C0772     R2742     1
    C0772     R2751     1
    C0772     R2756     1
    C0773     R1765     1
    C0773     R0830     1
    C0773     R0933     1
    C0773     R1005     1
    C0773     R1064     1
    C0773     R1160     1
    C0773     R1161     1
    C0773     R1368     1
    C0773     R1369     1
    C0773     R1444     1
    C0773     R1446     1
    C0773     R1504     -1
    C0773     R1580     1
    C0773     R1640     -1
    C0773     R1641     -1
    C0773     R1712     1
    C0773     R1713     1
    C0773     R1767     -3
    C0773     R1768     -3
    C0773     R1769     -3
    C0773     R1835     -2
    C0773     R1836     -1
    C0773     R1837     -2
    C0773     R1838     -2
    C0773     R1839     -2
    C0773     R1970     1
    C0773     R1971     1
    C0773     R2179     1
    C0773     R2254     1
    C0773     R2255     1
    C0773     R2256     1
    C0773     R2314     -1
    C0773     R2315     -1
    C0773     R2316     -1
    C0773     R2388     -1
    C0773     R2390     -1
    C0773     R2391     -1
    C0773     R2450     1
    C0773     R2451     1
    C0773     R2522     1
    C0773     R2523     1
    C0773     R2577     -3
    C0773     R2578     -3
    C0773     R2579     -3
    C0773     R2646     -1
    C0773     R2647     -2
    C0773     R2648     -2
    C0773     R2649     -2
    C0773     R2701     1
    C0773     R2729     1
    C0773     R2742     1
    C0773     R2747     1
    C0773     R2760     1
    C0773     R2786     1
    C0773     R2871     1
    C0774     OBJ       87
    C0774     R0830     1
    C0774     R0934     1
    C0774     R1006     1
    C0774     R1064     1
    C0774     R1160     1
    C0774     R1161     1
    C0774     R1162     1
    C0774     R1368     1
    C0774     R1369     1
    C0774     R1370     1
    C0774     R1444     1
    C0774     R1446     1
    C0774     R1447     1
    C0774     R1504     -1
    C0774     R1507     -1
    C0774     R1580     1
    C0774     R1640     -1
    C0774     R1641     -1
    C0774     R1712     1
    C0774     R1713     1
    C0774     R1714     1
    C0774     R1767     -3
    C0774     R1768     -3
    C0774     R1769     -3
    C0774     R1770     -2
    C0774     R1836     -1
    C0774     R1837     -2
    C0774     R1838     -2
    C0774     R1839     -2
    C0774     R1840     -2
    C0774     R2034     1
    C0774     R2035     1
    C0774     R2036     1
    C0774     R2115     1
    C0774     R2116     1
    C0774     R2255     -1
    C0774     R2256     -1
    C0774     R2257     -1
    C0774     R2315     1
    C0774     R2316     1
    C0774     R2317     1
    C0774     R2390     1
    C0774     R2391     1
    C0774     R2392     1
    C0774     R2450     -1
    C0774     R2451     -1
    C0774     R2452     -1
    C0774     R2521     -2
    C0774     R2522     -2
    C0774     R2523     -2
    C0774     R2524     -2
    C0774     R2648     1
    C0774     R2649     1
    C0774     R2650     1
    C0774     R2704     -3
    C0774     R2705     -3
    C0774     R2706     -2
    C0774     R2729     1
    C0774     R2742     1
    C0774     R2751     1
    C0774     R2756     1
    C0774     R2871     1
    C0774     R2872     1
    C0775     R0831     1
    C0775     R0935     1
    C0775     R1007     1
    C0775     R1064     1
    C0775     R1161     1
    C0775     R1162     1
    C0775     R1163     1
    C0775     R1369     1
    C0775     R1370     1
    C0775     R1371     1
    C0775     R1446     1
    C0775     R1447     1
    C0775     R1448     1
    C0775     R1507     -1
    C0775     R1508     -1
    C0775     R1580     1
    C0775     R1640     -1
    C0775     R1641     -1
    C0775     R1711     1
    C0775     R1712     1
    C0775     R1713     1
    C0775     R1714     1
    C0775     R1715     1
    C0775     R1767     -2
    C0775     R1768     -2
    C0775     R1769     -2
    C0775     R1770     -2
    C0775     R1771     -2
    C0775     R1837     -1
    C0775     R1838     -2
    C0775     R1839     -2
    C0775     R1840     -2
    C0775     R1841     -2
    C0775     R1894     1
    C0775     R1895     1
    C0775     R1896     1
    C0775     R1897     1
    C0775     R1971     1
    C0775     R1972     1
    C0775     R1973     1
    C0775     R2179     1
    C0775     R2180     1
    C0775     R2181     1
    C0775     R2255     1
    C0775     R2256     1
    C0775     R2257     1
    C0775     R2258     1
    C0775     R2315     -1
    C0775     R2316     -1
    C0775     R2317     -1
    C0775     R2318     -1
    C0775     R2390     -1
    C0775     R2391     -1
    C0775     R2392     -1
    C0775     R2393     -1
    C0775     R2450     1
    C0775     R2451     1
    C0775     R2452     1
    C0775     R2453     1
    C0775     R2521     1
    C0775     R2522     1
    C0775     R2523     1
    C0775     R2524     1
    C0775     R2525     1
    C0775     R2577     -2
    C0775     R2578     -2
    C0775     R2579     -2
    C0775     R2580     -2
    C0775     R2581     -2
    C0775     R2647     -1
    C0775     R2648     -2
    C0775     R2649     -2
    C0775     R2650     -2
    C0775     R2651     -2
    C0775     R2704     1
    C0775     R2705     1
    C0775     R2706     1
    C0775     R2707     1
    C0775     R2786     -1
    C0775     R2870     1
    C0775     R2871     1
    C0775     R2872     1
    C0776     OBJ       87
    C0776     R0831     1
    C0776     R0936     1
    C0776     R1008     1
    C0776     R1064     1
    C0776     R1162     1
    C0776     R1163     1
    C0776     R1164     1
    C0776     R1370     1
    C0776     R1371     1
    C0776     R1372     1
    C0776     R1446     1
    C0776     R1447     1
    C0776     R1448     1
    C0776     R1449     1
    C0776     R1507     -1
    C0776     R1508     -1
    C0776     R1641     -1
    C0776     R1644     -1
    C0776     R1712     1
    C0776     R1713     1
    C0776     R1714     1
    C0776     R1715     1
    C0776     R1716     1
    C0776     R1768     -2
    C0776     R1769     -2
    C0776     R1770     -2
    C0776     R1771     -2
    C0776     R1772     -2
    C0776     R1838     -2
    C0776     R1839     -2
    C0776     R1840     -2
    C0776     R1841     -2
    C0776     R1842     -2
    C0776     R1894     1
    C0776     R1895     1
    C0776     R1896     1
    C0776     R1897     1
    C0776     R1898     1
    C0776     R2036     1
    C0776     R2037     1
    C0776     R2038     1
    C0776     R2116     1
    C0776     R2117     1
    C0776     R2118     1
    C0776     R2256     -1
    C0776     R2257     -1
    C0776     R2258     -1
    C0776     R2259     -1
    C0776     R2316     1
    C0776     R2317     1
    C0776     R2318     1
    C0776     R2319     1
    C0776     R2391     1
    C0776     R2392     1
    C0776     R2393     1
    C0776     R2394     1
    C0776     R2451     -1
    C0776     R2452     -1
    C0776     R2453     -1
    C0776     R2454     -1
    C0776     R2522     -2
    C0776     R2523     -2
    C0776     R2524     -2
    C0776     R2525     -2
    C0776     R2526     -2
    C0776     R2578     1
    C0776     R2579     1
    C0776     R2580     1
    C0776     R2581     1
    C0776     R2582     1
    C0776     R2648     1
    C0776     R2649     1
    C0776     R2650     1
    C0776     R2651     1
    C0776     R2652     1
    C0776     R2704     -2
    C0776     R2705     -2
    C0776     R2706     -2
    C0776     R2707     -2
    C0776     R2708     -2
    C0776     R2871     1
    C0776     R2872     1
    C0777     R0831     1
    C0777     R0937     1
    C0777     R1009     1
    C0777     R1064     1
    C0777     R1163     1
    C0777     R1164     1
    C0777     R1165     1
    C0777     R1371     1
    C0777     R1372     1
    C0777     R1373     1
    C0777     R1447     1
    C0777     R1448     1
    C0777     R1449     1
    C0777     R1450     1
    C0777     R1507     -1
    C0777     R1508     -1
    C0777     R1644     -1
    C0777     R1645     -1
    C0777     R1713     1
    C0777     R1714     1
    C0777     R1715     1
    C0777     R1716     1
    C0777     R1717     1
    C0777     R1769     -2
    C0777     R1770     -2
    C0777     R1771     -2
    C0777     R1772     -2
    C0777     R1773     -2
    C0777     R1839     -2
    C0777     R1840     -2
    C0777     R1841     -2
    C0777     R1842     -2
    C0777     R1843     -2
    C0777     R1895     1
    C0777     R1896     1
    C0777     R1897     1
    C0777     R1898     1
    C0777     R1899     1
    C0777     R1973     1
    C0777     R1974     1
    C0777     R1975     1
    C0777     R2181     1
    C0777     R2182     1
    C0777     R2183     1
    C0777     R2257     1
    C0777     R2258     1
    C0777     R2259     1
    C0777     R2260     1
    C0777     R2317     -1
    C0777     R2318     -1
    C0777     R2319     -1
    C0777     R2320     -1
    C0777     R2392     -1
    C0777     R2393     -1
    C0777     R2394     -1
    C0777     R2395     -1
    C0777     R2452     1
    C0777     R2453     1
    C0777     R2454     1
    C0777     R2455     1
    C0777     R2523     1
    C0777     R2524     1
    C0777     R2525     1
    C0777     R2526     1
    C0777     R2527     1
    C0777     R2579     -2
    C0777     R2580     -2
    C0777     R2581     -2
    C0777     R2582     -2
    C0777     R2583     -2
    C0777     R2649     -2
    C0777     R2650     -2
    C0777     R2651     -2
    C0777     R2652     -2
    C0777     R2653     -2
    C0777     R2705     1
    C0777     R2706     1
    C0777     R2707     1
    C0777     R2708     1
    C0777     R2709     1
    C0777     R2786     -1
    C0777     R2872     1
    C0778     OBJ       87
    C0778     R0831     1
    C0778     R0938     1
    C0778     R1010     1
    C0778     R1064     1
    C0778     R1164     1
    C0778     R1165     1
    C0778     R1166     1
    C0778     R1372     1
    C0778     R1373     1
    C0778     R1374     1
    C0778     R1448     1
    C0778     R1449     1
    C0778     R1450     1
    C0778     R1508     -1
    C0778     R1586     1
    C0778     R1644     -1
    C0778     R1645     -1
    C0778     R1646     -1
    C0778     R1714     1
    C0778     R1715     1
    C0778     R1716     1
    C0778     R1717     1
    C0778     R1718     1
    C0778     R1770     -2
    C0778     R1771     -2
    C0778     R1772     -2
    C0778     R1773     -2
    C0778     R1774     -2
    C0778     R1840     -2
    C0778     R1841     -2
    C0778     R1842     -2
    C0778     R1843     -2
    C0778     R1844     -2
    C0778     R1896     1
    C0778     R1897     1
    C0778     R1898     1
    C0778     R1899     1
    C0778     R1900     1
    C0778     R2038     1
    C0778     R2039     1
    C0778     R2040     1
    C0778     R2118     1
    C0778     R2119     1
    C0778     R2120     1
    C0778     R2258     -1
    C0778     R2259     -1
    C0778     R2260     -1
    C0778     R2261     -1
    C0778     R2318     1
    C0778     R2319     1
    C0778     R2320     1
    C0778     R2321     1
    C0778     R2393     1
    C0778     R2394     1
    C0778     R2395     1
    C0778     R2396     1
    C0778     R2453     -1
    C0778     R2454     -1
    C0778     R2455     -1
    C0778     R2456     -1
    C0778     R2524     -2
    C0778     R2525     -2
    C0778     R2526     -2
    C0778     R2527     -2
    C0778     R2528     -2
    C0778     R2580     1
    C0778     R2581     1
    C0778     R2582     1
    C0778     R2583     1
    C0778     R2584     1
    C0778     R2650     1
    C0778     R2651     1
    C0778     R2652     1
    C0778     R2653     1
    C0778     R2654     1
    C0778     R2706     -2
    C0778     R2707     -2
    C0778     R2708     -2
    C0778     R2709     -2
    C0778     R2710     -2
    C0779     R2872     1
    C0779     R0831     1
    C0779     R0939     1
    C0779     R1011     1
    C0779     R1064     1
    C0779     R1165     1
    C0779     R1166     1
    C0779     R1167     1
    C0779     R1373     1
    C0779     R1374     1
    C0779     R1375     1
    C0779     R1449     1
    C0779     R1450     1
    C0779     R1452     1
    C0779     R1512     -1
    C0779     R1586     1
    C0779     R1644     -1
    C0779     R1645     -1
    C0779     R1646     -1
    C0779     R1715     1
    C0779     R1716     1
    C0779     R1717     1
    C0779     R1718     1
    C0779     R1719     1
    C0779     R1771     -2
    C0779     R1772     -2
    C0779     R1773     -2
    C0779     R1774     -2
    C0779     R1775     -2
    C0779     R1841     -2
    C0779     R1842     -2
    C0779     R1843     -2
    C0779     R1844     -2
    C0779     R1845     -2
    C0779     R1897     1
    C0779     R1898     1
    C0779     R1899     1
    C0779     R1900     1
    C0779     R1901     1
    C0779     R1975     1
    C0779     R1976     1
    C0779     R1977     1
    C0779     R2183     1
    C0779     R2184     1
    C0779     R2185     1
    C0779     R2259     1
    C0779     R2260     1
    C0779     R2261     1
    C0779     R2262     1
    C0779     R2319     -1
    C0779     R2320     -1
    C0779     R2321     -1
    C0779     R2322     -1
    C0779     R2394     -1
    C0779     R2395     -1
    C0779     R2396     -1
    C0779     R2397     -1
    C0779     R2454     1
    C0779     R2455     1
    C0779     R2456     1
    C0779     R2457     1
    C0779     R2525     1
    C0779     R2526     1
    C0779     R2527     1
    C0779     R2528     1
    C0779     R2529     1
    C0779     R2581     -2
    C0779     R2582     -2
    C0779     R2583     -2
    C0779     R2584     -2
    C0779     R2585     -2
    C0779     R2651     -2
    C0779     R2652     -2
    C0779     R2653     -2
    C0779     R2654     -2
    C0779     R2655     -2
    C0779     R2707     1
    C0779     R2708     1
    C0779     R2709     1
    C0779     R2710     1
    C0779     R2711     1
    C0779     R2786     -1
    C0780     OBJ       87
    C0780     R0831     1
    C0780     R0940     1
    C0780     R1012     1
    C0780     R1064     1
    C0780     R1166     1
    C0780     R1167     1
    C0780     R1168     1
    C0780     R1374     1
    C0780     R1375     1
    C0780     R1376     1
    C0780     R1450     1
    C0780     R1452     1
    C0780     R1512     -1
    C0780     R1586     1
    C0780     R1588     1
    C0780     R1645     -1
    C0780     R1646     -1
    C0780     R1648     -1
    C0780     R1716     1
    C0780     R1717     1
    C0780     R1718     1
    C0780     R1719     1
    C0780     R1772     -2
    C0780     R1773     -2
    C0780     R1774     -2
    C0780     R1775     -2
    C0780     R1842     -2
    C0780     R1843     -2
    C0780     R1844     -2
    C0780     R1845     -2
    C0780     R1898     1
    C0780     R1899     1
    C0780     R1900     1
    C0780     R1901     1
    C0780     R2040     1
    C0780     R2041     1
    C0780     R2042     1
    C0780     R2120     1
    C0780     R2121     1
    C0780     R2122     1
    C0780     R2260     -1
    C0780     R2261     -1
    C0780     R2262     -1
    C0780     R2263     -1
    C0780     R2320     1
    C0780     R2321     1
    C0780     R2322     1
    C0780     R2323     1
    C0780     R2395     1
    C0780     R2396     1
    C0780     R2397     1
    C0780     R2398     1
    C0780     R2455     -1
    C0780     R2456     -1
    C0780     R2457     -1
    C0780     R2458     -1
    C0780     R2526     -2
    C0780     R2527     -2
    C0780     R2528     -2
    C0780     R2529     -2
    C0780     R2582     1
    C0780     R2583     1
    C0780     R2584     1
    C0780     R2585     1
    C0780     R2652     1
    C0780     R2653     1
    C0780     R2654     1
    C0780     R2655     1
    C0780     R2708     -2
    C0780     R2709     -2
    C0780     R2710     -2
    C0780     R2711     -2
    C0781     R2872     1
    C0781     R0831     1
    C0781     R0941     1
    C0781     R1013     1
    C0781     R1064     1
    C0781     R1167     1
    C0781     R1168     1
    C0781     R1169     1
    C0781     R1375     1
    C0781     R1376     1
    C0781     R1377     1
    C0781     R1452     1
    C0781     R1512     -1
    C0781     R1586     1
    C0781     R1588     1
    C0781     R1646     -1
    C0781     R1648     -1
    C0781     R1717     1
    C0781     R1718     1
    C0781     R1719     1
    C0781     R1773     -2
    C0781     R1774     -2
    C0781     R1775     -2
    C0781     R1843     -2
    C0781     R1844     -2
    C0781     R1845     -2
    C0781     R1899     1
    C0781     R1900     1
    C0781     R1901     1
    C0781     R1977     1
    C0781     R1978     1
    C0781     R1979     1
    C0781     R2185     1
    C0781     R2186     1
    C0781     R2187     1
    C0781     R2261     1
    C0781     R2262     1
    C0781     R2263     1
    C0781     R2321     -1
    C0781     R2322     -1
    C0781     R2323     -1
    C0781     R2396     -1
    C0781     R2397     -1
    C0781     R2398     -1
    C0781     R2456     1
    C0781     R2457     1
    C0781     R2458     1
    C0781     R2527     1
    C0781     R2528     1
    C0781     R2529     1
    C0781     R2583     -2
    C0781     R2584     -2
    C0781     R2585     -2
    C0781     R2653     -2
    C0781     R2654     -2
    C0781     R2655     -2
    C0781     R2709     1
    C0781     R2710     1
    C0781     R2711     1
    C0781     R2786     -1
    C0782     OBJ       87
    C0782     R0831     1
    C0782     R0942     1
    C0782     R1014     1
    C0782     R1064     1
    C0782     R1168     1
    C0782     R1169     1
    C0782     R1376     1
    C0782     R1377     1
    C0782     R1452     1
    C0782     R1512     -1
    C0782     R1588     1
    C0782     R1648     -1
    C0782     R1718     1
    C0782     R1719     1
    C0782     R1774     -2
    C0782     R1775     -2
    C0782     R1844     -2
    C0782     R1845     -2
    C0782     R1900     1
    C0782     R1901     1
    C0782     R2042     1
    C0782     R2043     1
    C0782     R2122     1
    C0782     R2123     1
    C0782     R2262     -1
    C0782     R2263     -1
    C0782     R2322     1
    C0782     R2323     1
    C0782     R2397     1
    C0782     R2398     1
    C0782     R2457     -1
    C0782     R2458     -1
    C0782     R2528     -2
    C0782     R2529     -2
    C0782     R2584     1
    C0782     R2585     1
    C0782     R2654     1
    C0782     R2655     1
    C0782     R2710     -2
    C0782     R2711     -2
    C0783     R2872     1
    C0783     R0831     1
    C0783     R0943     1
    C0783     R1015     1
    C0783     R1064     1
    C0783     R1169     1
    C0783     R1377     1
    C0783     R1588     1
    C0783     R1648     -1
    C0783     R1719     1
    C0783     R1775     -2
    C0783     R1845     -2
    C0783     R1901     1
    C0783     R1979     1
    C0783     R2187     1
    C0783     R2263     1
    C0783     R2323     -1
    C0783     R2398     -1
    C0783     R2458     1
    C0783     R2529     1
    C0783     R2585     -2
    C0783     R2655     -2
    C0783     R2711     1
    C0783     R2786     -1
    C0807     R2915     -1
    C0807     R0860     1
    C0807     R0931     1
    C0808     R0860     1
    C0808     R0932     1
    C0809     R0860     1
    C0809     R0933     1
    C0809     R2916     1
    C0810     R0860     1
    C0810     R0934     1
    C0810     R2916     1
    C0810     R2917     1
    C0811     R0861     1
    C0811     R0935     1
    C0811     R2915     1
    C0811     R2916     1
    C0811     R2917     1
    C0812     R0861     1
    C0812     R0936     1
    C0812     R2916     1
    C0812     R2917     1
    C0813     R0861     1
    C0813     R0937     1
    C0813     R2917     1
    C0814     R0861     1
    C0814     R0938     1
    C0815     R0861     1
    C0815     R0939     1
    C0816     R0861     1
    C0816     R0940     1
    C0817     R0861     1
    C0817     R0941     1
    C0818     R0861     1
    C0818     R0942     1
    C0819     R0861     1
    C0819     R0943     1
    C0829     R0881     1
    C0829     R0953     1
    C0829     R1177     1
    C0829     R1178     1
    C0829     R1179     1
    C0829     R1257     1
    C0829     R1258     1
    C0829     R1259     1
    C0829     R1463     1
    C0829     R1535     -1
    C0829     R1536     -1
    C0829     R1537     -1
    C0829     R1538     -1
    C0829     R1595     1
    C0829     R1596     1
    C0829     R1597     1
    C0829     R1669     -2
    C0829     R1670     -2
    C0829     R1671     -2
    C0829     R1672     -2
    C0829     R1673     -2
    C0829     R1725     1
    C0829     R1726     1
    C0829     R1727     1
    C0829     R1728     1
    C0829     R1729     1
    C0829     R1795     1
    C0829     R1796     1
    C0829     R1797     1
    C0829     R1798     1
    C0829     R1799     1
    C0829     R1851     -1
    C0829     R1852     -2
    C0829     R1853     -2
    C0829     R1854     -2
    C0829     R1855     -2
    C0829     R1987     1
    C0829     R1988     1
    C0829     R1989     1
    C0829     R2067     1
    C0829     R2068     1
    C0829     R2069     1
    C0829     R2210     -1
    C0829     R2211     -1
    C0829     R2212     -1
    C0829     R2213     -1
    C0829     R2270     1
    C0829     R2271     1
    C0829     R2272     1
    C0829     R2273     1
    C0829     R2345     1
    C0829     R2346     1
    C0829     R2347     1
    C0829     R2348     1
    C0829     R2405     -1
    C0829     R2406     -1
    C0829     R2407     -1
    C0829     R2408     -1
    C0829     R2479     -2
    C0829     R2480     -2
    C0829     R2481     -2
    C0829     R2482     -2
    C0829     R2483     -2
    C0829     R2535     1
    C0829     R2536     1
    C0829     R2537     1
    C0829     R2538     1
    C0829     R2539     1
    C0829     R2605     1
    C0829     R2606     1
    C0829     R2607     1
    C0829     R2608     1
    C0829     R2609     1
    C0829     R2661     -1
    C0829     R2662     -2
    C0829     R2663     -2
    C0829     R2664     -2
    C0829     R2665     -2
    C0829     R2765     -1
    C0831     R0883     1
    C0831     R0955     1
    C0831     R1179     1
    C0831     R1180     1
    C0831     R1181     1
    C0831     R1259     1
    C0831     R1260     1
    C0831     R1261     1
    C0831     R1405     -1
    C0831     R1463     1
    C0831     R1465     1
    C0831     R1537     -1
    C0831     R1538     -1
    C0831     R1539     -1
    C0831     R1597     1
    C0831     R1599     1
    C0831     R1671     -2
    C0831     R1672     -2
    C0831     R1673     -2
    C0831     R1674     -2
    C0831     R1675     -2
    C0831     R1727     1
    C0831     R1728     1
    C0831     R1729     1
    C0831     R1730     1
    C0831     R1731     1
    C0831     R1797     1
    C0831     R1798     1
    C0831     R1799     1
    C0831     R1800     1
    C0831     R1801     1
    C0831     R1853     -2
    C0831     R1854     -2
    C0831     R1855     -2
    C0831     R1856     -2
    C0831     R1857     -2
    C0831     R1989     1
    C0831     R1990     1
    C0831     R1991     1
    C0831     R2069     1
    C0831     R2070     1
    C0831     R2071     1
    C0831     R2212     -1
    C0831     R2213     -1
    C0831     R2214     -1
    C0831     R2215     -1
    C0831     R2272     1
    C0831     R2273     1
    C0831     R2274     1
    C0831     R2275     1
    C0831     R2347     1
    C0831     R2348     1
    C0831     R2349     1
    C0831     R2350     1
    C0831     R2407     -1
    C0831     R2408     -1
    C0831     R2409     -1
    C0831     R2410     -1
    C0831     R2481     -2
    C0831     R2482     -2
    C0831     R2483     -2
    C0831     R2484     -2
    C0831     R2485     -2
    C0831     R2537     1
    C0831     R2538     1
    C0831     R2539     1
    C0831     R2540     1
    C0831     R2541     1
    C0831     R2607     1
    C0831     R2608     1
    C0831     R2609     1
    C0831     R2610     1
    C0831     R2611     1
    C0831     R2663     -2
    C0831     R2664     -2
    C0831     R2665     -2
    C0831     R2666     -2
    C0831     R2667     -2
    C0831     R2765     -1
    C0833     R0885     1
    C0833     R0957     1
    C0833     R1181     1
    C0833     R1182     1
    C0833     R1183     1
    C0833     R1261     1
    C0833     R1262     1
    C0833     R1263     1
    C0833     R1405     -1
    C0833     R1406     -1
    C0833     R1465     1
    C0833     R1466     1
    C0833     R1539     -1
    C0833     R1542     -1
    C0833     R1599     1
    C0833     R1602     1
    C0833     R1673     -2
    C0833     R1674     -2
    C0833     R1675     -2
    C0833     R1676     -2
    C0833     R1677     -2
    C0833     R1729     1
    C0833     R1730     1
    C0833     R1731     1
    C0833     R1732     1
    C0833     R1733     1
    C0833     R1799     1
    C0833     R1800     1
    C0833     R1801     1
    C0833     R1802     1
    C0833     R1803     1
    C0833     R1855     -2
    C0833     R1856     -2
    C0833     R1857     -2
    C0833     R1858     -2
    C0833     R1859     -2
    C0833     R1991     1
    C0833     R1992     1
    C0833     R1993     1
    C0833     R2071     1
    C0833     R2072     1
    C0833     R2073     1
    C0833     R2214     -1
    C0833     R2215     -1
    C0833     R2216     -1
    C0833     R2217     -1
    C0833     R2274     1
    C0833     R2275     1
    C0833     R2276     1
    C0833     R2277     1
    C0833     R2349     1
    C0833     R2350     1
    C0833     R2351     1
    C0833     R2352     1
    C0833     R2409     -1
    C0833     R2410     -1
    C0833     R2411     -1
    C0833     R2412     -1
    C0833     R2483     -2
    C0833     R2484     -2
    C0833     R2485     -2
    C0833     R2486     -2
    C0833     R2487     -2
    C0833     R2539     1
    C0833     R2540     1
    C0833     R2541     1
    C0833     R2542     1
    C0833     R2543     1
    C0833     R2609     1
    C0833     R2610     1
    C0833     R2611     1
    C0833     R2612     1
    C0833     R2613     1
    C0833     R2665     -2
    C0833     R2666     -2
    C0833     R2667     -2
    C0833     R2668     -2
    C0833     R2669     -2
    C0833     R2765     -1
    C0835     R0887     1
    C0835     R0959     1
    C0835     R1183     1
    C0835     R1184     1
    C0835     R1185     1
    C0835     R1263     1
    C0835     R1264     1
    C0835     R1265     1
    C0835     R1406     -1
    C0835     R1408     -1
    C0835     R1466     1
    C0835     R1468     1
    C0835     R1542     -1
    C0835     R1602     1
    C0835     R1675     -2
    C0835     R1676     -2
    C0835     R1677     -2
    C0835     R1731     1
    C0835     R1732     1
    C0835     R1733     1
    C0835     R1801     1
    C0835     R1802     1
    C0835     R1803     1
    C0835     R1857     -2
    C0835     R1858     -2
    C0835     R1859     -2
    C0835     R1993     1
    C0835     R1994     1
    C0835     R1995     1
    C0835     R2073     1
    C0835     R2074     1
    C0835     R2075     1
    C0835     R2216     -1
    C0835     R2217     -1
    C0835     R2218     -1
    C0835     R2276     1
    C0835     R2277     1
    C0835     R2278     1
    C0835     R2351     1
    C0835     R2352     1
    C0835     R2353     1
    C0835     R2411     -1
    C0835     R2412     -1
    C0835     R2413     -1
    C0835     R2485     -2
    C0835     R2486     -2
    C0835     R2487     -2
    C0835     R2541     1
    C0835     R2542     1
    C0835     R2543     1
    C0835     R2611     1
    C0835     R2612     1
    C0835     R2613     1
    C0835     R2667     -2
    C0835     R2668     -2
    C0835     R2669     -2
    C0835     R2765     -1
    C0837     R0889     1
    C0837     R0961     1
    C0837     R1185     1
    C0837     R1265     1
    C0837     R1408     -1
    C0837     R1468     1
    C0837     R1677     -2
    C0837     R1733     1
    C0837     R1803     1
    C0837     R1859     -2
    C0837     R1995     1
    C0837     R2075     1
    C0837     R2218     -1
    C0837     R2278     1
    C0837     R2353     1
    C0837     R2413     -1
    C0837     R2487     -2
    C0837     R2543     1
    C0837     R2613     1
    C0837     R2669     -2
    C0837     R2765     -1
    C0861     R0814     1
    C0861     R0913     1
    C0861     R1068     1
    C0861     R1287     1
    C0861     R1429     -1
    C0861     R1563     -1
    C0861     R1594     1
    C0861     R1696     -1
    C0861     R1697     -3
    C0861     R1850     -1
    C0861     R1851     -2
    C0861     R2097     1
    C0861     R2238     -1
    C0861     R2239     -1
    C0861     R2269     1
    C0861     R2374     1
    C0861     R2402     -1
    C0861     R2505     -1
    C0861     R2507     -3
    C0861     R2659     -1
    C0861     R2661     -2
    C0861     R2730     1
    C0861     R2737     1
    C0861     R2748     1
    C0861     R2755     1
    C0863     R2238     1
    C0863     R0814     1
    C0863     R0915     1
    C0863     R0951     1
    C0863     R1068     1
    C0863     R1176     1
    C0863     R1177     1
    C0863     R1287     1
    C0863     R1288     1
    C0863     R1289     1
    C0863     R1431     -1
    C0863     R1565     -1
    C0863     R1594     1
    C0863     R1595     1
    C0863     R1596     1
    C0863     R1697     -1
    C0863     R1698     -3
    C0863     R1699     -3
    C0863     R1726     1
    C0863     R1727     1
    C0863     R1850     -1
    C0863     R1851     -2
    C0863     R1852     -2
    C0863     R1853     -2
    C0863     R1986     1
    C0863     R1987     1
    C0863     R2097     1
    C0863     R2098     1
    C0863     R2099     1
    C0863     R2240     -1
    C0863     R2241     -1
    C0863     R2269     1
    C0863     R2270     1
    C0863     R2271     1
    C0863     R2374     1
    C0863     R2375     1
    C0863     R2376     1
    C0863     R2405     -1
    C0863     R2406     -1
    C0863     R2507     -1
    C0863     R2508     -3
    C0863     R2509     -3
    C0863     R2536     1
    C0863     R2537     1
    C0863     R2659     -1
    C0863     R2661     -2
    C0863     R2662     -2
    C0863     R2663     -2
    C0863     R2730     1
    C0863     R2737     1
    C0863     R2748     1
    C0863     R2755     1
    C0863     R2847     1
    C0865     R0815     1
    C0865     R0917     1
    C0865     R0953     1
    C0865     R1068     1
    C0865     R1177     1
    C0865     R1178     1
    C0865     R1179     1
    C0865     R1289     1
    C0865     R1290     1
    C0865     R1291     1
    C0865     R1431     -1
    C0865     R1432     -1
    C0865     R1433     -1
    C0865     R1463     1
    C0865     R1565     -1
    C0865     R1595     1
    C0865     R1596     1
    C0865     R1597     1
    C0865     R1697     -2
    C0865     R1698     -2
    C0865     R1699     -2
    C0865     R1700     -2
    C0865     R1701     -2
    C0865     R1725     1
    C0865     R1726     1
    C0865     R1727     1
    C0865     R1728     1
    C0865     R1729     1
    C0865     R1823     1
    C0865     R1824     1
    C0865     R1825     1
    C0865     R1826     1
    C0865     R1827     1
    C0865     R1851     -1
    C0865     R1852     -2
    C0865     R1853     -2
    C0865     R1854     -2
    C0865     R1855     -1
    C0865     R1987     1
    C0865     R1988     1
    C0865     R1989     1
    C0865     R2099     1
    C0865     R2100     1
    C0865     R2101     1
    C0865     R2240     -1
    C0865     R2241     -1
    C0865     R2242     -1
    C0865     R2243     -1
    C0865     R2270     1
    C0865     R2271     1
    C0865     R2272     1
    C0865     R2273     1
    C0865     R2375     1
    C0865     R2376     1
    C0865     R2377     1
    C0865     R2378     1
    C0865     R2405     -1
    C0865     R2406     -1
    C0865     R2407     -1
    C0865     R2408     -1
    C0865     R2507     -2
    C0865     R2508     -2
    C0865     R2509     -2
    C0865     R2510     -2
    C0865     R2511     -2
    C0865     R2535     1
    C0865     R2536     1
    C0865     R2537     1
    C0865     R2538     1
    C0865     R2539     1
    C0865     R2633     1
    C0865     R2634     1
    C0865     R2635     1
    C0865     R2636     1
    C0865     R2637     1
    C0865     R2661     -1
    C0865     R2662     -2
    C0865     R2663     -2
    C0865     R2664     -2
    C0865     R2665     -1
    C0865     R2847     1
    C0867     R0815     1
    C0867     R0919     1
    C0867     R0955     1
    C0867     R1068     1
    C0867     R1179     1
    C0867     R1180     1
    C0867     R1181     1
    C0867     R1291     1
    C0867     R1292     1
    C0867     R1293     1
    C0867     R1432     -1
    C0867     R1433     -1
    C0867     R1434     -1
    C0867     R1435     -1
    C0867     R1463     1
    C0867     R1465     1
    C0867     R1597     1
    C0867     R1599     1
    C0867     R1699     -2
    C0867     R1700     -2
    C0867     R1701     -2
    C0867     R1702     -2
    C0867     R1703     -2
    C0867     R1727     1
    C0867     R1728     1
    C0867     R1729     1
    C0867     R1730     1
    C0867     R1731     1
    C0867     R1825     1
    C0867     R1826     1
    C0867     R1827     1
    C0867     R1828     1
    C0867     R1829     1
    C0867     R1853     -2
    C0867     R1854     -2
    C0867     R1855     -1
    C0867     R1856     -2
    C0867     R1857     -1
    C0867     R1989     1
    C0867     R1990     1
    C0867     R1991     1
    C0867     R2101     1
    C0867     R2102     1
    C0867     R2103     1
    C0867     R2242     -1
    C0867     R2243     -1
    C0867     R2244     -1
    C0867     R2245     -1
    C0867     R2272     1
    C0867     R2273     1
    C0867     R2274     1
    C0867     R2275     1
    C0867     R2377     1
    C0867     R2378     1
    C0867     R2379     1
    C0867     R2380     1
    C0867     R2407     -1
    C0867     R2408     -1
    C0867     R2409     -1
    C0867     R2410     -1
    C0867     R2509     -2
    C0867     R2510     -2
    C0867     R2511     -2
    C0867     R2512     -2
    C0867     R2513     -2
    C0867     R2537     1
    C0867     R2538     1
    C0867     R2539     1
    C0867     R2540     1
    C0867     R2541     1
    C0867     R2635     1
    C0867     R2636     1
    C0867     R2637     1
    C0867     R2638     1
    C0867     R2639     1
    C0867     R2663     -2
    C0867     R2664     -2
    C0867     R2665     -1
    C0867     R2666     -2
    C0867     R2667     -1
    C0869     R0815     1
    C0869     R0921     1
    C0869     R0957     1
    C0869     R1068     1
    C0869     R1181     1
    C0869     R1182     1
    C0869     R1183     1
    C0869     R1293     1
    C0869     R1294     1
    C0869     R1295     1
    C0869     R1434     -1
    C0869     R1435     -1
    C0869     R1465     1
    C0869     R1466     1
    C0869     R1571     -1
    C0869     R1572     -1
    C0869     R1599     1
    C0869     R1602     1
    C0869     R1701     -2
    C0869     R1702     -2
    C0869     R1703     -2
    C0869     R1704     -2
    C0869     R1705     -2
    C0869     R1729     1
    C0869     R1730     1
    C0869     R1731     1
    C0869     R1732     1
    C0869     R1733     1
    C0869     R1827     1
    C0869     R1828     1
    C0869     R1829     1
    C0869     R1830     1
    C0869     R1831     1
    C0869     R1855     -1
    C0869     R1856     -2
    C0869     R1857     -1
    C0869     R1858     -2
    C0869     R1859     -1
    C0869     R1991     1
    C0869     R1992     1
    C0869     R1993     1
    C0869     R2103     1
    C0869     R2104     1
    C0869     R2105     1
    C0869     R2244     -1
    C0869     R2245     -1
    C0869     R2246     -1
    C0869     R2247     -1
    C0869     R2274     1
    C0869     R2275     1
    C0869     R2276     1
    C0869     R2277     1
    C0869     R2379     1
    C0869     R2380     1
    C0869     R2381     1
    C0869     R2382     1
    C0869     R2409     -1
    C0869     R2410     -1
    C0869     R2411     -1
    C0869     R2412     -1
    C0869     R2511     -2
    C0869     R2512     -2
    C0869     R2513     -2
    C0869     R2514     -2
    C0869     R2515     -2
    C0869     R2539     1
    C0869     R2540     1
    C0869     R2541     1
    C0869     R2542     1
    C0869     R2543     1
    C0869     R2637     1
    C0869     R2638     1
    C0869     R2639     1
    C0869     R2640     1
    C0869     R2641     1
    C0869     R2665     -1
    C0869     R2666     -2
    C0869     R2667     -1
    C0869     R2668     -2
    C0869     R2669     -1
    C0871     R0815     1
    C0871     R0923     1
    C0871     R0959     1
    C0871     R1068     1
    C0871     R1183     1
    C0871     R1184     1
    C0871     R1185     1
    C0871     R1295     1
    C0871     R1296     1
    C0871     R1297     1
    C0871     R1466     1
    C0871     R1468     1
    C0871     R1571     -1
    C0871     R1572     -1
    C0871     R1573     -1
    C0871     R1602     1
    C0871     R1703     -2
    C0871     R1704     -2
    C0871     R1705     -2
    C0871     R1731     1
    C0871     R1732     1
    C0871     R1733     1
    C0871     R1829     1
    C0871     R1830     1
    C0871     R1831     1
    C0871     R1857     -1
    C0871     R1858     -2
    C0871     R1859     -1
    C0871     R1993     1
    C0871     R1994     1
    C0871     R1995     1
    C0871     R2105     1
    C0871     R2106     1
    C0871     R2107     1
    C0871     R2246     -1
    C0871     R2247     -1
    C0871     R2248     -1
    C0871     R2276     1
    C0871     R2277     1
    C0871     R2278     1
    C0871     R2381     1
    C0871     R2382     1
    C0871     R2383     1
    C0871     R2411     -1
    C0871     R2412     -1
    C0871     R2413     -1
    C0871     R2513     -2
    C0871     R2514     -2
    C0871     R2515     -2
    C0871     R2541     1
    C0871     R2542     1
    C0871     R2543     1
    C0871     R2639     1
    C0871     R2640     1
    C0871     R2641     1
    C0871     R2667     -1
    C0871     R2668     -2
    C0871     R2669     -1
    C0873     R0815     1
    C0873     R0925     1
    C0873     R0961     1
    C0873     R1068     1
    C0873     R1185     1
    C0873     R1297     1
    C0873     R1468     1
    C0873     R1573     -1
    C0873     R1705     -2
    C0873     R1733     1
    C0873     R1831     1
    C0873     R1859     -1
    C0873     R1995     1
    C0873     R2107     1
    C0873     R2248     -1
    C0873     R2278     1
    C0873     R2383     1
    C0873     R2413     -1
    C0873     R2515     -2
    C0873     R2543     1
    C0873     R2641     1
    C0873     R2669     -1
    C0901     R0835     1
    C0901     R0953     1
    C0901     R0971     1
    C0901     R1177     1
    C0901     R1178     1
    C0901     R1179     1
    C0901     R1337     1
    C0901     R1338     1
    C0901     R1339     1
    C0901     R1463     1
    C0901     R1476     -1
    C0901     R1477     -1
    C0901     R1478     -1
    C0901     R1595     1
    C0901     R1596     1
    C0901     R1597     1
    C0901     R1610     -1
    C0901     R1725     1
    C0901     R1726     1
    C0901     R1727     1
    C0901     R1728     1
    C0901     R1729     1
    C0901     R1739     -1
    C0901     R1740     -2
    C0901     R1741     -2
    C0901     R1742     -2
    C0901     R1743     -2
    C0901     R1851     -1
    C0901     R1852     -2
    C0901     R1853     -2
    C0901     R1854     -2
    C0901     R1855     -2
    C0901     R1865     1
    C0901     R1866     1
    C0901     R1867     1
    C0901     R1868     1
    C0901     R1869     1
    C0901     R1987     1
    C0901     R1988     1
    C0901     R1989     1
    C0901     R2147     1
    C0901     R2148     1
    C0901     R2149     1
    C0901     R2270     1
    C0901     R2271     1
    C0901     R2272     1
    C0901     R2273     1
    C0901     R2285     -1
    C0901     R2286     -1
    C0901     R2287     -1
    C0901     R2288     -1
    C0901     R2405     -1
    C0901     R2406     -1
    C0901     R2407     -1
    C0901     R2408     -1
    C0901     R2420     1
    C0901     R2421     1
    C0901     R2422     1
    C0901     R2423     1
    C0901     R2535     1
    C0901     R2536     1
    C0901     R2537     1
    C0901     R2538     1
    C0901     R2539     1
    C0901     R2549     -1
    C0901     R2550     -2
    C0901     R2551     -2
    C0901     R2552     -2
    C0901     R2553     -2
    C0901     R2661     -1
    C0901     R2662     -2
    C0901     R2663     -2
    C0901     R2664     -2
    C0901     R2665     -2
    C0901     R2675     1
    C0901     R2676     1
    C0901     R2677     1
    C0901     R2678     1
    C0901     R2679     1
    C0903     R0835     1
    C0903     R0955     1
    C0903     R0973     1
    C0903     R1179     1
    C0903     R1180     1
    C0903     R1181     1
    C0903     R1339     1
    C0903     R1340     1
    C0903     R1341     1
    C0903     R1463     1
    C0903     R1465     1
    C0903     R1477     -1
    C0903     R1478     -1
    C0903     R1479     -1
    C0903     R1480     -1
    C0903     R1597     1
    C0903     R1599     1
    C0903     R1727     1
    C0903     R1728     1
    C0903     R1729     1
    C0903     R1730     1
    C0903     R1731     1
    C0903     R1741     -2
    C0903     R1742     -2
    C0903     R1743     -2
    C0903     R1744     -2
    C0903     R1745     -2
    C0903     R1853     -2
    C0903     R1854     -2
    C0903     R1855     -2
    C0903     R1856     -2
    C0903     R1857     -2
    C0903     R1867     1
    C0903     R1868     1
    C0903     R1869     1
    C0903     R1870     1
    C0903     R1871     1
    C0903     R1989     1
    C0903     R1990     1
    C0903     R1991     1
    C0903     R2149     1
    C0903     R2150     1
    C0903     R2151     1
    C0903     R2272     1
    C0903     R2273     1
    C0903     R2274     1
    C0903     R2275     1
    C0903     R2287     -1
    C0903     R2288     -1
    C0903     R2289     -1
    C0903     R2290     -1
    C0903     R2407     -1
    C0903     R2408     -1
    C0903     R2409     -1
    C0903     R2410     -1
    C0903     R2422     1
    C0903     R2423     1
    C0903     R2424     1
    C0903     R2425     1
    C0903     R2537     1
    C0903     R2538     1
    C0903     R2539     1
    C0903     R2540     1
    C0903     R2541     1
    C0903     R2551     -2
    C0903     R2552     -2
    C0903     R2553     -2
    C0903     R2554     -2
    C0903     R2555     -2
    C0903     R2663     -2
    C0903     R2664     -2
    C0903     R2665     -2
    C0903     R2666     -2
    C0903     R2667     -2
    C0903     R2677     1
    C0903     R2678     1
    C0903     R2679     1
    C0903     R2680     1
    C0903     R2681     1
    C0905     R0835     1
    C0905     R0957     1
    C0905     R0975     1
    C0905     R1181     1
    C0905     R1182     1
    C0905     R1183     1
    C0905     R1341     1
    C0905     R1342     1
    C0905     R1343     1
    C0905     R1465     1
    C0905     R1466     1
    C0905     R1479     -1
    C0905     R1480     -1
    C0905     R1599     1
    C0905     R1602     1
    C0905     R1616     -1
    C0905     R1617     -1
    C0905     R1729     1
    C0905     R1730     1
    C0905     R1731     1
    C0905     R1732     1
    C0905     R1733     1
    C0905     R1743     -2
    C0905     R1744     -2
    C0905     R1745     -2
    C0905     R1746     -2
    C0905     R1747     -2
    C0905     R1855     -2
    C0905     R1856     -2
    C0905     R1857     -2
    C0905     R1858     -2
    C0905     R1859     -2
    C0905     R1869     1
    C0905     R1870     1
    C0905     R1871     1
    C0905     R1872     1
    C0905     R1873     1
    C0905     R1991     1
    C0905     R1992     1
    C0905     R1993     1
    C0905     R2151     1
    C0905     R2152     1
    C0905     R2153     1
    C0905     R2274     1
    C0905     R2275     1
    C0905     R2276     1
    C0905     R2277     1
    C0905     R2289     -1
    C0905     R2290     -1
    C0905     R2291     -1
    C0905     R2292     -1
    C0905     R2409     -1
    C0905     R2410     -1
    C0905     R2411     -1
    C0905     R2412     -1
    C0905     R2424     1
    C0905     R2425     1
    C0905     R2426     1
    C0905     R2427     1
    C0905     R2539     1
    C0905     R2540     1
    C0905     R2541     1
    C0905     R2542     1
    C0905     R2543     1
    C0905     R2553     -2
    C0905     R2554     -2
    C0905     R2555     -2
    C0905     R2556     -2
    C0905     R2557     -2
    C0905     R2665     -2
    C0905     R2666     -2
    C0905     R2667     -2
    C0905     R2668     -2
    C0905     R2669     -2
    C0905     R2679     1
    C0905     R2680     1
    C0905     R2681     1
    C0905     R2682     1
    C0905     R2683     1
    C0907     R0835     1
    C0907     R0959     1
    C0907     R0977     1
    C0907     R1183     1
    C0907     R1184     1
    C0907     R1185     1
    C0907     R1343     1
    C0907     R1344     1
    C0907     R1345     1
    C0907     R1466     1
    C0907     R1468     1
    C0907     R1483     -1
    C0907     R1602     1
    C0907     R1616     -1
    C0907     R1617     -1
    C0907     R1731     1
    C0907     R1732     1
    C0907     R1733     1
    C0907     R1745     -2
    C0907     R1746     -2
    C0907     R1747     -2
    C0907     R1857     -2
    C0907     R1858     -2
    C0907     R1859     -2
    C0907     R1871     1
    C0907     R1872     1
    C0907     R1873     1
    C0907     R1993     1
    C0907     R1994     1
    C0907     R1995     1
    C0907     R2153     1
    C0907     R2154     1
    C0907     R2155     1
    C0907     R2276     1
    C0907     R2277     1
    C0907     R2278     1
    C0907     R2291     -1
    C0907     R2292     -1
    C0907     R2293     -1
    C0907     R2411     -1
    C0907     R2412     -1
    C0907     R2413     -1
    C0907     R2426     1
    C0907     R2427     1
    C0907     R2428     1
    C0907     R2541     1
    C0907     R2542     1
    C0907     R2543     1
    C0907     R2555     -2
    C0907     R2556     -2
    C0907     R2557     -2
    C0907     R2667     -2
    C0907     R2668     -2
    C0907     R2669     -2
    C0907     R2681     1
    C0907     R2682     1
    C0907     R2683     1
    C0909     R0835     1
    C0909     R0961     1
    C0909     R0979     1
    C0909     R1185     1
    C0909     R1345     1
    C0909     R1468     1
    C0909     R1483     -1
    C0909     R1733     1
    C0909     R1747     -2
    C0909     R1859     -2
    C0909     R1873     1
    C0909     R1995     1
    C0909     R2155     1
    C0909     R2278     1
    C0909     R2293     -1
    C0909     R2413     -1
    C0909     R2428     1
    C0909     R2543     1
    C0909     R2557     -2
    C0909     R2669     -2
    C0909     R2683     1
    C0920     R0954     1
    C0920     R0990     1
    C0920     R1071     1
    C0920     R1178     1
    C0920     R1179     1
    C0920     R1180     1
    C0920     R1354     1
    C0920     R1355     1
    C0920     R1356     1
    C0920     R1463     1
    C0920     R1491     -1
    C0920     R1492     -1
    C0920     R1493     -1
    C0920     R1494     -1
    C0920     R1596     1
    C0920     R1597     1
    C0920     R1599     1
    C0920     R1726     1
    C0920     R1727     1
    C0920     R1728     1
    C0920     R1729     1
    C0920     R1730     1
    C0920     R1754     -2
    C0920     R1755     -2
    C0920     R1756     -2
    C0920     R1757     -2
    C0920     R1758     -2
    C0920     R1852     -2
    C0920     R1853     -2
    C0920     R1854     -2
    C0920     R1855     -1
    C0920     R1856     -2
    C0920     R1880     1
    C0920     R1881     1
    C0920     R1882     1
    C0920     R1883     1
    C0920     R1884     1
    C0920     R2020     1
    C0920     R2021     1
    C0920     R2022     1
    C0920     R2132     1
    C0920     R2133     1
    C0920     R2134     1
    C0920     R2271     -1
    C0920     R2272     -1
    C0920     R2273     -1
    C0920     R2274     -1
    C0920     R2301     1
    C0920     R2302     1
    C0920     R2303     1
    C0920     R2304     1
    C0920     R2406     1
    C0920     R2407     1
    C0920     R2408     1
    C0920     R2409     1
    C0920     R2436     -1
    C0920     R2437     -1
    C0920     R2438     -1
    C0920     R2439     -1
    C0920     R2536     -2
    C0920     R2537     -2
    C0920     R2538     -2
    C0920     R2539     -2
    C0920     R2540     -2
    C0920     R2564     1
    C0920     R2565     1
    C0920     R2566     1
    C0920     R2567     1
    C0920     R2568     1
    C0920     R2662     1
    C0920     R2663     1
    C0920     R2664     1
    C0920     R2665     1
    C0920     R2666     1
    C0920     R2690     -2
    C0920     R2691     -2
    C0920     R2692     -2
    C0920     R2693     -2
    C0920     R2694     -2
    C0922     R0956     1
    C0922     R0992     1
    C0922     R1071     1
    C0922     R1180     1
    C0922     R1181     1
    C0922     R1182     1
    C0922     R1356     1
    C0922     R1357     1
    C0922     R1358     1
    C0922     R1463     1
    C0922     R1465     1
    C0922     R1466     1
    C0922     R1493     -1
    C0922     R1494     -1
    C0922     R1495     -1
    C0922     R1496     -1
    C0922     R1599     1
    C0922     R1728     1
    C0922     R1729     1
    C0922     R1730     1
    C0922     R1731     1
    C0922     R1732     1
    C0922     R1756     -2
    C0922     R1757     -2
    C0922     R1758     -2
    C0922     R1759     -2
    C0922     R1760     -2
    C0922     R1854     -2
    C0922     R1855     -1
    C0922     R1856     -2
    C0922     R1857     -1
    C0922     R1858     -2
    C0922     R1882     1
    C0922     R1883     1
    C0922     R1884     1
    C0922     R1885     1
    C0922     R1886     1
    C0922     R2022     1
    C0922     R2023     1
    C0922     R2024     1
    C0922     R2134     1
    C0922     R2135     1
    C0922     R2136     1
    C0922     R2273     -1
    C0922     R2274     -1
    C0922     R2275     -1
    C0922     R2276     -1
    C0922     R2303     1
    C0922     R2304     1
    C0922     R2305     1
    C0922     R2306     1
    C0922     R2408     1
    C0922     R2409     1
    C0922     R2410     1
    C0922     R2411     1
    C0922     R2438     -1
    C0922     R2439     -1
    C0922     R2440     -1
    C0922     R2441     -1
    C0922     R2538     -2
    C0922     R2539     -2
    C0922     R2540     -2
    C0922     R2541     -2
    C0922     R2542     -2
    C0922     R2566     1
    C0922     R2567     1
    C0922     R2568     1
    C0922     R2569     1
    C0922     R2570     1
    C0922     R2664     1
    C0922     R2665     1
    C0922     R2666     1
    C0922     R2667     1
    C0922     R2668     1
    C0922     R2692     -2
    C0922     R2693     -2
    C0922     R2694     -2
    C0922     R2695     -2
    C0922     R2696     -2
    C0924     R0958     1
    C0924     R0994     1
    C0924     R1071     1
    C0924     R1182     1
    C0924     R1183     1
    C0924     R1184     1
    C0924     R1358     1
    C0924     R1359     1
    C0924     R1360     1
    C0924     R1465     1
    C0924     R1466     1
    C0924     R1468     1
    C0924     R1495     -1
    C0924     R1496     -1
    C0924     R1497     -1
    C0924     R1498     -1
    C0924     R1602     1
    C0924     R1730     1
    C0924     R1731     1
    C0924     R1732     1
    C0924     R1733     1
    C0924     R1758     -2
    C0924     R1759     -2
    C0924     R1760     -2
    C0924     R1761     -2
    C0924     R1856     -2
    C0924     R1857     -1
    C0924     R1858     -2
    C0924     R1859     -1
    C0924     R1884     1
    C0924     R1885     1
    C0924     R1886     1
    C0924     R1887     1
    C0924     R2024     1
    C0924     R2025     1
    C0924     R2026     1
    C0924     R2136     1
    C0924     R2137     1
    C0924     R2138     1
    C0924     R2275     -1
    C0924     R2276     -1
    C0924     R2277     -1
    C0924     R2278     -1
    C0924     R2305     1
    C0924     R2306     1
    C0924     R2307     1
    C0924     R2308     1
    C0924     R2410     1
    C0924     R2411     1
    C0924     R2412     1
    C0924     R2413     1
    C0924     R2440     -1
    C0924     R2441     -1
    C0924     R2442     -1
    C0924     R2443     -1
    C0924     R2540     -2
    C0924     R2541     -2
    C0924     R2542     -2
    C0924     R2543     -2
    C0924     R2568     1
    C0924     R2569     1
    C0924     R2570     1
    C0924     R2571     1
    C0924     R2666     1
    C0924     R2667     1
    C0924     R2668     1
    C0924     R2669     1
    C0924     R2694     -2
    C0924     R2695     -2
    C0924     R2696     -2
    C0924     R2697     -2
    C0926     R0960     1
    C0926     R0996     1
    C0926     R1071     1
    C0926     R1184     1
    C0926     R1185     1
    C0926     R1360     1
    C0926     R1361     1
    C0926     R1468     1
    C0926     R1497     -1
    C0926     R1498     -1
    C0926     R1602     1
    C0926     R1732     1
    C0926     R1733     1
    C0926     R1760     -2
    C0926     R1761     -2
    C0926     R1858     -2
    C0926     R1859     -1
    C0926     R1886     1
    C0926     R1887     1
    C0926     R2026     1
    C0926     R2027     1
    C0926     R2138     1
    C0926     R2139     1
    C0926     R2277     -1
    C0926     R2278     -1
    C0926     R2307     1
    C0926     R2308     1
    C0926     R2412     1
    C0926     R2413     1
    C0926     R2442     -1
    C0926     R2443     -1
    C0926     R2542     -2
    C0926     R2543     -2
    C0926     R2570     1
    C0926     R2571     1
    C0926     R2668     1
    C0926     R2669     1
    C0926     R2696     -2
    C0926     R2697     -2
    C0934     R0838     1
    C0934     R0950     1
    C0934     R1004     1
    C0934     R1072     1
    C0934     R1176     1
    C0934     R1368     1
    C0934     R1504     -1
    C0934     R1594     1
    C0934     R1595     1
    C0934     R1640     -1
    C0934     R1765     -1
    C0934     R1767     -3
    C0934     R1768     -3
    C0934     R1850     -1
    C0934     R1851     -2
    C0934     R1852     -3
    C0934     R2033     1
    C0934     R2034     1
    C0934     R2270     -1
    C0934     R2315     1
    C0934     R2402     1
    C0934     R2403     1
    C0934     R2405     1
    C0934     R2450     -1
    C0934     R2535     -2
    C0934     R2536     -3
    C0934     R2701     -1
    C0934     R2704     -3
    C0934     R2730     1
    C0934     R2742     1
    C0934     R2751     1
    C0934     R2757     1
    C0936     R0838     1
    C0936     R0952     1
    C0936     R1006     1
    C0936     R1072     1
    C0936     R1176     1
    C0936     R1177     1
    C0936     R1178     1
    C0936     R1368     1
    C0936     R1369     1
    C0936     R1370     1
    C0936     R1504     -1
    C0936     R1507     -1
    C0936     R1594     1
    C0936     R1595     1
    C0936     R1596     1
    C0936     R1597     1
    C0936     R1640     -1
    C0936     R1641     -1
    C0936     R1767     -3
    C0936     R1768     -3
    C0936     R1769     -3
    C0936     R1770     -2
    C0936     R1850     -1
    C0936     R1851     -2
    C0936     R1852     -3
    C0936     R1853     -3
    C0936     R1854     -3
    C0936     R2034     1
    C0936     R2035     1
    C0936     R2036     1
    C0936     R2131     1
    C0936     R2132     1
    C0936     R2270     -1
    C0936     R2271     -1
    C0936     R2272     -1
    C0936     R2315     1
    C0936     R2316     1
    C0936     R2317     1
    C0936     R2405     1
    C0936     R2406     1
    C0936     R2407     1
    C0936     R2450     -1
    C0936     R2451     -1
    C0936     R2452     -1
    C0936     R2535     -2
    C0936     R2536     -3
    C0936     R2537     -3
    C0936     R2538     -2
    C0936     R2704     -3
    C0936     R2705     -3
    C0936     R2706     -2
    C0936     R2730     1
    C0936     R2742     1
    C0936     R2751     1
    C0936     R2757     1
    C0936     R2884     1
    C0938     R0839     1
    C0938     R0954     1
    C0938     R1008     1
    C0938     R1072     1
    C0938     R1178     1
    C0938     R1179     1
    C0938     R1180     1
    C0938     R1370     1
    C0938     R1371     1
    C0938     R1372     1
    C0938     R1463     1
    C0938     R1507     -1
    C0938     R1508     -1
    C0938     R1596     1
    C0938     R1597     1
    C0938     R1599     1
    C0938     R1641     -1
    C0938     R1644     -1
    C0938     R1726     1
    C0938     R1727     1
    C0938     R1728     1
    C0938     R1729     1
    C0938     R1730     1
    C0938     R1768     -2
    C0938     R1769     -2
    C0938     R1770     -2
    C0938     R1771     -2
    C0938     R1772     -2
    C0938     R1852     -2
    C0938     R1853     -2
    C0938     R1854     -2
    C0938     R1855     -1
    C0938     R1856     -2
    C0938     R1894     1
    C0938     R1895     1
    C0938     R1896     1
    C0938     R1897     1
    C0938     R1898     1
    C0938     R2036     1
    C0938     R2037     1
    C0938     R2038     1
    C0938     R2132     1
    C0938     R2133     1
    C0938     R2134     1
    C0938     R2271     -1
    C0938     R2272     -1
    C0938     R2273     -1
    C0938     R2274     -1
    C0938     R2316     1
    C0938     R2317     1
    C0938     R2318     1
    C0938     R2319     1
    C0938     R2406     1
    C0938     R2407     1
    C0938     R2408     1
    C0938     R2409     1
    C0938     R2451     -1
    C0938     R2452     -1
    C0938     R2453     -1
    C0938     R2454     -1
    C0938     R2536     -2
    C0938     R2537     -2
    C0938     R2538     -2
    C0938     R2539     -2
    C0938     R2540     -2
    C0938     R2578     1
    C0938     R2579     1
    C0938     R2580     1
    C0938     R2581     1
    C0938     R2582     1
    C0938     R2662     1
    C0938     R2663     1
    C0938     R2664     1
    C0938     R2665     1
    C0938     R2666     1
    C0938     R2704     -2
    C0938     R2705     -2
    C0938     R2706     -2
    C0938     R2707     -2
    C0938     R2708     -2
    C0938     R2884     1
    C0940     R0839     1
    C0940     R0956     1
    C0940     R1010     1
    C0940     R1072     1
    C0940     R1180     1
    C0940     R1181     1
    C0940     R1182     1
    C0940     R1372     1
    C0940     R1373     1
    C0940     R1374     1
    C0940     R1463     1
    C0940     R1465     1
    C0940     R1466     1
    C0940     R1508     -1
    C0940     R1599     1
    C0940     R1644     -1
    C0940     R1645     -1
    C0940     R1646     -1
    C0940     R1728     1
    C0940     R1729     1
    C0940     R1730     1
    C0940     R1731     1
    C0940     R1732     1
    C0940     R1770     -2
    C0940     R1771     -2
    C0940     R1772     -2
    C0940     R1773     -2
    C0940     R1774     -2
    C0940     R1854     -2
    C0940     R1855     -1
    C0940     R1856     -2
    C0940     R1857     -1
    C0940     R1858     -2
    C0940     R1896     1
    C0940     R1897     1
    C0940     R1898     1
    C0940     R1899     1
    C0940     R1900     1
    C0940     R2038     1
    C0940     R2039     1
    C0940     R2040     1
    C0940     R2134     1
    C0940     R2135     1
    C0940     R2136     1
    C0940     R2273     -1
    C0940     R2274     -1
    C0940     R2275     -1
    C0940     R2276     -1
    C0940     R2318     1
    C0940     R2319     1
    C0940     R2320     1
    C0940     R2321     1
    C0940     R2408     1
    C0940     R2409     1
    C0940     R2410     1
    C0940     R2411     1
    C0940     R2453     -1
    C0940     R2454     -1
    C0940     R2455     -1
    C0940     R2456     -1
    C0940     R2538     -2
    C0940     R2539     -2
    C0940     R2540     -2
    C0940     R2541     -2
    C0940     R2542     -2
    C0940     R2580     1
    C0940     R2581     1
    C0940     R2582     1
    C0940     R2583     1
    C0940     R2584     1
    C0940     R2664     1
    C0940     R2665     1
    C0940     R2666     1
    C0940     R2667     1
    C0940     R2668     1
    C0940     R2706     -2
    C0940     R2707     -2
    C0940     R2708     -2
    C0940     R2709     -2
    C0940     R2710     -2
    C0942     R0839     1
    C0942     R0958     1
    C0942     R1012     1
    C0942     R1072     1
    C0942     R1182     1
    C0942     R1183     1
    C0942     R1184     1
    C0942     R1374     1
    C0942     R1375     1
    C0942     R1376     1
    C0942     R1465     1
    C0942     R1466     1
    C0942     R1468     1
    C0942     R1512     -1
    C0942     R1602     1
    C0942     R1645     -1
    C0942     R1646     -1
    C0942     R1648     -1
    C0942     R1730     1
    C0942     R1731     1
    C0942     R1732     1
    C0942     R1733     1
    C0942     R1772     -2
    C0942     R1773     -2
    C0942     R1774     -2
    C0942     R1775     -2
    C0942     R1856     -2
    C0942     R1857     -1
    C0942     R1858     -2
    C0942     R1859     -1
    C0942     R1898     1
    C0942     R1899     1
    C0942     R1900     1
    C0942     R1901     1
    C0942     R2040     1
    C0942     R2041     1
    C0942     R2042     1
    C0942     R2136     1
    C0942     R2137     1
    C0942     R2138     1
    C0942     R2275     -1
    C0942     R2276     -1
    C0942     R2277     -1
    C0942     R2278     -1
    C0942     R2320     1
    C0942     R2321     1
    C0942     R2322     1
    C0942     R2323     1
    C0942     R2410     1
    C0942     R2411     1
    C0942     R2412     1
    C0942     R2413     1
    C0942     R2455     -1
    C0942     R2456     -1
    C0942     R2457     -1
    C0942     R2458     -1
    C0942     R2540     -2
    C0942     R2541     -2
    C0942     R2542     -2
    C0942     R2543     -2
    C0942     R2582     1
    C0942     R2583     1
    C0942     R2584     1
    C0942     R2585     1
    C0942     R2666     1
    C0942     R2667     1
    C0942     R2668     1
    C0942     R2669     1
    C0942     R2708     -2
    C0942     R2709     -2
    C0942     R2710     -2
    C0942     R2711     -2
    C0944     R0839     1
    C0944     R0960     1
    C0944     R1014     1
    C0944     R1072     1
    C0944     R1184     1
    C0944     R1185     1
    C0944     R1376     1
    C0944     R1377     1
    C0944     R1468     1
    C0944     R1512     -1
    C0944     R1602     1
    C0944     R1648     -1
    C0944     R1732     1
    C0944     R1733     1
    C0944     R1774     -2
    C0944     R1775     -2
    C0944     R1858     -2
    C0944     R1859     -1
    C0944     R1900     1
    C0944     R1901     1
    C0944     R2042     1
    C0944     R2043     1
    C0944     R2138     1
    C0944     R2139     1
    C0944     R2277     -1
    C0944     R2278     -1
    C0944     R2322     1
    C0944     R2323     1
    C0944     R2412     1
    C0944     R2413     1
    C0944     R2457     -1
    C0944     R2458     -1
    C0944     R2542     -2
    C0944     R2543     -2
    C0944     R2584     1
    C0944     R2585     1
    C0944     R2668     1
    C0944     R2669     1
    C0944     R2710     -2
    C0944     R2711     -2
    C0952     R2932     1
    C0952     R0950     1
    C0952     R1073     1
    C0952     R1176     1
    C0952     R1382     3
    C0952     R1594     1
    C0952     R1595     1
    C0952     R1781     -1
    C0952     R1782     -1
    C0952     R1850     -1
    C0952     R1851     -2
    C0952     R1852     -3
    C0952     R1908     1
    C0952     R2270     -1
    C0952     R2329     1
    C0952     R2330     1
    C0952     R2402     1
    C0952     R2403     1
    C0952     R2405     1
    C0952     R2462     -1
    C0952     R2463     -3
    C0952     R2535     -2
    C0952     R2536     -3
    C0952     R2592     1
    C0952     R2715     -2
    C0952     R2716     -6
    C0952     R2717     -1
    C0952     R2718     -1
    C0952     R2730     1
    C0952     R2743     1
    C0952     R2752     1
    C0952     R2757     1
    C0952     R2885     1
    C0954     R0952     1
    C0954     R1073     1
    C0954     R1176     1
    C0954     R1177     1
    C0954     R1178     1
    C0954     R1385     1
    C0954     R1386     1
    C0954     R1522     -1
    C0954     R1594     1
    C0954     R1595     1
    C0954     R1596     1
    C0954     R1597     1
    C0954     R1656     -1
    C0954     R1781     -1
    C0954     R1782     -1
    C0954     R1783     -2
    C0954     R1784     -2
    C0954     R1850     -1
    C0954     R1851     -2
    C0954     R1852     -3
    C0954     R1853     -3
    C0954     R1854     -3
    C0954     R1908     1
    C0954     R1909     1
    C0954     R1910     1
    C0954     R2051     1
    C0954     R2052     1
    C0954     R2131     1
    C0954     R2132     1
    C0954     R2270     -1
    C0954     R2271     -1
    C0954     R2272     -1
    C0954     R2329     1
    C0954     R2330     1
    C0954     R2331     1
    C0954     R2332     1
    C0954     R2405     1
    C0954     R2406     1
    C0954     R2407     1
    C0954     R2466     -1
    C0954     R2467     -1
    C0954     R2535     -2
    C0954     R2536     -3
    C0954     R2537     -3
    C0954     R2538     -2
    C0954     R2592     1
    C0954     R2593     1
    C0954     R2594     1
    C0954     R2716     -4.0000000000000009e+00
    C0954     R2717     -1
    C0954     R2718     -1
    C0954     R2719     -2
    C0954     R2720     -2
    C0954     R2730     1
    C0954     R2743     1
    C0954     R2752     1
    C0954     R2757     1
    C0954     R2885     1
    C0954     R2887     1
    C0956     R0841     1
    C0956     R0954     1
    C0956     R1026     1
    C0956     R1073     1
    C0956     R1178     1
    C0956     R1179     1
    C0956     R1180     1
    C0956     R1386     1
    C0956     R1387     1
    C0956     R1388     1
    C0956     R1463     1
    C0956     R1522     -1
    C0956     R1596     1
    C0956     R1597     1
    C0956     R1599     1
    C0956     R1656     -1
    C0956     R1658     -1
    C0956     R1659     -1
    C0956     R1726     1
    C0956     R1727     1
    C0956     R1728     1
    C0956     R1729     1
    C0956     R1730     1
    C0956     R1782     -1
    C0956     R1783     -2
    C0956     R1784     -2
    C0956     R1785     -2
    C0956     R1786     -1
    C0956     R1852     -2
    C0956     R1853     -2
    C0956     R1854     -2
    C0956     R1855     -1
    C0956     R1856     -2
    C0956     R1908     1
    C0956     R1909     1
    C0956     R1910     1
    C0956     R1911     1
    C0956     R1912     1
    C0956     R2052     1
    C0956     R2053     1
    C0956     R2054     1
    C0956     R2132     1
    C0956     R2133     1
    C0956     R2134     1
    C0956     R2271     -1
    C0956     R2272     -1
    C0956     R2273     -1
    C0956     R2274     -1
    C0956     R2331     1
    C0956     R2332     1
    C0956     R2333     1
    C0956     R2334     1
    C0956     R2406     1
    C0956     R2407     1
    C0956     R2408     1
    C0956     R2409     1
    C0956     R2466     -1
    C0956     R2467     -1
    C0956     R2468     -1
    C0956     R2469     -1
    C0956     R2536     -2
    C0956     R2537     -2
    C0956     R2538     -2
    C0956     R2539     -2
    C0956     R2540     -2
    C0956     R2592     1
    C0956     R2593     1
    C0956     R2594     1
    C0956     R2595     1
    C0956     R2596     1
    C0956     R2662     1
    C0956     R2663     1
    C0956     R2664     1
    C0956     R2665     1
    C0956     R2666     1
    C0956     R2718     -1
    C0956     R2719     -2
    C0956     R2720     -2
    C0956     R2721     -2
    C0956     R2722     -1
    C0956     R2887     1
    C0958     R0841     1
    C0958     R0956     1
    C0958     R1028     1
    C0958     R1073     1
    C0958     R1180     1
    C0958     R1181     1
    C0958     R1182     1
    C0958     R1388     1
    C0958     R1389     1
    C0958     R1390     1
    C0958     R1463     1
    C0958     R1465     1
    C0958     R1466     1
    C0958     R1599     1
    C0958     R1658     -1
    C0958     R1659     -1
    C0958     R1660     -1
    C0958     R1661     -1
    C0958     R1728     1
    C0958     R1729     1
    C0958     R1730     1
    C0958     R1731     1
    C0958     R1732     1
    C0958     R1784     -2
    C0958     R1785     -2
    C0958     R1786     -1
    C0958     R1787     -2
    C0958     R1788     -1
    C0958     R1854     -2
    C0958     R1855     -1
    C0958     R1856     -2
    C0958     R1857     -1
    C0958     R1858     -2
    C0958     R1910     1
    C0958     R1911     1
    C0958     R1912     1
    C0958     R1913     1
    C0958     R1914     1
    C0958     R2054     1
    C0958     R2055     1
    C0958     R2056     1
    C0958     R2134     1
    C0958     R2135     1
    C0958     R2136     1
    C0958     R2273     -1
    C0958     R2274     -1
    C0958     R2275     -1
    C0958     R2276     -1
    C0958     R2333     1
    C0958     R2334     1
    C0958     R2335     1
    C0958     R2336     1
    C0958     R2408     1
    C0958     R2409     1
    C0958     R2410     1
    C0958     R2411     1
    C0958     R2468     -1
    C0958     R2469     -1
    C0958     R2470     -1
    C0958     R2471     -1
    C0958     R2538     -2
    C0958     R2539     -2
    C0958     R2540     -2
    C0958     R2541     -2
    C0958     R2542     -2
    C0958     R2594     1
    C0958     R2595     1
    C0958     R2596     1
    C0958     R2597     1
    C0958     R2598     1
    C0958     R2664     1
    C0958     R2665     1
    C0958     R2666     1
    C0958     R2667     1
    C0958     R2668     1
    C0958     R2720     -2
    C0958     R2721     -2
    C0958     R2722     -1
    C0958     R2723     -2
    C0958     R2724     -1
    C0960     R0841     1
    C0960     R0958     1
    C0960     R1030     1
    C0960     R1073     1
    C0960     R1182     1
    C0960     R1183     1
    C0960     R1184     1
    C0960     R1390     1
    C0960     R1391     1
    C0960     R1392     1
    C0960     R1465     1
    C0960     R1466     1
    C0960     R1468     1
    C0960     R1528     -1
    C0960     R1602     1
    C0960     R1660     -1
    C0960     R1661     -1
    C0960     R1662     -1
    C0960     R1730     1
    C0960     R1731     1
    C0960     R1732     1
    C0960     R1733     1
    C0960     R1786     -1
    C0960     R1787     -2
    C0960     R1788     -1
    C0960     R1789     -2
    C0960     R1856     -2
    C0960     R1857     -1
    C0960     R1858     -2
    C0960     R1859     -1
    C0960     R1912     1
    C0960     R1913     1
    C0960     R1914     1
    C0960     R1915     1
    C0960     R2056     1
    C0960     R2057     1
    C0960     R2058     1
    C0960     R2136     1
    C0960     R2137     1
    C0960     R2138     1
    C0960     R2275     -1
    C0960     R2276     -1
    C0960     R2277     -1
    C0960     R2278     -1
    C0960     R2335     1
    C0960     R2336     1
    C0960     R2337     1
    C0960     R2338     1
    C0960     R2410     1
    C0960     R2411     1
    C0960     R2412     1
    C0960     R2413     1
    C0960     R2470     -1
    C0960     R2471     -1
    C0960     R2472     -1
    C0960     R2473     -1
    C0960     R2540     -2
    C0960     R2541     -2
    C0960     R2542     -2
    C0960     R2543     -2
    C0960     R2596     1
    C0960     R2597     1
    C0960     R2598     1
    C0960     R2599     1
    C0960     R2666     1
    C0960     R2667     1
    C0960     R2668     1
    C0960     R2669     1
    C0960     R2722     -1
    C0960     R2723     -2
    C0960     R2724     -1
    C0960     R2725     -2
    C0962     R0841     1
    C0962     R0960     1
    C0962     R1032     1
    C0962     R1073     1
    C0962     R1184     1
    C0962     R1185     1
    C0962     R1392     1
    C0962     R1393     1
    C0962     R1468     1
    C0962     R1528     -1
    C0962     R1602     1
    C0962     R1662     -1
    C0962     R1732     1
    C0962     R1733     1
    C0962     R1788     -1
    C0962     R1789     -2
    C0962     R1858     -2
    C0962     R1859     -1
    C0962     R1914     1
    C0962     R1915     1
    C0962     R2058     1
    C0962     R2059     1
    C0962     R2138     1
    C0962     R2139     1
    C0962     R2277     -1
    C0962     R2278     -1
    C0962     R2337     1
    C0962     R2338     1
    C0962     R2412     1
    C0962     R2413     1
    C0962     R2472     -1
    C0962     R2473     -1
    C0962     R2542     -2
    C0962     R2543     -2
    C0962     R2598     1
    C0962     R2599     1
    C0962     R2668     1
    C0962     R2669     1
    C0962     R2724     -1
    C0962     R2725     -2
    C0973     R0863     1
    C0973     R0953     1
    C0973     R2919     1
    C0974     R0863     1
    C0974     R0954     1
    C0974     R2919     1
    C0975     R0863     1
    C0975     R0955     1
    C0976     R0863     1
    C0976     R0956     1
    C0977     R0863     1
    C0977     R0957     1
    C0978     R0863     1
    C0978     R0958     1
    C0979     R0863     1
    C0979     R0959     1
    C0980     R0863     1
    C0980     R0960     1
    C0981     R0863     1
    C0981     R0961     1
    C0992     R0791     1
    C0992     R0882     1
    C0992     R0972     1
    C0992     R1194     1
    C0992     R1195     1
    C0992     R1196     1
    C0992     R1258     1
    C0992     R1259     1
    C0992     R1260     1
    C0992     R1476     1
    C0992     R1477     1
    C0992     R1478     1
    C0992     R1479     1
    C0992     R1536     -1
    C0992     R1537     -1
    C0992     R1538     -1
    C0992     R1539     -1
    C0992     R1670     -2
    C0992     R1671     -2
    C0992     R1672     -2
    C0992     R1673     -1
    C0992     R1674     -2
    C0992     R1740     1
    C0992     R1741     1
    C0992     R1742     1
    C0992     R1743     1
    C0992     R1744     1
    C0992     R1796     1
    C0992     R1797     1
    C0992     R1798     1
    C0992     R1799     1
    C0992     R1800     1
    C0992     R1866     -2
    C0992     R1867     -2
    C0992     R1868     -2
    C0992     R1869     -2
    C0992     R1870     -2
    C0992     R1924     1
    C0992     R1925     1
    C0992     R1926     1
    C0992     R2148     1
    C0992     R2149     1
    C0992     R2150     1
    C0992     R2211     1
    C0992     R2212     1
    C0992     R2213     1
    C0992     R2214     1
    C0992     R2286     -1
    C0992     R2287     -1
    C0992     R2288     -1
    C0992     R2289     -1
    C0992     R2346     -1
    C0992     R2347     -1
    C0992     R2348     -1
    C0992     R2349     -1
    C0992     R2421     1
    C0992     R2422     1
    C0992     R2423     1
    C0992     R2424     1
    C0992     R2480     1
    C0992     R2481     1
    C0992     R2482     1
    C0992     R2483     1
    C0992     R2484     1
    C0992     R2550     -2
    C0992     R2551     -2
    C0992     R2552     -2
    C0992     R2553     -2
    C0992     R2554     -2
    C0992     R2606     -2
    C0992     R2607     -2
    C0992     R2608     -2
    C0992     R2609     -2
    C0992     R2610     -2
    C0992     R2676     1
    C0992     R2677     1
    C0992     R2678     1
    C0992     R2679     1
    C0992     R2680     1
    C0994     R0791     1
    C0994     R0884     1
    C0994     R0974     1
    C0994     R1196     1
    C0994     R1197     1
    C0994     R1198     1
    C0994     R1260     1
    C0994     R1261     1
    C0994     R1262     1
    C0994     R1405     -1
    C0994     R1406     -1
    C0994     R1478     1
    C0994     R1479     1
    C0994     R1480     1
    C0994     R1538     -1
    C0994     R1539     -1
    C0994     R1616     1
    C0994     R1672     -2
    C0994     R1673     -1
    C0994     R1674     -2
    C0994     R1675     -1
    C0994     R1676     -2
    C0994     R1742     1
    C0994     R1743     1
    C0994     R1744     1
    C0994     R1745     1
    C0994     R1746     1
    C0994     R1798     1
    C0994     R1799     1
    C0994     R1800     1
    C0994     R1801     1
    C0994     R1802     1
    C0994     R1868     -2
    C0994     R1869     -2
    C0994     R1870     -2
    C0994     R1871     -2
    C0994     R1872     -2
    C0994     R1926     1
    C0994     R1927     1
    C0994     R1928     1
    C0994     R2150     1
    C0994     R2151     1
    C0994     R2152     1
    C0994     R2213     1
    C0994     R2214     1
    C0994     R2215     1
    C0994     R2216     1
    C0994     R2288     -1
    C0994     R2289     -1
    C0994     R2290     -1
    C0994     R2291     -1
    C0994     R2348     -1
    C0994     R2349     -1
    C0994     R2350     -1
    C0994     R2351     -1
    C0994     R2423     1
    C0994     R2424     1
    C0994     R2425     1
    C0994     R2426     1
    C0994     R2482     1
    C0994     R2483     1
    C0994     R2484     1
    C0994     R2485     1
    C0994     R2486     1
    C0994     R2552     -2
    C0994     R2553     -2
    C0994     R2554     -2
    C0994     R2555     -2
    C0994     R2556     -2
    C0994     R2608     -2
    C0994     R2609     -2
    C0994     R2610     -2
    C0994     R2611     -2
    C0994     R2612     -2
    C0994     R2678     1
    C0994     R2679     1
    C0994     R2680     1
    C0994     R2681     1
    C0994     R2682     1
    C0996     R0791     1
    C0996     R0886     1
    C0996     R0976     1
    C0996     R1198     1
    C0996     R1199     1
    C0996     R1200     1
    C0996     R1262     1
    C0996     R1263     1
    C0996     R1264     1
    C0996     R1405     -1
    C0996     R1406     -1
    C0996     R1408     -1
    C0996     R1480     1
    C0996     R1483     1
    C0996     R1542     -1
    C0996     R1616     1
    C0996     R1617     1
    C0996     R1674     -2
    C0996     R1675     -1
    C0996     R1676     -2
    C0996     R1677     -1
    C0996     R1744     1
    C0996     R1745     1
    C0996     R1746     1
    C0996     R1747     1
    C0996     R1800     1
    C0996     R1801     1
    C0996     R1802     1
    C0996     R1803     1
    C0996     R1870     -2
    C0996     R1871     -2
    C0996     R1872     -2
    C0996     R1873     -2
    C0996     R1928     1
    C0996     R1929     1
    C0996     R1930     1
    C0996     R2152     1
    C0996     R2153     1
    C0996     R2154     1
    C0996     R2215     1
    C0996     R2216     1
    C0996     R2217     1
    C0996     R2218     1
    C0996     R2290     -1
    C0996     R2291     -1
    C0996     R2292     -1
    C0996     R2293     -1
    C0996     R2350     -1
    C0996     R2351     -1
    C0996     R2352     -1
    C0996     R2353     -1
    C0996     R2425     1
    C0996     R2426     1
    C0996     R2427     1
    C0996     R2428     1
    C0996     R2484     1
    C0996     R2485     1
    C0996     R2486     1
    C0996     R2487     1
    C0996     R2554     -2
    C0996     R2555     -2
    C0996     R2556     -2
    C0996     R2557     -2
    C0996     R2610     -2
    C0996     R2611     -2
    C0996     R2612     -2
    C0996     R2613     -2
    C0996     R2680     1
    C0996     R2681     1
    C0996     R2682     1
    C0996     R2683     1
    C0998     R0791     1
    C0998     R0888     1
    C0998     R0978     1
    C0998     R1200     1
    C0998     R1201     1
    C0998     R1264     1
    C0998     R1265     1
    C0998     R1408     -1
    C0998     R1483     1
    C0998     R1542     -1
    C0998     R1617     1
    C0998     R1676     -2
    C0998     R1677     -1
    C0998     R1746     1
    C0998     R1747     1
    C0998     R1802     1
    C0998     R1803     1
    C0998     R1872     -2
    C0998     R1873     -2
    C0998     R1930     1
    C0998     R1931     1
    C0998     R2154     1
    C0998     R2155     1
    C0998     R2217     1
    C0998     R2218     1
    C0998     R2292     -1
    C0998     R2293     -1
    C0998     R2352     -1
    C0998     R2353     -1
    C0998     R2427     1
    C0998     R2428     1
    C0998     R2486     1
    C0998     R2487     1
    C0998     R2556     -2
    C0998     R2557     -2
    C0998     R2612     -2
    C0998     R2613     -2
    C0998     R2682     1
    C0998     R2683     1
    C1005     R0804     1
    C1005     R0895     1
    C1005     R0967     1
    C1005     R1075     1
    C1005     R1189     1
    C1005     R1190     1
    C1005     R1271     1
    C1005     R1413     -1
    C1005     R1473     1
    C1005     R1549     -1
    C1005     R1607     1
    C1005     R1681     -2
    C1005     R1682     -1
    C1005     R1683     -3
    C1005     R1737     1
    C1005     R1865     -2
    C1005     R2000     1
    C1005     R2081     1
    C1005     R2223     -1
    C1005     R2224     -1
    C1005     R2283     1
    C1005     R2359     1
    C1005     R2491     -2
    C1005     R2492     -1
    C1005     R2493     -3
    C1005     R2675     -2
    C1005     R2731     1
    C1005     R2736     1
    C1005     R2749     1
    C1005     R2754     1
    C1005     R2773     1
    C1006     OBJ       129
    C1006     R0804     1
    C1006     R0896     1
    C1006     R0968     1
    C1006     R1075     1
    C1006     R1190     1
    C1006     R1271     1
    C1006     R1272     1
    C1006     R1413     -1
    C1006     R1415     -1
    C1006     R1473     1
    C1006     R1549     -1
    C1006     R1607     1
    C1006     R1610     1
    C1006     R1681     -2
    C1006     R1682     -1
    C1006     R1683     -3
    C1006     R1684     -3
    C1006     R1737     1
    C1006     R1740     1
    C1006     R1865     -2
    C1006     R1866     -2
    C1006     R1936     1
    C1006     R2146     1
    C1006     R2222     1
    C1006     R2223     1
    C1006     R2224     1
    C1006     R2225     1
    C1006     R2283     -1
    C1006     R2285     -1
    C1006     R2359     -1
    C1006     R2360     -1
    C1006     R2419     1
    C1006     R2420     1
    C1006     R2548     -1
    C1006     R2549     -2
    C1006     R2550     -2
    C1006     R2619     -3
    C1006     R2620     -3
    C1006     R2676     1
    C1006     R2731     1
    C1006     R2736     1
    C1006     R2745     1
    C1006     R2758     1
    C1006     R2831     1
    C1007     R0804     1
    C1007     R0897     1
    C1007     R0969     1
    C1007     R1075     1
    C1007     R1193     1
    C1007     R1271     1
    C1007     R1272     1
    C1007     R1273     1
    C1007     R1413     -1
    C1007     R1415     -1
    C1007     R1416     -1
    C1007     R1473     1
    C1007     R1476     1
    C1007     R1549     -1
    C1007     R1610     1
    C1007     R1681     -2
    C1007     R1682     -1
    C1007     R1683     -3
    C1007     R1684     -3
    C1007     R1685     -3
    C1007     R1737     1
    C1007     R1740     1
    C1007     R1741     1
    C1007     R1865     -2
    C1007     R1866     -2
    C1007     R1867     -2
    C1007     R2003     1
    C1007     R2081     1
    C1007     R2082     1
    C1007     R2083     1
    C1007     R2223     -1
    C1007     R2224     -1
    C1007     R2225     -1
    C1007     R2226     -1
    C1007     R2283     1
    C1007     R2285     1
    C1007     R2286     1
    C1007     R2359     1
    C1007     R2360     1
    C1007     R2361     1
    C1007     R2420     -1
    C1007     R2421     -1
    C1007     R2491     -2
    C1007     R2492     -1
    C1007     R2493     -3
    C1007     R2494     -3
    C1007     R2495     -3
    C1007     R2550     1
    C1007     R2551     1
    C1007     R2675     -2
    C1007     R2676     -2
    C1007     R2677     -2
    C1007     R2731     1
    C1007     R2736     1
    C1007     R2749     1
    C1007     R2754     1
    C1007     R2773     1
    C1007     R2831     1
    C1007     R2832     1
    C1008     OBJ       129
    C1008     R0804     1
    C1008     R0898     1
    C1008     R0970     1
    C1008     R1075     1
    C1008     R1193     1
    C1008     R1194     1
    C1008     R1272     1
    C1008     R1273     1
    C1008     R1274     1
    C1008     R1415     -1
    C1008     R1416     -1
    C1008     R1476     1
    C1008     R1477     1
    C1008     R1549     -1
    C1008     R1552     -1
    C1008     R1610     1
    C1008     R1682     -1
    C1008     R1683     -3
    C1008     R1684     -3
    C1008     R1685     -3
    C1008     R1686     -2
    C1008     R1740     1
    C1008     R1741     1
    C1008     R1742     1
    C1008     R1865     -2
    C1008     R1866     -2
    C1008     R1867     -2
    C1008     R1868     -2
    C1008     R1939     1
    C1008     R1940     1
    C1008     R2146     1
    C1008     R2147     1
    C1008     R2148     1
    C1008     R2224     1
    C1008     R2225     1
    C1008     R2226     1
    C1008     R2227     1
    C1008     R2285     -1
    C1008     R2286     -1
    C1008     R2287     -1
    C1008     R2359     -1
    C1008     R2360     -1
    C1008     R2361     -1
    C1008     R2362     -1
    C1008     R2419     1
    C1008     R2420     1
    C1008     R2421     1
    C1008     R2422     1
    C1008     R2548     -1
    C1008     R2549     -2
    C1008     R2550     -2
    C1008     R2551     -2
    C1008     R2552     -2
    C1008     R2619     -3
    C1008     R2620     -3
    C1008     R2621     -3
    C1008     R2622     -2
    C1008     R2676     1
    C1008     R2677     1
    C1008     R2678     1
    C1008     R2731     1
    C1008     R2736     1
    C1008     R2745     1
    C1008     R2758     1
    C1008     R2831     1
    C1008     R2832     1
    C1008     R2833     1
    C1009     R0805     1
    C1009     R0899     1
    C1009     R0971     1
    C1009     R1075     1
    C1009     R1193     1
    C1009     R1194     1
    C1009     R1195     1
    C1009     R1273     1
    C1009     R1274     1
    C1009     R1275     1
    C1009     R1415     -1
    C1009     R1416     -1
    C1009     R1418     -1
    C1009     R1476     1
    C1009     R1477     1
    C1009     R1478     1
    C1009     R1552     -1
    C1009     R1610     1
    C1009     R1683     -2
    C1009     R1684     -2
    C1009     R1685     -2
    C1009     R1686     -2
    C1009     R1687     -2
    C1009     R1739     1
    C1009     R1740     1
    C1009     R1741     1
    C1009     R1742     1
    C1009     R1743     1
    C1009     R1809     1
    C1009     R1810     1
    C1009     R1811     1
    C1009     R1812     1
    C1009     R1813     1
    C1009     R1865     -1
    C1009     R1866     -2
    C1009     R1867     -2
    C1009     R1868     -2
    C1009     R1869     -2
    C1009     R2003     1
    C1009     R2004     1
    C1009     R2005     1
    C1009     R2083     1
    C1009     R2084     1
    C1009     R2085     1
    C1009     R2225     -1
    C1009     R2226     -1
    C1009     R2227     -1
    C1009     R2228     -1
    C1009     R2285     1
    C1009     R2286     1
    C1009     R2287     1
    C1009     R2288     1
    C1009     R2360     1
    C1009     R2361     1
    C1009     R2362     1
    C1009     R2363     1
    C1009     R2420     -1
    C1009     R2421     -1
    C1009     R2422     -1
    C1009     R2423     -1
    C1009     R2493     -2
    C1009     R2494     -2
    C1009     R2495     -2
    C1009     R2496     -2
    C1009     R2497     -2
    C1009     R2549     1
    C1009     R2550     1
    C1009     R2551     1
    C1009     R2552     1
    C1009     R2553     1
    C1009     R2619     1
    C1009     R2620     1
    C1009     R2621     1
    C1009     R2622     1
    C1009     R2623     1
    C1009     R2675     -1
    C1009     R2676     -2
    C1009     R2677     -2
    C1009     R2678     -2
    C1009     R2679     -2
    C1009     R2773     -1
    C1009     R2831     1
    C1009     R2832     1
    C1009     R2833     1
    C1010     OBJ       129
    C1010     R0805     1
    C1010     R0900     1
    C1010     R0972     1
    C1010     R1075     1
    C1010     R1194     1
    C1010     R1195     1
    C1010     R1196     1
    C1010     R1274     1
    C1010     R1275     1
    C1010     R1276     1
    C1010     R1416     -1
    C1010     R1418     -1
    C1010     R1419     -1
    C1010     R1476     1
    C1010     R1477     1
    C1010     R1478     1
    C1010     R1479     1
    C1010     R1552     -1
    C1010     R1684     -2
    C1010     R1685     -2
    C1010     R1686     -2
    C1010     R1687     -2
    C1010     R1688     -2
    C1010     R1740     1
    C1010     R1741     1
    C1010     R1742     1
    C1010     R1743     1
    C1010     R1744     1
    C1010     R1810     1
    C1010     R1811     1
    C1010     R1812     1
    C1010     R1813     1
    C1010     R1814     1
    C1010     R1866     -2
    C1010     R1867     -2
    C1010     R1868     -2
    C1010     R1869     -2
    C1010     R1870     -2
    C1010     R1940     1
    C1010     R1941     1
    C1010     R1942     1
    C1010     R2148     1
    C1010     R2149     1
    C1010     R2150     1
    C1010     R2226     1
    C1010     R2227     1
    C1010     R2228     1
    C1010     R2229     1
    C1010     R2286     -1
    C1010     R2287     -1
    C1010     R2288     -1
    C1010     R2289     -1
    C1010     R2361     -1
    C1010     R2362     -1
    C1010     R2363     -1
    C1010     R2364     -1
    C1010     R2421     1
    C1010     R2422     1
    C1010     R2423     1
    C1010     R2424     1
    C1010     R2494     1
    C1010     R2495     1
    C1010     R2496     1
    C1010     R2497     1
    C1010     R2498     1
    C1010     R2550     -2
    C1010     R2551     -2
    C1010     R2552     -2
    C1010     R2553     -2
    C1010     R2554     -2
    C1010     R2620     -2
    C1010     R2621     -2
    C1010     R2622     -2
    C1010     R2623     -2
    C1010     R2624     -2
    C1010     R2676     1
    C1010     R2677     1
    C1010     R2678     1
    C1010     R2679     1
    C1010     R2680     1
    C1010     R2832     1
    C1010     R2833     1
    C1011     R0805     1
    C1011     R0901     1
    C1011     R0973     1
    C1011     R1075     1
    C1011     R1195     1
    C1011     R1196     1
    C1011     R1197     1
    C1011     R1275     1
    C1011     R1276     1
    C1011     R1277     1
    C1011     R1418     -1
    C1011     R1419     -1
    C1011     R1420     -1
    C1011     R1477     1
    C1011     R1478     1
    C1011     R1479     1
    C1011     R1480     1
    C1011     R1552     -1
    C1011     R1685     -2
    C1011     R1686     -2
    C1011     R1687     -2
    C1011     R1688     -2
    C1011     R1689     -2
    C1011     R1741     1
    C1011     R1742     1
    C1011     R1743     1
    C1011     R1744     1
    C1011     R1745     1
    C1011     R1811     1
    C1011     R1812     1
    C1011     R1813     1
    C1011     R1814     1
    C1011     R1815     1
    C1011     R1867     -2
    C1011     R1868     -2
    C1011     R1869     -2
    C1011     R1870     -2
    C1011     R1871     -2
    C1011     R2005     1
    C1011     R2006     1
    C1011     R2007     1
    C1011     R2085     1
    C1011     R2086     1
    C1011     R2087     1
    C1011     R2227     -1
    C1011     R2228     -1
    C1011     R2229     -1
    C1011     R2230     -1
    C1011     R2287     1
    C1011     R2288     1
    C1011     R2289     1
    C1011     R2290     1
    C1011     R2362     1
    C1011     R2363     1
    C1011     R2364     1
    C1011     R2365     1
    C1011     R2422     -1
    C1011     R2423     -1
    C1011     R2424     -1
    C1011     R2425     -1
    C1011     R2495     -2
    C1011     R2496     -2
    C1011     R2497     -2
    C1011     R2498     -2
    C1011     R2499     -2
    C1011     R2551     1
    C1011     R2552     1
    C1011     R2553     1
    C1011     R2554     1
    C1011     R2555     1
    C1011     R2621     1
    C1011     R2622     1
    C1011     R2623     1
    C1011     R2624     1
    C1011     R2625     1
    C1011     R2677     -2
    C1011     R2678     -2
    C1011     R2679     -2
    C1011     R2680     -2
    C1011     R2681     -2
    C1011     R2773     -1
    C1011     R2833     1
    C1012     OBJ       129
    C1012     R0805     1
    C1012     R0902     1
    C1012     R0974     1
    C1012     R1075     1
    C1012     R1196     1
    C1012     R1197     1
    C1012     R1198     1
    C1012     R1276     1
    C1012     R1277     1
    C1012     R1278     1
    C1012     R1418     -1
    C1012     R1419     -1
    C1012     R1420     -1
    C1012     R1421     -1
    C1012     R1478     1
    C1012     R1479     1
    C1012     R1480     1
    C1012     R1616     1
    C1012     R1686     -2
    C1012     R1687     -2
    C1012     R1688     -2
    C1012     R1689     -2
    C1012     R1690     -2
    C1012     R1742     1
    C1012     R1743     1
    C1012     R1744     1
    C1012     R1745     1
    C1012     R1746     1
    C1012     R1812     1
    C1012     R1813     1
    C1012     R1814     1
    C1012     R1815     1
    C1012     R1816     1
    C1012     R1868     -2
    C1012     R1869     -2
    C1012     R1870     -2
    C1012     R1871     -2
    C1012     R1872     -2
    C1012     R1942     1
    C1012     R1943     1
    C1012     R1944     1
    C1012     R2150     1
    C1012     R2151     1
    C1012     R2152     1
    C1012     R2228     1
    C1012     R2229     1
    C1012     R2230     1
    C1012     R2231     1
    C1012     R2288     -1
    C1012     R2289     -1
    C1012     R2290     -1
    C1012     R2291     -1
    C1012     R2363     -1
    C1012     R2364     -1
    C1012     R2365     -1
    C1012     R2366     -1
    C1012     R2423     1
    C1012     R2424     1
    C1012     R2425     1
    C1012     R2426     1
    C1012     R2496     1
    C1012     R2497     1
    C1012     R2498     1
    C1012     R2499     1
    C1012     R2500     1
    C1012     R2552     -2
    C1012     R2553     -2
    C1012     R2554     -2
    C1012     R2555     -2
    C1012     R2556     -2
    C1012     R2622     -2
    C1012     R2623     -2
    C1012     R2624     -2
    C1012     R2625     -2
    C1012     R2626     -2
    C1012     R2678     1
    C1012     R2679     1
    C1012     R2680     1
    C1012     R2681     1
    C1012     R2682     1
    C1013     R2833     1
    C1013     R0805     1
    C1013     R0903     1
    C1013     R0975     1
    C1013     R1075     1
    C1013     R1197     1
    C1013     R1198     1
    C1013     R1199     1
    C1013     R1277     1
    C1013     R1278     1
    C1013     R1279     1
    C1013     R1419     -1
    C1013     R1420     -1
    C1013     R1421     -1
    C1013     R1422     -1
    C1013     R1479     1
    C1013     R1480     1
    C1013     R1616     1
    C1013     R1617     1
    C1013     R1687     -2
    C1013     R1688     -2
    C1013     R1689     -2
    C1013     R1690     -2
    C1013     R1691     -2
    C1013     R1743     1
    C1013     R1744     1
    C1013     R1745     1
    C1013     R1746     1
    C1013     R1747     1
    C1013     R1813     1
    C1013     R1814     1
    C1013     R1815     1
    C1013     R1816     1
    C1013     R1817     1
    C1013     R1869     -2
    C1013     R1870     -2
    C1013     R1871     -2
    C1013     R1872     -2
    C1013     R1873     -2
    C1013     R2007     1
    C1013     R2008     1
    C1013     R2009     1
    C1013     R2087     1
    C1013     R2088     1
    C1013     R2089     1
    C1013     R2229     -1
    C1013     R2230     -1
    C1013     R2231     -1
    C1013     R2232     -1
    C1013     R2289     1
    C1013     R2290     1
    C1013     R2291     1
    C1013     R2292     1
    C1013     R2364     1
    C1013     R2365     1
    C1013     R2366     1
    C1013     R2367     1
    C1013     R2424     -1
    C1013     R2425     -1
    C1013     R2426     -1
    C1013     R2427     -1
    C1013     R2497     -2
    C1013     R2498     -2
    C1013     R2499     -2
    C1013     R2500     -2
    C1013     R2501     -2
    C1013     R2553     1
    C1013     R2554     1
    C1013     R2555     1
    C1013     R2556     1
    C1013     R2557     1
    C1013     R2623     1
    C1013     R2624     1
    C1013     R2625     1
    C1013     R2626     1
    C1013     R2627     1
    C1013     R2679     -2
    C1013     R2680     -2
    C1013     R2681     -2
    C1013     R2682     -2
    C1013     R2683     -2
    C1013     R2773     -1
    C1014     OBJ       129
    C1014     R0805     1
    C1014     R0904     1
    C1014     R0976     1
    C1014     R1075     1
    C1014     R1198     1
    C1014     R1199     1
    C1014     R1200     1
    C1014     R1278     1
    C1014     R1279     1
    C1014     R1280     1
    C1014     R1420     -1
    C1014     R1421     -1
    C1014     R1422     -1
    C1014     R1423     -1
    C1014     R1480     1
    C1014     R1483     1
    C1014     R1616     1
    C1014     R1617     1
    C1014     R1688     -2
    C1014     R1689     -2
    C1014     R1690     -2
    C1014     R1691     -2
    C1014     R1744     1
    C1014     R1745     1
    C1014     R1746     1
    C1014     R1747     1
    C1014     R1814     1
    C1014     R1815     1
    C1014     R1816     1
    C1014     R1817     1
    C1014     R1870     -2
    C1014     R1871     -2
    C1014     R1872     -2
    C1014     R1873     -2
    C1014     R1944     1
    C1014     R1945     1
    C1014     R1946     1
    C1014     R2152     1
    C1014     R2153     1
    C1014     R2154     1
    C1014     R2230     1
    C1014     R2231     1
    C1014     R2232     1
    C1014     R2233     1
    C1014     R2290     -1
    C1014     R2291     -1
    C1014     R2292     -1
    C1014     R2293     -1
    C1014     R2365     -1
    C1014     R2366     -1
    C1014     R2367     -1
    C1014     R2368     -1
    C1014     R2425     1
    C1014     R2426     1
    C1014     R2427     1
    C1014     R2428     1
    C1014     R2498     1
    C1014     R2499     1
    C1014     R2500     1
    C1014     R2501     1
    C1014     R2554     -2
    C1014     R2555     -2
    C1014     R2556     -2
    C1014     R2557     -2
    C1014     R2624     -2
    C1014     R2625     -2
    C1014     R2626     -2
    C1014     R2627     -2
    C1014     R2680     1
    C1014     R2681     1
    C1014     R2682     1
    C1014     R2683     1
    C1015     R2833     1
    C1015     R0805     1
    C1015     R0905     1
    C1015     R0977     1
    C1015     R1075     1
    C1015     R1199     1
    C1015     R1200     1
    C1015     R1201     1
    C1015     R1279     1
    C1015     R1280     1
    C1015     R1281     1
    C1015     R1421     -1
    C1015     R1422     -1
    C1015     R1423     -1
    C1015     R1483     1
    C1015     R1616     1
    C1015     R1617     1
    C1015     R1689     -2
    C1015     R1690     -2
    C1015     R1691     -2
    C1015     R1745     1
    C1015     R1746     1
    C1015     R1747     1
    C1015     R1815     1
    C1015     R1816     1
    C1015     R1817     1
    C1015     R1871     -2
    C1015     R1872     -2
    C1015     R1873     -2
    C1015     R2009     1
    C1015     R2010     1
    C1015     R2011     1
    C1015     R2089     1
    C1015     R2090     1
    C1015     R2091     1
    C1015     R2231     -1
    C1015     R2232     -1
    C1015     R2233     -1
    C1015     R2291     1
    C1015     R2292     1
    C1015     R2293     1
    C1015     R2366     1
    C1015     R2367     1
    C1015     R2368     1
    C1015     R2426     -1
    C1015     R2427     -1
    C1015     R2428     -1
    C1015     R2499     -2
    C1015     R2500     -2
    C1015     R2501     -2
    C1015     R2555     1
    C1015     R2556     1
    C1015     R2557     1
    C1015     R2625     1
    C1015     R2626     1
    C1015     R2627     1
    C1015     R2681     -2
    C1015     R2682     -2
    C1015     R2683     -2
    C1015     R2773     -1
    C1016     OBJ       129
    C1016     R0805     1
    C1016     R0906     1
    C1016     R0978     1
    C1016     R1075     1
    C1016     R1200     1
    C1016     R1201     1
    C1016     R1280     1
    C1016     R1281     1
    C1016     R1422     -1
    C1016     R1423     -1
    C1016     R1483     1
    C1016     R1617     1
    C1016     R1690     -2
    C1016     R1691     -2
    C1016     R1746     1
    C1016     R1747     1
    C1016     R1816     1
    C1016     R1817     1
    C1016     R1872     -2
    C1016     R1873     -2
    C1016     R1946     1
    C1016     R1947     1
    C1016     R2154     1
    C1016     R2155     1
    C1016     R2232     1
    C1016     R2233     1
    C1016     R2292     -1
    C1016     R2293     -1
    C1016     R2367     -1
    C1016     R2368     -1
    C1016     R2427     1
    C1016     R2428     1
    C1016     R2500     1
    C1016     R2501     1
    C1016     R2556     -2
    C1016     R2557     -2
    C1016     R2626     -2
    C1016     R2627     -2
    C1016     R2682     1
    C1016     R2683     1
    C1017     R2833     1
    C1017     R0805     1
    C1017     R0907     1
    C1017     R0979     1
    C1017     R1075     1
    C1017     R1201     1
    C1017     R1281     1
    C1017     R1423     -1
    C1017     R1483     1
    C1017     R1691     -2
    C1017     R1747     1
    C1017     R1817     1
    C1017     R1873     -2
    C1017     R2011     1
    C1017     R2091     1
    C1017     R2233     -1
    C1017     R2293     1
    C1017     R2368     1
    C1017     R2428     -1
    C1017     R2501     -2
    C1017     R2557     1
    C1017     R2627     1
    C1017     R2683     -2
    C1017     R2773     -1
    C1045     R0935     1
    C1045     R0971     1
    C1045     R1193     1
    C1045     R1194     1
    C1045     R1195     1
    C1045     R1305     1
    C1045     R1306     1
    C1045     R1307     1
    C1045     R1446     -1
    C1045     R1447     -1
    C1045     R1448     -1
    C1045     R1476     1
    C1045     R1477     1
    C1045     R1478     1
    C1045     R1580     -1
    C1045     R1610     1
    C1045     R1711     -1
    C1045     R1712     -2
    C1045     R1713     -2
    C1045     R1714     -2
    C1045     R1715     -2
    C1045     R1739     1
    C1045     R1740     1
    C1045     R1741     1
    C1045     R1742     1
    C1045     R1743     1
    C1045     R1837     1
    C1045     R1838     1
    C1045     R1839     1
    C1045     R1840     1
    C1045     R1841     1
    C1045     R1865     -1
    C1045     R1866     -2
    C1045     R1867     -2
    C1045     R1868     -2
    C1045     R1869     -2
    C1045     R2003     1
    C1045     R2004     1
    C1045     R2005     1
    C1045     R2115     1
    C1045     R2116     1
    C1045     R2117     1
    C1045     R2255     -1
    C1045     R2256     -1
    C1045     R2257     -1
    C1045     R2258     -1
    C1045     R2285     1
    C1045     R2286     1
    C1045     R2287     1
    C1045     R2288     1
    C1045     R2390     1
    C1045     R2391     1
    C1045     R2392     1
    C1045     R2393     1
    C1045     R2420     -1
    C1045     R2421     -1
    C1045     R2422     -1
    C1045     R2423     -1
    C1045     R2521     -1
    C1045     R2522     -2
    C1045     R2523     -2
    C1045     R2524     -2
    C1045     R2525     -2
    C1045     R2549     1
    C1045     R2550     1
    C1045     R2551     1
    C1045     R2552     1
    C1045     R2553     1
    C1045     R2647     1
    C1045     R2648     1
    C1045     R2649     1
    C1045     R2650     1
    C1045     R2651     1
    C1045     R2675     -1
    C1045     R2676     -2
    C1045     R2677     -2
    C1045     R2678     -2
    C1045     R2679     -2
    C1045     R2784     -1
    C1047     R0937     1
    C1047     R0973     1
    C1047     R1195     1
    C1047     R1196     1
    C1047     R1197     1
    C1047     R1307     1
    C1047     R1308     1
    C1047     R1309     1
    C1047     R1447     -1
    C1047     R1448     -1
    C1047     R1449     -1
    C1047     R1450     -1
    C1047     R1477     1
    C1047     R1478     1
    C1047     R1479     1
    C1047     R1480     1
    C1047     R1713     -2
    C1047     R1714     -2
    C1047     R1715     -2
    C1047     R1716     -2
    C1047     R1717     -2
    C1047     R1741     1
    C1047     R1742     1
    C1047     R1743     1
    C1047     R1744     1
    C1047     R1745     1
    C1047     R1839     1
    C1047     R1840     1
    C1047     R1841     1
    C1047     R1842     1
    C1047     R1843     1
    C1047     R1867     -2
    C1047     R1868     -2
    C1047     R1869     -2
    C1047     R1870     -2
    C1047     R1871     -2
    C1047     R2005     1
    C1047     R2006     1
    C1047     R2007     1
    C1047     R2117     1
    C1047     R2118     1
    C1047     R2119     1
    C1047     R2257     -1
    C1047     R2258     -1
    C1047     R2259     -1
    C1047     R2260     -1
    C1047     R2287     1
    C1047     R2288     1
    C1047     R2289     1
    C1047     R2290     1
    C1047     R2392     1
    C1047     R2393     1
    C1047     R2394     1
    C1047     R2395     1
    C1047     R2422     -1
    C1047     R2423     -1
    C1047     R2424     -1
    C1047     R2425     -1
    C1047     R2523     -2
    C1047     R2524     -2
    C1047     R2525     -2
    C1047     R2526     -2
    C1047     R2527     -2
    C1047     R2551     1
    C1047     R2552     1
    C1047     R2553     1
    C1047     R2554     1
    C1047     R2555     1
    C1047     R2649     1
    C1047     R2650     1
    C1047     R2651     1
    C1047     R2652     1
    C1047     R2653     1
    C1047     R2677     -2
    C1047     R2678     -2
    C1047     R2679     -2
    C1047     R2680     -2
    C1047     R2681     -2
    C1047     R2784     -1
    C1049     R0939     1
    C1049     R0975     1
    C1049     R1197     1
    C1049     R1198     1
    C1049     R1199     1
    C1049     R1309     1
    C1049     R1310     1
    C1049     R1311     1
    C1049     R1449     -1
    C1049     R1450     -1
    C1049     R1452     -1
    C1049     R1479     1
    C1049     R1480     1
    C1049     R1586     -1
    C1049     R1616     1
    C1049     R1617     1
    C1049     R1715     -2
    C1049     R1716     -2
    C1049     R1717     -2
    C1049     R1718     -2
    C1049     R1719     -2
    C1049     R1743     1
    C1049     R1744     1
    C1049     R1745     1
    C1049     R1746     1
    C1049     R1747     1
    C1049     R1841     1
    C1049     R1842     1
    C1049     R1843     1
    C1049     R1844     1
    C1049     R1845     1
    C1049     R1869     -2
    C1049     R1870     -2
    C1049     R1871     -2
    C1049     R1872     -2
    C1049     R1873     -2
    C1049     R2007     1
    C1049     R2008     1
    C1049     R2009     1
    C1049     R2119     1
    C1049     R2120     1
    C1049     R2121     1
    C1049     R2259     -1
    C1049     R2260     -1
    C1049     R2261     -1
    C1049     R2262     -1
    C1049     R2289     1
    C1049     R2290     1
    C1049     R2291     1
    C1049     R2292     1
    C1049     R2394     1
    C1049     R2395     1
    C1049     R2396     1
    C1049     R2397     1
    C1049     R2424     -1
    C1049     R2425     -1
    C1049     R2426     -1
    C1049     R2427     -1
    C1049     R2525     -2
    C1049     R2526     -2
    C1049     R2527     -2
    C1049     R2528     -2
    C1049     R2529     -2
    C1049     R2553     1
    C1049     R2554     1
    C1049     R2555     1
    C1049     R2556     1
    C1049     R2557     1
    C1049     R2651     1
    C1049     R2652     1
    C1049     R2653     1
    C1049     R2654     1
    C1049     R2655     1
    C1049     R2679     -2
    C1049     R2680     -2
    C1049     R2681     -2
    C1049     R2682     -2
    C1049     R2683     -2
    C1049     R2784     -1
    C1051     R0941     1
    C1051     R0977     1
    C1051     R1199     1
    C1051     R1200     1
    C1051     R1201     1
    C1051     R1311     1
    C1051     R1312     1
    C1051     R1313     1
    C1051     R1452     -1
    C1051     R1483     1
    C1051     R1586     -1
    C1051     R1588     -1
    C1051     R1616     1
    C1051     R1617     1
    C1051     R1717     -2
    C1051     R1718     -2
    C1051     R1719     -2
    C1051     R1745     1
    C1051     R1746     1
    C1051     R1747     1
    C1051     R1843     1
    C1051     R1844     1
    C1051     R1845     1
    C1051     R1871     -2
    C1051     R1872     -2
    C1051     R1873     -2
    C1051     R2009     1
    C1051     R2010     1
    C1051     R2011     1
    C1051     R2121     1
    C1051     R2122     1
    C1051     R2123     1
    C1051     R2261     -1
    C1051     R2262     -1
    C1051     R2263     -1
    C1051     R2291     1
    C1051     R2292     1
    C1051     R2293     1
    C1051     R2396     1
    C1051     R2397     1
    C1051     R2398     1
    C1051     R2426     -1
    C1051     R2427     -1
    C1051     R2428     -1
    C1051     R2527     -2
    C1051     R2528     -2
    C1051     R2529     -2
    C1051     R2555     1
    C1051     R2556     1
    C1051     R2557     1
    C1051     R2653     1
    C1051     R2654     1
    C1051     R2655     1
    C1051     R2681     -2
    C1051     R2682     -2
    C1051     R2683     -2
    C1051     R2784     -1
    C1053     R0943     1
    C1053     R0979     1
    C1053     R1201     1
    C1053     R1313     1
    C1053     R1483     1
    C1053     R1588     -1
    C1053     R1719     -2
    C1053     R1747     1
    C1053     R1845     1
    C1053     R1873     -2
    C1053     R2011     1
    C1053     R2123     1
    C1053     R2263     -1
    C1053     R2293     1
    C1053     R2398     1
    C1053     R2428     -1
    C1053     R2529     -2
    C1053     R2557     1
    C1053     R2655     1
    C1053     R2683     -2
    C1053     R2784     -1
    C1077     R0842     1
    C1077     R0967     1
    C1077     R0985     1
    C1077     R1079     1
    C1077     R1189     1
    C1077     R1190     1
    C1077     R1351     1
    C1077     R1473     1
    C1077     R1489     -1
    C1077     R1607     1
    C1077     R1752     -1
    C1077     R1753     -3
    C1077     R1865     -2
    C1077     R2000     1
    C1077     R2161     1
    C1077     R2283     1
    C1077     R2299     -1
    C1077     R2433     1
    C1077     R2434     1
    C1077     R2560     -1
    C1077     R2561     -2
    C1077     R2563     -3
    C1077     R2675     -2
    C1077     R2731     1
    C1077     R2741     1
    C1077     R2749     1
    C1077     R2759     1
    C1079     R0842     1
    C1079     R0969     1
    C1079     R0987     1
    C1079     R1079     1
    C1079     R1193     1
    C1079     R1351     1
    C1079     R1352     1
    C1079     R1353     1
    C1079     R1473     1
    C1079     R1476     1
    C1079     R1489     -1
    C1079     R1490     -1
    C1079     R1491     -1
    C1079     R1610     1
    C1079     R1740     1
    C1079     R1741     1
    C1079     R1752     -1
    C1079     R1753     -3
    C1079     R1754     -3
    C1079     R1755     -3
    C1079     R1865     -2
    C1079     R1866     -2
    C1079     R1867     -2
    C1079     R2003     1
    C1079     R2161     1
    C1079     R2162     1
    C1079     R2163     1
    C1079     R2283     1
    C1079     R2285     1
    C1079     R2286     1
    C1079     R2299     -1
    C1079     R2300     -1
    C1079     R2301     -1
    C1079     R2420     -1
    C1079     R2421     -1
    C1079     R2433     1
    C1079     R2434     1
    C1079     R2435     1
    C1079     R2436     1
    C1079     R2550     1
    C1079     R2551     1
    C1079     R2561     -2
    C1079     R2563     -3
    C1079     R2564     -3
    C1079     R2565     -3
    C1079     R2675     -2
    C1079     R2676     -2
    C1079     R2677     -2
    C1079     R2731     1
    C1079     R2741     1
    C1079     R2749     1
    C1079     R2759     1
    C1079     R2889     1
    C1081     R0843     1
    C1081     R0971     1
    C1081     R0989     1
    C1081     R1079     1
    C1081     R1193     1
    C1081     R1194     1
    C1081     R1195     1
    C1081     R1353     1
    C1081     R1354     1
    C1081     R1355     1
    C1081     R1476     1
    C1081     R1477     1
    C1081     R1478     1
    C1081     R1490     -1
    C1081     R1491     -1
    C1081     R1492     -1
    C1081     R1493     -1
    C1081     R1610     1
    C1081     R1739     1
    C1081     R1740     1
    C1081     R1741     1
    C1081     R1742     1
    C1081     R1743     1
    C1081     R1753     -2
    C1081     R1754     -2
    C1081     R1755     -2
    C1081     R1756     -2
    C1081     R1757     -2
    C1081     R1865     -1
    C1081     R1866     -2
    C1081     R1867     -2
    C1081     R1868     -2
    C1081     R1869     -2
    C1081     R1879     1
    C1081     R1880     1
    C1081     R1881     1
    C1081     R1882     1
    C1081     R1883     1
    C1081     R2003     1
    C1081     R2004     1
    C1081     R2005     1
    C1081     R2163     1
    C1081     R2164     1
    C1081     R2165     1
    C1081     R2285     1
    C1081     R2286     1
    C1081     R2287     1
    C1081     R2288     1
    C1081     R2300     -1
    C1081     R2301     -1
    C1081     R2302     -1
    C1081     R2303     -1
    C1081     R2420     -1
    C1081     R2421     -1
    C1081     R2422     -1
    C1081     R2423     -1
    C1081     R2435     1
    C1081     R2436     1
    C1081     R2437     1
    C1081     R2438     1
    C1081     R2549     1
    C1081     R2550     1
    C1081     R2551     1
    C1081     R2552     1
    C1081     R2553     1
    C1081     R2563     -2
    C1081     R2564     -2
    C1081     R2565     -2
    C1081     R2566     -2
    C1081     R2567     -2
    C1081     R2675     -1
    C1081     R2676     -2
    C1081     R2677     -2
    C1081     R2678     -2
    C1081     R2679     -2
    C1081     R2689     1
    C1081     R2690     1
    C1081     R2691     1
    C1081     R2692     1
    C1081     R2693     1
    C1081     R2889     1
    C1083     R0843     1
    C1083     R0973     1
    C1083     R0991     1
    C1083     R1079     1
    C1083     R1195     1
    C1083     R1196     1
    C1083     R1197     1
    C1083     R1355     1
    C1083     R1356     1
    C1083     R1357     1
    C1083     R1477     1
    C1083     R1478     1
    C1083     R1479     1
    C1083     R1480     1
    C1083     R1492     -1
    C1083     R1493     -1
    C1083     R1494     -1
    C1083     R1495     -1
    C1083     R1741     1
    C1083     R1742     1
    C1083     R1743     1
    C1083     R1744     1
    C1083     R1745     1
    C1083     R1755     -2
    C1083     R1756     -2
    C1083     R1757     -2
    C1083     R1758     -2
    C1083     R1759     -2
    C1083     R1867     -2
    C1083     R1868     -2
    C1083     R1869     -2
    C1083     R1870     -2
    C1083     R1871     -2
    C1083     R1881     1
    C1083     R1882     1
    C1083     R1883     1
    C1083     R1884     1
    C1083     R1885     1
    C1083     R2005     1
    C1083     R2006     1
    C1083     R2007     1
    C1083     R2165     1
    C1083     R2166     1
    C1083     R2167     1
    C1083     R2287     1
    C1083     R2288     1
    C1083     R2289     1
    C1083     R2290     1
    C1083     R2302     -1
    C1083     R2303     -1
    C1083     R2304     -1
    C1083     R2305     -1
    C1083     R2422     -1
    C1083     R2423     -1
    C1083     R2424     -1
    C1083     R2425     -1
    C1083     R2437     1
    C1083     R2438     1
    C1083     R2439     1
    C1083     R2440     1
    C1083     R2551     1
    C1083     R2552     1
    C1083     R2553     1
    C1083     R2554     1
    C1083     R2555     1
    C1083     R2565     -2
    C1083     R2566     -2
    C1083     R2567     -2
    C1083     R2568     -2
    C1083     R2569     -2
    C1083     R2677     -2
    C1083     R2678     -2
    C1083     R2679     -2
    C1083     R2680     -2
    C1083     R2681     -2
    C1083     R2691     1
    C1083     R2692     1
    C1083     R2693     1
    C1083     R2694     1
    C1083     R2695     1
    C1085     R0843     1
    C1085     R0975     1
    C1085     R0993     1
    C1085     R1079     1
    C1085     R1197     1
    C1085     R1198     1
    C1085     R1199     1
    C1085     R1357     1
    C1085     R1358     1
    C1085     R1359     1
    C1085     R1479     1
    C1085     R1480     1
    C1085     R1494     -1
    C1085     R1495     -1
    C1085     R1496     -1
    C1085     R1497     -1
    C1085     R1616     1
    C1085     R1617     1
    C1085     R1743     1
    C1085     R1744     1
    C1085     R1745     1
    C1085     R1746     1
    C1085     R1747     1
    C1085     R1757     -2
    C1085     R1758     -2
    C1085     R1759     -2
    C1085     R1760     -2
    C1085     R1761     -2
    C1085     R1869     -2
    C1085     R1870     -2
    C1085     R1871     -2
    C1085     R1872     -2
    C1085     R1873     -2
    C1085     R1883     1
    C1085     R1884     1
    C1085     R1885     1
    C1085     R1886     1
    C1085     R1887     1
    C1085     R2007     1
    C1085     R2008     1
    C1085     R2009     1
    C1085     R2167     1
    C1085     R2168     1
    C1085     R2169     1
    C1085     R2289     1
    C1085     R2290     1
    C1085     R2291     1
    C1085     R2292     1
    C1085     R2304     -1
    C1085     R2305     -1
    C1085     R2306     -1
    C1085     R2307     -1
    C1085     R2424     -1
    C1085     R2425     -1
    C1085     R2426     -1
    C1085     R2427     -1
    C1085     R2439     1
    C1085     R2440     1
    C1085     R2441     1
    C1085     R2442     1
    C1085     R2553     1
    C1085     R2554     1
    C1085     R2555     1
    C1085     R2556     1
    C1085     R2557     1
    C1085     R2567     -2
    C1085     R2568     -2
    C1085     R2569     -2
    C1085     R2570     -2
    C1085     R2571     -2
    C1085     R2679     -2
    C1085     R2680     -2
    C1085     R2681     -2
    C1085     R2682     -2
    C1085     R2683     -2
    C1085     R2693     1
    C1085     R2694     1
    C1085     R2695     1
    C1085     R2696     1
    C1085     R2697     1
    C1087     R0843     1
    C1087     R0977     1
    C1087     R0995     1
    C1087     R1079     1
    C1087     R1199     1
    C1087     R1200     1
    C1087     R1201     1
    C1087     R1359     1
    C1087     R1360     1
    C1087     R1361     1
    C1087     R1483     1
    C1087     R1496     -1
    C1087     R1497     -1
    C1087     R1498     -1
    C1087     R1616     1
    C1087     R1617     1
    C1087     R1745     1
    C1087     R1746     1
    C1087     R1747     1
    C1087     R1759     -2
    C1087     R1760     -2
    C1087     R1761     -2
    C1087     R1871     -2
    C1087     R1872     -2
    C1087     R1873     -2
    C1087     R1885     1
    C1087     R1886     1
    C1087     R1887     1
    C1087     R2009     1
    C1087     R2010     1
    C1087     R2011     1
    C1087     R2169     1
    C1087     R2170     1
    C1087     R2171     1
    C1087     R2291     1
    C1087     R2292     1
    C1087     R2293     1
    C1087     R2306     -1
    C1087     R2307     -1
    C1087     R2308     -1
    C1087     R2426     -1
    C1087     R2427     -1
    C1087     R2428     -1
    C1087     R2441     1
    C1087     R2442     1
    C1087     R2443     1
    C1087     R2555     1
    C1087     R2556     1
    C1087     R2557     1
    C1087     R2569     -2
    C1087     R2570     -2
    C1087     R2571     -2
    C1087     R2681     -2
    C1087     R2682     -2
    C1087     R2683     -2
    C1087     R2695     1
    C1087     R2696     1
    C1087     R2697     1
    C1089     R0843     1
    C1089     R0979     1
    C1089     R0997     1
    C1089     R1079     1
    C1089     R1201     1
    C1089     R1361     1
    C1089     R1483     1
    C1089     R1498     -1
    C1089     R1747     1
    C1089     R1761     -2
    C1089     R1873     -2
    C1089     R1887     1
    C1089     R2011     1
    C1089     R2171     1
    C1089     R2293     1
    C1089     R2308     -1
    C1089     R2428     -1
    C1089     R2443     1
    C1089     R2557     1
    C1089     R2571     -2
    C1089     R2683     -2
    C1089     R2697     1
    C1096     OBJ       180
    C1096     R0844     1
    C1096     R0968     1
    C1096     R1004     1
    C1096     R1080     1
    C1096     R1190     1
    C1096     R1368     1
    C1096     R1473     1
    C1096     R1504     -1
    C1096     R1607     1
    C1096     R1610     1
    C1096     R1640     -1
    C1096     R1737     1
    C1096     R1740     1
    C1096     R1767     -3
    C1096     R1768     -3
    C1096     R1865     -2
    C1096     R1866     -2
    C1096     R2033     1
    C1096     R2034     1
    C1096     R2146     1
    C1096     R2283     -1
    C1096     R2285     -1
    C1096     R2315     1
    C1096     R2419     1
    C1096     R2420     1
    C1096     R2450     -1
    C1096     R2548     -1
    C1096     R2549     -2
    C1096     R2550     -2
    C1096     R2676     1
    C1096     R2701     -1
    C1096     R2704     -3
    C1096     R2731     1
    C1096     R2742     1
    C1096     R2751     1
    C1096     R2758     1
    C1097     R1765     1
    C1097     R0844     1
    C1097     R0969     1
    C1097     R1005     1
    C1097     R1080     1
    C1097     R1193     1
    C1097     R1368     1
    C1097     R1369     1
    C1097     R1473     1
    C1097     R1476     1
    C1097     R1504     -1
    C1097     R1610     1
    C1097     R1640     -1
    C1097     R1641     -1
    C1097     R1737     1
    C1097     R1740     1
    C1097     R1741     1
    C1097     R1767     -3
    C1097     R1768     -3
    C1097     R1769     -3
    C1097     R1865     -2
    C1097     R1866     -2
    C1097     R1867     -2
    C1097     R2003     1
    C1097     R2179     1
    C1097     R2283     1
    C1097     R2285     1
    C1097     R2286     1
    C1097     R2314     -1
    C1097     R2315     -1
    C1097     R2316     -1
    C1097     R2420     -1
    C1097     R2421     -1
    C1097     R2450     1
    C1097     R2451     1
    C1097     R2550     1
    C1097     R2551     1
    C1097     R2577     -3
    C1097     R2578     -3
    C1097     R2579     -3
    C1097     R2675     -2
    C1097     R2676     -2
    C1097     R2677     -2
    C1097     R2701     1
    C1097     R2731     1
    C1097     R2742     1
    C1097     R2749     1
    C1097     R2760     1
    C1097     R2793     1
    C1097     R2892     1
    C1098     OBJ       180
    C1098     R0844     1
    C1098     R0970     1
    C1098     R1006     1
    C1098     R1080     1
    C1098     R1193     1
    C1098     R1194     1
    C1098     R1368     1
    C1098     R1369     1
    C1098     R1370     1
    C1098     R1476     1
    C1098     R1477     1
    C1098     R1504     -1
    C1098     R1507     -1
    C1098     R1610     1
    C1098     R1640     -1
    C1098     R1641     -1
    C1098     R1740     1
    C1098     R1741     1
    C1098     R1742     1
    C1098     R1767     -3
    C1098     R1768     -3
    C1098     R1769     -3
    C1098     R1770     -2
    C1098     R1865     -2
    C1098     R1866     -2
    C1098     R1867     -2
    C1098     R1868     -2
    C1098     R2034     1
    C1098     R2035     1
    C1098     R2036     1
    C1098     R2146     1
    C1098     R2147     1
    C1098     R2148     1
    C1098     R2285     -1
    C1098     R2286     -1
    C1098     R2287     -1
    C1098     R2315     1
    C1098     R2316     1
    C1098     R2317     1
    C1098     R2419     1
    C1098     R2420     1
    C1098     R2421     1
    C1098     R2422     1
    C1098     R2450     -1
    C1098     R2451     -1
    C1098     R2452     -1
    C1098     R2548     -1
    C1098     R2549     -2
    C1098     R2550     -2
    C1098     R2551     -2
    C1098     R2552     -2
    C1098     R2676     1
    C1098     R2677     1
    C1098     R2678     1
    C1098     R2704     -3
    C1098     R2705     -3
    C1098     R2706     -2
    C1098     R2731     1
    C1098     R2742     1
    C1098     R2751     1
    C1098     R2758     1
    C1098     R2892     1
    C1098     R2893     1
    C1099     R0845     1
    C1099     R0971     1
    C1099     R1007     1
    C1099     R1080     1
    C1099     R1193     1
    C1099     R1194     1
    C1099     R1195     1
    C1099     R1369     1
    C1099     R1370     1
    C1099     R1371     1
    C1099     R1476     1
    C1099     R1477     1
    C1099     R1478     1
    C1099     R1507     -1
    C1099     R1508     -1
    C1099     R1610     1
    C1099     R1640     -1
    C1099     R1641     -1
    C1099     R1739     1
    C1099     R1740     1
    C1099     R1741     1
    C1099     R1742     1
    C1099     R1743     1
    C1099     R1767     -2
    C1099     R1768     -2
    C1099     R1769     -2
    C1099     R1770     -2
    C1099     R1771     -2
    C1099     R1865     -1
    C1099     R1866     -2
    C1099     R1867     -2
    C1099     R1868     -2
    C1099     R1869     -2
    C1099     R1894     1
    C1099     R1895     1
    C1099     R1896     1
    C1099     R1897     1
    C1099     R2003     1
    C1099     R2004     1
    C1099     R2005     1
    C1099     R2179     1
    C1099     R2180     1
    C1099     R2181     1
    C1099     R2285     1
    C1099     R2286     1
    C1099     R2287     1
    C1099     R2288     1
    C1099     R2315     -1
    C1099     R2316     -1
    C1099     R2317     -1
    C1099     R2318     -1
    C1099     R2420     -1
    C1099     R2421     -1
    C1099     R2422     -1
    C1099     R2423     -1
    C1099     R2450     1
    C1099     R2451     1
    C1099     R2452     1
    C1099     R2453     1
    C1099     R2549     1
    C1099     R2550     1
    C1099     R2551     1
    C1099     R2552     1
    C1099     R2553     1
    C1099     R2577     -2
    C1099     R2578     -2
    C1099     R2579     -2
    C1099     R2580     -2
    C1099     R2581     -2
    C1099     R2675     -1
    C1099     R2676     -2
    C1099     R2677     -2
    C1099     R2678     -2
    C1099     R2679     -2
    C1099     R2704     1
    C1099     R2705     1
    C1099     R2706     1
    C1099     R2707     1
    C1099     R2793     -1
    C1099     R2891     1
    C1099     R2892     1
    C1099     R2893     1
    C1100     OBJ       180
    C1100     R0845     1
    C1100     R0972     1
    C1100     R1008     1
    C1100     R1080     1
    C1100     R1194     1
    C1100     R1195     1
    C1100     R1196     1
    C1100     R1370     1
    C1100     R1371     1
    C1100     R1372     1
    C1100     R1476     1
    C1100     R1477     1
    C1100     R1478     1
    C1100     R1479     1
    C1100     R1507     -1
    C1100     R1508     -1
    C1100     R1641     -1
    C1100     R1644     -1
    C1100     R1740     1
    C1100     R1741     1
    C1100     R1742     1
    C1100     R1743     1
    C1100     R1744     1
    C1100     R1768     -2
    C1100     R1769     -2
    C1100     R1770     -2
    C1100     R1771     -2
    C1100     R1772     -2
    C1100     R1866     -2
    C1100     R1867     -2
    C1100     R1868     -2
    C1100     R1869     -2
    C1100     R1870     -2
    C1100     R1894     1
    C1100     R1895     1
    C1100     R1896     1
    C1100     R1897     1
    C1100     R1898     1
    C1100     R2036     1
    C1100     R2037     1
    C1100     R2038     1
    C1100     R2148     1
    C1100     R2149     1
    C1100     R2150     1
    C1100     R2286     -1
    C1100     R2287     -1
    C1100     R2288     -1
    C1100     R2289     -1
    C1100     R2316     1
    C1100     R2317     1
    C1100     R2318     1
    C1100     R2319     1
    C1100     R2421     1
    C1100     R2422     1
    C1100     R2423     1
    C1100     R2424     1
    C1100     R2451     -1
    C1100     R2452     -1
    C1100     R2453     -1
    C1100     R2454     -1
    C1100     R2550     -2
    C1100     R2551     -2
    C1100     R2552     -2
    C1100     R2553     -2
    C1100     R2554     -2
    C1100     R2578     1
    C1100     R2579     1
    C1100     R2580     1
    C1100     R2581     1
    C1100     R2582     1
    C1100     R2676     1
    C1100     R2677     1
    C1100     R2678     1
    C1100     R2679     1
    C1100     R2680     1
    C1100     R2704     -2
    C1100     R2705     -2
    C1100     R2706     -2
    C1100     R2707     -2
    C1100     R2708     -2
    C1100     R2892     1
    C1100     R2893     1
    C1101     R0845     1
    C1101     R0973     1
    C1101     R1009     1
    C1101     R1080     1
    C1101     R1195     1
    C1101     R1196     1
    C1101     R1197     1
    C1101     R1371     1
    C1101     R1372     1
    C1101     R1373     1
    C1101     R1477     1
    C1101     R1478     1
    C1101     R1479     1
    C1101     R1480     1
    C1101     R1507     -1
    C1101     R1508     -1
    C1101     R1644     -1
    C1101     R1645     -1
    C1101     R1741     1
    C1101     R1742     1
    C1101     R1743     1
    C1101     R1744     1
    C1101     R1745     1
    C1101     R1769     -2
    C1101     R1770     -2
    C1101     R1771     -2
    C1101     R1772     -2
    C1101     R1773     -2
    C1101     R1867     -2
    C1101     R1868     -2
    C1101     R1869     -2
    C1101     R1870     -2
    C1101     R1871     -2
    C1101     R1895     1
    C1101     R1896     1
    C1101     R1897     1
    C1101     R1898     1
    C1101     R1899     1
    C1101     R2005     1
    C1101     R2006     1
    C1101     R2007     1
    C1101     R2181     1
    C1101     R2182     1
    C1101     R2183     1
    C1101     R2287     1
    C1101     R2288     1
    C1101     R2289     1
    C1101     R2290     1
    C1101     R2317     -1
    C1101     R2318     -1
    C1101     R2319     -1
    C1101     R2320     -1
    C1101     R2422     -1
    C1101     R2423     -1
    C1101     R2424     -1
    C1101     R2425     -1
    C1101     R2452     1
    C1101     R2453     1
    C1101     R2454     1
    C1101     R2455     1
    C1101     R2551     1
    C1101     R2552     1
    C1101     R2553     1
    C1101     R2554     1
    C1101     R2555     1
    C1101     R2579     -2
    C1101     R2580     -2
    C1101     R2581     -2
    C1101     R2582     -2
    C1101     R2583     -2
    C1101     R2677     -2
    C1101     R2678     -2
    C1101     R2679     -2
    C1101     R2680     -2
    C1101     R2681     -2
    C1101     R2705     1
    C1101     R2706     1
    C1101     R2707     1
    C1101     R2708     1
    C1101     R2709     1
    C1101     R2793     -1
    C1101     R2893     1
    C1102     OBJ       180
    C1102     R0845     1
    C1102     R0974     1
    C1102     R1010     1
    C1102     R1080     1
    C1102     R1196     1
    C1102     R1197     1
    C1102     R1198     1
    C1102     R1372     1
    C1102     R1373     1
    C1102     R1374     1
    C1102     R1478     1
    C1102     R1479     1
    C1102     R1480     1
    C1102     R1508     -1
    C1102     R1616     1
    C1102     R1644     -1
    C1102     R1645     -1
    C1102     R1646     -1
    C1102     R1742     1
    C1102     R1743     1
    C1102     R1744     1
    C1102     R1745     1
    C1102     R1746     1
    C1102     R1770     -2
    C1102     R1771     -2
    C1102     R1772     -2
    C1102     R1773     -2
    C1102     R1774     -2
    C1102     R1868     -2
    C1102     R1869     -2
    C1102     R1870     -2
    C1102     R1871     -2
    C1102     R1872     -2
    C1102     R1896     1
    C1102     R1897     1
    C1102     R1898     1
    C1102     R1899     1
    C1102     R1900     1
    C1102     R2038     1
    C1102     R2039     1
    C1102     R2040     1
    C1102     R2150     1
    C1102     R2151     1
    C1102     R2152     1
    C1102     R2288     -1
    C1102     R2289     -1
    C1102     R2290     -1
    C1102     R2291     -1
    C1102     R2318     1
    C1102     R2319     1
    C1102     R2320     1
    C1102     R2321     1
    C1102     R2423     1
    C1102     R2424     1
    C1102     R2425     1
    C1102     R2426     1
    C1102     R2453     -1
    C1102     R2454     -1
    C1102     R2455     -1
    C1102     R2456     -1
    C1102     R2552     -2
    C1102     R2553     -2
    C1102     R2554     -2
    C1102     R2555     -2
    C1102     R2556     -2
    C1102     R2580     1
    C1102     R2581     1
    C1102     R2582     1
    C1102     R2583     1
    C1102     R2584     1
    C1102     R2678     1
    C1102     R2679     1
    C1102     R2680     1
    C1102     R2681     1
    C1102     R2682     1
    C1102     R2706     -2
    C1102     R2707     -2
    C1102     R2708     -2
    C1102     R2709     -2
    C1102     R2710     -2
    C1103     R2893     1
    C1103     R0845     1
    C1103     R0975     1
    C1103     R1011     1
    C1103     R1080     1
    C1103     R1197     1
    C1103     R1198     1
    C1103     R1199     1
    C1103     R1373     1
    C1103     R1374     1
    C1103     R1375     1
    C1103     R1479     1
    C1103     R1480     1
    C1103     R1512     -1
    C1103     R1616     1
    C1103     R1617     1
    C1103     R1644     -1
    C1103     R1645     -1
    C1103     R1646     -1
    C1103     R1743     1
    C1103     R1744     1
    C1103     R1745     1
    C1103     R1746     1
    C1103     R1747     1
    C1103     R1771     -2
    C1103     R1772     -2
    C1103     R1773     -2
    C1103     R1774     -2
    C1103     R1775     -2
    C1103     R1869     -2
    C1103     R1870     -2
    C1103     R1871     -2
    C1103     R1872     -2
    C1103     R1873     -2
    C1103     R1897     1
    C1103     R1898     1
    C1103     R1899     1
    C1103     R1900     1
    C1103     R1901     1
    C1103     R2007     1
    C1103     R2008     1
    C1103     R2009     1
    C1103     R2183     1
    C1103     R2184     1
    C1103     R2185     1
    C1103     R2289     1
    C1103     R2290     1
    C1103     R2291     1
    C1103     R2292     1
    C1103     R2319     -1
    C1103     R2320     -1
    C1103     R2321     -1
    C1103     R2322     -1
    C1103     R2424     -1
    C1103     R2425     -1
    C1103     R2426     -1
    C1103     R2427     -1
    C1103     R2454     1
    C1103     R2455     1
    C1103     R2456     1
    C1103     R2457     1
    C1103     R2553     1
    C1103     R2554     1
    C1103     R2555     1
    C1103     R2556     1
    C1103     R2557     1
    C1103     R2581     -2
    C1103     R2582     -2
    C1103     R2583     -2
    C1103     R2584     -2
    C1103     R2585     -2
    C1103     R2679     -2
    C1103     R2680     -2
    C1103     R2681     -2
    C1103     R2682     -2
    C1103     R2683     -2
    C1103     R2707     1
    C1103     R2708     1
    C1103     R2709     1
    C1103     R2710     1
    C1103     R2711     1
    C1103     R2793     -1
    C1104     OBJ       180
    C1104     R0845     1
    C1104     R0976     1
    C1104     R1012     1
    C1104     R1080     1
    C1104     R1198     1
    C1104     R1199     1
    C1104     R1200     1
    C1104     R1374     1
    C1104     R1375     1
    C1104     R1376     1
    C1104     R1480     1
    C1104     R1483     1
    C1104     R1512     -1
    C1104     R1616     1
    C1104     R1617     1
    C1104     R1645     -1
    C1104     R1646     -1
    C1104     R1648     -1
    C1104     R1744     1
    C1104     R1745     1
    C1104     R1746     1
    C1104     R1747     1
    C1104     R1772     -2
    C1104     R1773     -2
    C1104     R1774     -2
    C1104     R1775     -2
    C1104     R1870     -2
    C1104     R1871     -2
    C1104     R1872     -2
    C1104     R1873     -2
    C1104     R1898     1
    C1104     R1899     1
    C1104     R1900     1
    C1104     R1901     1
    C1104     R2040     1
    C1104     R2041     1
    C1104     R2042     1
    C1104     R2152     1
    C1104     R2153     1
    C1104     R2154     1
    C1104     R2290     -1
    C1104     R2291     -1
    C1104     R2292     -1
    C1104     R2293     -1
    C1104     R2320     1
    C1104     R2321     1
    C1104     R2322     1
    C1104     R2323     1
    C1104     R2425     1
    C1104     R2426     1
    C1104     R2427     1
    C1104     R2428     1
    C1104     R2455     -1
    C1104     R2456     -1
    C1104     R2457     -1
    C1104     R2458     -1
    C1104     R2554     -2
    C1104     R2555     -2
    C1104     R2556     -2
    C1104     R2557     -2
    C1104     R2582     1
    C1104     R2583     1
    C1104     R2584     1
    C1104     R2585     1
    C1104     R2680     1
    C1104     R2681     1
    C1104     R2682     1
    C1104     R2683     1
    C1104     R2708     -2
    C1104     R2709     -2
    C1104     R2710     -2
    C1104     R2711     -2
    C1105     R2893     1
    C1105     R0845     1
    C1105     R0977     1
    C1105     R1013     1
    C1105     R1080     1
    C1105     R1199     1
    C1105     R1200     1
    C1105     R1201     1
    C1105     R1375     1
    C1105     R1376     1
    C1105     R1377     1
    C1105     R1483     1
    C1105     R1512     -1
    C1105     R1616     1
    C1105     R1617     1
    C1105     R1646     -1
    C1105     R1648     -1
    C1105     R1745     1
    C1105     R1746     1
    C1105     R1747     1
    C1105     R1773     -2
    C1105     R1774     -2
    C1105     R1775     -2
    C1105     R1871     -2
    C1105     R1872     -2
    C1105     R1873     -2
    C1105     R1899     1
    C1105     R1900     1
    C1105     R1901     1
    C1105     R2009     1
    C1105     R2010     1
    C1105     R2011     1
    C1105     R2185     1
    C1105     R2186     1
    C1105     R2187     1
    C1105     R2291     1
    C1105     R2292     1
    C1105     R2293     1
    C1105     R2321     -1
    C1105     R2322     -1
    C1105     R2323     -1
    C1105     R2426     -1
    C1105     R2427     -1
    C1105     R2428     -1
    C1105     R2456     1
    C1105     R2457     1
    C1105     R2458     1
    C1105     R2555     1
    C1105     R2556     1
    C1105     R2557     1
    C1105     R2583     -2
    C1105     R2584     -2
    C1105     R2585     -2
    C1105     R2681     -2
    C1105     R2682     -2
    C1105     R2683     -2
    C1105     R2709     1
    C1105     R2710     1
    C1105     R2711     1
    C1105     R2793     -1
    C1106     OBJ       180
    C1106     R0845     1
    C1106     R0978     1
    C1106     R1014     1
    C1106     R1080     1
    C1106     R1200     1
    C1106     R1201     1
    C1106     R1376     1
    C1106     R1377     1
    C1106     R1483     1
    C1106     R1512     -1
    C1106     R1617     1
    C1106     R1648     -1
    C1106     R1746     1
    C1106     R1747     1
    C1106     R1774     -2
    C1106     R1775     -2
    C1106     R1872     -2
    C1106     R1873     -2
    C1106     R1900     1
    C1106     R1901     1
    C1106     R2042     1
    C1106     R2043     1
    C1106     R2154     1
    C1106     R2155     1
    C1106     R2292     -1
    C1106     R2293     -1
    C1106     R2322     1
    C1106     R2323     1
    C1106     R2427     1
    C1106     R2428     1
    C1106     R2457     -1
    C1106     R2458     -1
    C1106     R2556     -2
    C1106     R2557     -2
    C1106     R2584     1
    C1106     R2585     1
    C1106     R2682     1
    C1106     R2683     1
    C1106     R2710     -2
    C1106     R2711     -2
    C1107     R2893     1
    C1107     R0845     1
    C1107     R0979     1
    C1107     R1015     1
    C1107     R1080     1
    C1107     R1201     1
    C1107     R1377     1
    C1107     R1483     1
    C1107     R1648     -1
    C1107     R1747     1
    C1107     R1775     -2
    C1107     R1873     -2
    C1107     R1901     1
    C1107     R2011     1
    C1107     R2187     1
    C1107     R2293     1
    C1107     R2323     -1
    C1107     R2428     -1
    C1107     R2458     1
    C1107     R2557     1
    C1107     R2585     -2
    C1107     R2683     -2
    C1107     R2711     1
    C1107     R2793     -1
    C1131     R2921     -1
    C1131     R0864     1
    C1131     R0967     1
    C1132     R0864     1
    C1132     R0968     1
    C1133     R0864     1
    C1133     R0969     1
    C1133     R2922     1
    C1134     R0864     1
    C1134     R0970     1
    C1134     R2922     1
    C1134     R2923     1
    C1135     R0865     1
    C1135     R0971     1
    C1135     R2921     1
    C1135     R2922     1
    C1135     R2923     1
    C1136     R0865     1
    C1136     R0972     1
    C1136     R2922     1
    C1136     R2923     1
    C1137     R0865     1
    C1137     R0973     1
    C1137     R2923     1
    C1138     R0865     1
    C1138     R0974     1
    C1139     R0865     1
    C1139     R0975     1
    C1140     R0865     1
    C1140     R0976     1
    C1141     R0865     1
    C1141     R0977     1
    C1142     R0865     1
    C1142     R0978     1
    C1143     R0865     1
    C1143     R0979     1
    C1153     R0881     1
    C1153     R0989     1
    C1153     R1209     1
    C1153     R1210     1
    C1153     R1211     1
    C1153     R1257     1
    C1153     R1258     1
    C1153     R1259     1
    C1153     R1490     1
    C1153     R1491     1
    C1153     R1492     1
    C1153     R1493     1
    C1153     R1535     -1
    C1153     R1536     -1
    C1153     R1537     -1
    C1153     R1538     -1
    C1153     R1669     -2
    C1153     R1670     -2
    C1153     R1671     -2
    C1153     R1672     -2
    C1153     R1673     -2
    C1153     R1753     1
    C1153     R1754     1
    C1153     R1755     1
    C1153     R1756     1
    C1153     R1757     1
    C1153     R1795     1
    C1153     R1796     1
    C1153     R1797     1
    C1153     R1798     1
    C1153     R1799     1
    C1153     R1879     -2
    C1153     R1880     -2
    C1153     R1881     -2
    C1153     R1882     -2
    C1153     R1883     -2
    C1153     R2019     1
    C1153     R2020     1
    C1153     R2021     1
    C1153     R2067     1
    C1153     R2068     1
    C1153     R2069     1
    C1153     R2210     -1
    C1153     R2211     -1
    C1153     R2212     -1
    C1153     R2213     -1
    C1153     R2300     1
    C1153     R2301     1
    C1153     R2302     1
    C1153     R2303     1
    C1153     R2345     1
    C1153     R2346     1
    C1153     R2347     1
    C1153     R2348     1
    C1153     R2435     -1
    C1153     R2436     -1
    C1153     R2437     -1
    C1153     R2438     -1
    C1153     R2479     -2
    C1153     R2480     -2
    C1153     R2481     -2
    C1153     R2482     -2
    C1153     R2483     -2
    C1153     R2563     1
    C1153     R2564     1
    C1153     R2565     1
    C1153     R2566     1
    C1153     R2567     1
    C1153     R2605     1
    C1153     R2606     1
    C1153     R2607     1
    C1153     R2608     1
    C1153     R2609     1
    C1153     R2689     -2
    C1153     R2690     -2
    C1153     R2691     -2
    C1153     R2692     -2
    C1153     R2693     -2
    C1153     R2767     -1
    C1155     R0883     1
    C1155     R0991     1
    C1155     R1211     1
    C1155     R1212     1
    C1155     R1213     1
    C1155     R1259     1
    C1155     R1260     1
    C1155     R1261     1
    C1155     R1405     -1
    C1155     R1492     1
    C1155     R1493     1
    C1155     R1494     1
    C1155     R1495     1
    C1155     R1537     -1
    C1155     R1538     -1
    C1155     R1539     -1
    C1155     R1671     -2
    C1155     R1672     -2
    C1155     R1673     -2
    C1155     R1674     -2
    C1155     R1675     -2
    C1155     R1755     1
    C1155     R1756     1
    C1155     R1757     1
    C1155     R1758     1
    C1155     R1759     1
    C1155     R1797     1
    C1155     R1798     1
    C1155     R1799     1
    C1155     R1800     1
    C1155     R1801     1
    C1155     R1881     -2
    C1155     R1882     -2
    C1155     R1883     -2
    C1155     R1884     -2
    C1155     R1885     -2
    C1155     R2021     1
    C1155     R2022     1
    C1155     R2023     1
    C1155     R2069     1
    C1155     R2070     1
    C1155     R2071     1
    C1155     R2212     -1
    C1155     R2213     -1
    C1155     R2214     -1
    C1155     R2215     -1
    C1155     R2302     1
    C1155     R2303     1
    C1155     R2304     1
    C1155     R2305     1
    C1155     R2347     1
    C1155     R2348     1
    C1155     R2349     1
    C1155     R2350     1
    C1155     R2437     -1
    C1155     R2438     -1
    C1155     R2439     -1
    C1155     R2440     -1
    C1155     R2481     -2
    C1155     R2482     -2
    C1155     R2483     -2
    C1155     R2484     -2
    C1155     R2485     -2
    C1155     R2565     1
    C1155     R2566     1
    C1155     R2567     1
    C1155     R2568     1
    C1155     R2569     1
    C1155     R2607     1
    C1155     R2608     1
    C1155     R2609     1
    C1155     R2610     1
    C1155     R2611     1
    C1155     R2691     -2
    C1155     R2692     -2
    C1155     R2693     -2
    C1155     R2694     -2
    C1155     R2695     -2
    C1155     R2767     -1
    C1157     R0885     1
    C1157     R0993     1
    C1157     R1213     1
    C1157     R1214     1
    C1157     R1215     1
    C1157     R1261     1
    C1157     R1262     1
    C1157     R1263     1
    C1157     R1405     -1
    C1157     R1406     -1
    C1157     R1494     1
    C1157     R1495     1
    C1157     R1496     1
    C1157     R1497     1
    C1157     R1539     -1
    C1157     R1542     -1
    C1157     R1673     -2
    C1157     R1674     -2
    C1157     R1675     -2
    C1157     R1676     -2
    C1157     R1677     -2
    C1157     R1757     1
    C1157     R1758     1
    C1157     R1759     1
    C1157     R1760     1
    C1157     R1761     1
    C1157     R1799     1
    C1157     R1800     1
    C1157     R1801     1
    C1157     R1802     1
    C1157     R1803     1
    C1157     R1883     -2
    C1157     R1884     -2
    C1157     R1885     -2
    C1157     R1886     -2
    C1157     R1887     -2
    C1157     R2023     1
    C1157     R2024     1
    C1157     R2025     1
    C1157     R2071     1
    C1157     R2072     1
    C1157     R2073     1
    C1157     R2214     -1
    C1157     R2215     -1
    C1157     R2216     -1
    C1157     R2217     -1
    C1157     R2304     1
    C1157     R2305     1
    C1157     R2306     1
    C1157     R2307     1
    C1157     R2349     1
    C1157     R2350     1
    C1157     R2351     1
    C1157     R2352     1
    C1157     R2439     -1
    C1157     R2440     -1
    C1157     R2441     -1
    C1157     R2442     -1
    C1157     R2483     -2
    C1157     R2484     -2
    C1157     R2485     -2
    C1157     R2486     -2
    C1157     R2487     -2
    C1157     R2567     1
    C1157     R2568     1
    C1157     R2569     1
    C1157     R2570     1
    C1157     R2571     1
    C1157     R2609     1
    C1157     R2610     1
    C1157     R2611     1
    C1157     R2612     1
    C1157     R2613     1
    C1157     R2693     -2
    C1157     R2694     -2
    C1157     R2695     -2
    C1157     R2696     -2
    C1157     R2697     -2
    C1157     R2767     -1
    C1159     R0887     1
    C1159     R0995     1
    C1159     R1215     1
    C1159     R1216     1
    C1159     R1217     1
    C1159     R1263     1
    C1159     R1264     1
    C1159     R1265     1
    C1159     R1406     -1
    C1159     R1408     -1
    C1159     R1496     1
    C1159     R1497     1
    C1159     R1498     1
    C1159     R1542     -1
    C1159     R1675     -2
    C1159     R1676     -2
    C1159     R1677     -2
    C1159     R1759     1
    C1159     R1760     1
    C1159     R1761     1
    C1159     R1801     1
    C1159     R1802     1
    C1159     R1803     1
    C1159     R1885     -2
    C1159     R1886     -2
    C1159     R1887     -2
    C1159     R2025     1
    C1159     R2026     1
    C1159     R2027     1
    C1159     R2073     1
    C1159     R2074     1
    C1159     R2075     1
    C1159     R2216     -1
    C1159     R2217     -1
    C1159     R2218     -1
    C1159     R2306     1
    C1159     R2307     1
    C1159     R2308     1
    C1159     R2351     1
    C1159     R2352     1
    C1159     R2353     1
    C1159     R2441     -1
    C1159     R2442     -1
    C1159     R2443     -1
    C1159     R2485     -2
    C1159     R2486     -2
    C1159     R2487     -2
    C1159     R2569     1
    C1159     R2570     1
    C1159     R2571     1
    C1159     R2611     1
    C1159     R2612     1
    C1159     R2613     1
    C1159     R2695     -2
    C1159     R2696     -2
    C1159     R2697     -2
    C1159     R2767     -1
    C1161     R0889     1
    C1161     R0997     1
    C1161     R1217     1
    C1161     R1265     1
    C1161     R1408     -1
    C1161     R1498     1
    C1161     R1677     -2
    C1161     R1761     1
    C1161     R1803     1
    C1161     R1887     -2
    C1161     R2027     1
    C1161     R2075     1
    C1161     R2218     -1
    C1161     R2308     1
    C1161     R2353     1
    C1161     R2443     -1
    C1161     R2487     -2
    C1161     R2571     1
    C1161     R2613     1
    C1161     R2697     -2
    C1161     R2767     -1
    C1167     OBJ       1000
    C1167     R0806     1
    C1167     R0895     1
    C1167     R0985     1
    C1167     R1083     1
    C1167     R1207     1
    C1167     R1271     1
    C1167     R1413     -1
    C1167     R1488     1
    C1167     R1489     1
    C1167     R1549     -1
    C1167     R1681     -2
    C1167     R1682     -1
    C1167     R1683     -3
    C1167     R1877     -2
    C1167     R1878     -1
    C1167     R1879     -3
    C1167     R2017     1
    C1167     R2081     1
    C1167     R2223     -1
    C1167     R2224     -1
    C1167     R2297     1
    C1167     R2298     1
    C1167     R2299     1
    C1167     R2359     1
    C1167     R2434     -1
    C1167     R2491     -2
    C1167     R2492     -1
    C1167     R2493     -3
    C1167     R2561     1
    C1167     R2688     -1
    C1167     R2689     -3
    C1167     R2732     1
    C1167     R2736     1
    C1167     R2750     1
    C1167     R2754     1
    C1167     R2774     1
    C1168     OBJ       148
    C1168     R0806     1
    C1168     R0896     1
    C1168     R0986     1
    C1168     R1083     1
    C1168     R1207     1
    C1168     R1208     1
    C1168     R1271     1
    C1168     R1272     1
    C1168     R1413     -1
    C1168     R1415     -1
    C1168     R1488     1
    C1168     R1489     1
    C1168     R1490     1
    C1168     R1549     -1
    C1168     R1681     -2
    C1168     R1682     -1
    C1168     R1683     -3
    C1168     R1684     -3
    C1168     R1877     -2
    C1168     R1878     -1
    C1168     R1879     -3
    C1168     R1880     -3
    C1168     R1936     1
    C1168     R2161     1
    C1168     R2162     1
    C1168     R2222     1
    C1168     R2223     1
    C1168     R2224     1
    C1168     R2225     1
    C1168     R2299     -1
    C1168     R2300     -1
    C1168     R2359     -1
    C1168     R2360     -1
    C1168     R2433     1
    C1168     R2434     1
    C1168     R2435     1
    C1168     R2560     -1
    C1168     R2561     -2
    C1168     R2563     -3
    C1168     R2564     -3
    C1168     R2619     -3
    C1168     R2620     -3
    C1168     R2732     1
    C1168     R2736     1
    C1168     R2745     1
    C1168     R2759     1
    C1168     R2834     1
    C1169     R0806     1
    C1169     R0897     1
    C1169     R0987     1
    C1169     R1083     1
    C1169     R1207     1
    C1169     R1208     1
    C1169     R1209     1
    C1169     R1271     1
    C1169     R1272     1
    C1169     R1273     1
    C1169     R1413     -1
    C1169     R1415     -1
    C1169     R1416     -1
    C1169     R1488     1
    C1169     R1489     1
    C1169     R1490     1
    C1169     R1491     1
    C1169     R1549     -1
    C1169     R1681     -2
    C1169     R1682     -1
    C1169     R1683     -3
    C1169     R1684     -3
    C1169     R1685     -3
    C1169     R1877     -2
    C1169     R1878     -1
    C1169     R1879     -3
    C1169     R1880     -3
    C1169     R1881     -3
    C1169     R2017     1
    C1169     R2018     1
    C1169     R2019     1
    C1169     R2081     1
    C1169     R2082     1
    C1169     R2083     1
    C1169     R2223     -1
    C1169     R2224     -1
    C1169     R2225     -1
    C1169     R2226     -1
    C1169     R2298     1
    C1169     R2299     1
    C1169     R2300     1
    C1169     R2301     1
    C1169     R2359     1
    C1169     R2360     1
    C1169     R2361     1
    C1169     R2434     -1
    C1169     R2435     -1
    C1169     R2436     -1
    C1169     R2491     -2
    C1169     R2492     -1
    C1169     R2493     -3
    C1169     R2494     -3
    C1169     R2495     -3
    C1169     R2561     1
    C1169     R2688     -1
    C1169     R2689     -3
    C1169     R2690     -3
    C1169     R2691     -3
    C1169     R2732     1
    C1169     R2736     1
    C1169     R2750     1
    C1169     R2754     1
    C1169     R2774     1
    C1169     R2834     1
    C1169     R2835     1
    C1170     OBJ       148
    C1170     R0806     1
    C1170     R0898     1
    C1170     R0988     1
    C1170     R1083     1
    C1170     R1208     1
    C1170     R1209     1
    C1170     R1210     1
    C1170     R1272     1
    C1170     R1273     1
    C1170     R1274     1
    C1170     R1415     -1
    C1170     R1416     -1
    C1170     R1489     1
    C1170     R1490     1
    C1170     R1491     1
    C1170     R1492     1
    C1170     R1549     -1
    C1170     R1552     -1
    C1170     R1682     -1
    C1170     R1683     -3
    C1170     R1684     -3
    C1170     R1685     -3
    C1170     R1686     -2
    C1170     R1878     -1
    C1170     R1879     -3
    C1170     R1880     -3
    C1170     R1881     -3
    C1170     R1882     -3
    C1170     R1939     1
    C1170     R1940     1
    C1170     R2162     1
    C1170     R2163     1
    C1170     R2164     1
    C1170     R2224     1
    C1170     R2225     1
    C1170     R2226     1
    C1170     R2227     1
    C1170     R2299     -1
    C1170     R2300     -1
    C1170     R2301     -1
    C1170     R2302     -1
    C1170     R2359     -1
    C1170     R2360     -1
    C1170     R2361     -1
    C1170     R2362     -1
    C1170     R2434     1
    C1170     R2435     1
    C1170     R2436     1
    C1170     R2437     1
    C1170     R2563     -3
    C1170     R2564     -3
    C1170     R2565     -3
    C1170     R2566     -2
    C1170     R2619     -3
    C1170     R2620     -3
    C1170     R2621     -3
    C1170     R2622     -2
    C1170     R2732     1
    C1170     R2736     1
    C1170     R2745     1
    C1170     R2759     1
    C1170     R2834     1
    C1170     R2835     1
    C1170     R2836     1
    C1171     R0807     1
    C1171     R0899     1
    C1171     R0989     1
    C1171     R1083     1
    C1171     R1209     1
    C1171     R1210     1
    C1171     R1211     1
    C1171     R1273     1
    C1171     R1274     1
    C1171     R1275     1
    C1171     R1415     -1
    C1171     R1416     -1
    C1171     R1418     -1
    C1171     R1490     1
    C1171     R1491     1
    C1171     R1492     1
    C1171     R1493     1
    C1171     R1552     -1
    C1171     R1683     -2
    C1171     R1684     -2
    C1171     R1685     -2
    C1171     R1686     -2
    C1171     R1687     -2
    C1171     R1753     1
    C1171     R1754     1
    C1171     R1755     1
    C1171     R1756     1
    C1171     R1757     1
    C1171     R1809     1
    C1171     R1810     1
    C1171     R1811     1
    C1171     R1812     1
    C1171     R1813     1
    C1171     R1879     -2
    C1171     R1880     -2
    C1171     R1881     -2
    C1171     R1882     -2
    C1171     R1883     -2
    C1171     R2019     1
    C1171     R2020     1
    C1171     R2021     1
    C1171     R2083     1
    C1171     R2084     1
    C1171     R2085     1
    C1171     R2225     -1
    C1171     R2226     -1
    C1171     R2227     -1
    C1171     R2228     -1
    C1171     R2300     1
    C1171     R2301     1
    C1171     R2302     1
    C1171     R2303     1
    C1171     R2360     1
    C1171     R2361     1
    C1171     R2362     1
    C1171     R2363     1
    C1171     R2435     -1
    C1171     R2436     -1
    C1171     R2437     -1
    C1171     R2438     -1
    C1171     R2493     -2
    C1171     R2494     -2
    C1171     R2495     -2
    C1171     R2496     -2
    C1171     R2497     -2
    C1171     R2563     1
    C1171     R2564     1
    C1171     R2565     1
    C1171     R2566     1
    C1171     R2567     1
    C1171     R2619     1
    C1171     R2620     1
    C1171     R2621     1
    C1171     R2622     1
    C1171     R2623     1
    C1171     R2689     -2
    C1171     R2690     -2
    C1171     R2691     -2
    C1171     R2692     -2
    C1171     R2693     -2
    C1171     R2774     -1
    C1171     R2834     1
    C1171     R2835     1
    C1171     R2836     1
    C1172     OBJ       148
    C1172     R0807     1
    C1172     R0900     1
    C1172     R0990     1
    C1172     R1083     1
    C1172     R1210     1
    C1172     R1211     1
    C1172     R1212     1
    C1172     R1274     1
    C1172     R1275     1
    C1172     R1276     1
    C1172     R1416     -1
    C1172     R1418     -1
    C1172     R1419     -1
    C1172     R1491     1
    C1172     R1492     1
    C1172     R1493     1
    C1172     R1494     1
    C1172     R1552     -1
    C1172     R1684     -2
    C1172     R1685     -2
    C1172     R1686     -2
    C1172     R1687     -2
    C1172     R1688     -2
    C1172     R1754     1
    C1172     R1755     1
    C1172     R1756     1
    C1172     R1757     1
    C1172     R1758     1
    C1172     R1810     1
    C1172     R1811     1
    C1172     R1812     1
    C1172     R1813     1
    C1172     R1814     1
    C1172     R1880     -2
    C1172     R1881     -2
    C1172     R1882     -2
    C1172     R1883     -2
    C1172     R1884     -2
    C1172     R1940     1
    C1172     R1941     1
    C1172     R1942     1
    C1172     R2164     1
    C1172     R2165     1
    C1172     R2166     1
    C1172     R2226     1
    C1172     R2227     1
    C1172     R2228     1
    C1172     R2229     1
    C1172     R2301     -1
    C1172     R2302     -1
    C1172     R2303     -1
    C1172     R2304     -1
    C1172     R2361     -1
    C1172     R2362     -1
    C1172     R2363     -1
    C1172     R2364     -1
    C1172     R2436     1
    C1172     R2437     1
    C1172     R2438     1
    C1172     R2439     1
    C1172     R2494     1
    C1172     R2495     1
    C1172     R2496     1
    C1172     R2497     1
    C1172     R2498     1
    C1172     R2564     -2
    C1172     R2565     -2
    C1172     R2566     -2
    C1172     R2567     -2
    C1172     R2568     -2
    C1172     R2620     -2
    C1172     R2621     -2
    C1172     R2622     -2
    C1172     R2623     -2
    C1172     R2624     -2
    C1172     R2690     1
    C1172     R2691     1
    C1172     R2692     1
    C1172     R2693     1
    C1172     R2694     1
    C1172     R2835     1
    C1172     R2836     1
    C1173     R0807     1
    C1173     R0901     1
    C1173     R0991     1
    C1173     R1083     1
    C1173     R1211     1
    C1173     R1212     1
    C1173     R1213     1
    C1173     R1275     1
    C1173     R1276     1
    C1173     R1277     1
    C1173     R1418     -1
    C1173     R1419     -1
    C1173     R1420     -1
    C1173     R1492     1
    C1173     R1493     1
    C1173     R1494     1
    C1173     R1495     1
    C1173     R1552     -1
    C1173     R1685     -2
    C1173     R1686     -2
    C1173     R1687     -2
    C1173     R1688     -2
    C1173     R1689     -2
    C1173     R1755     1
    C1173     R1756     1
    C1173     R1757     1
    C1173     R1758     1
    C1173     R1759     1
    C1173     R1811     1
    C1173     R1812     1
    C1173     R1813     1
    C1173     R1814     1
    C1173     R1815     1
    C1173     R1881     -2
    C1173     R1882     -2
    C1173     R1883     -2
    C1173     R1884     -2
    C1173     R1885     -2
    C1173     R2021     1
    C1173     R2022     1
    C1173     R2023     1
    C1173     R2085     1
    C1173     R2086     1
    C1173     R2087     1
    C1173     R2227     -1
    C1173     R2228     -1
    C1173     R2229     -1
    C1173     R2230     -1
    C1173     R2302     1
    C1173     R2303     1
    C1173     R2304     1
    C1173     R2305     1
    C1173     R2362     1
    C1173     R2363     1
    C1173     R2364     1
    C1173     R2365     1
    C1173     R2437     -1
    C1173     R2438     -1
    C1173     R2439     -1
    C1173     R2440     -1
    C1173     R2495     -2
    C1173     R2496     -2
    C1173     R2497     -2
    C1173     R2498     -2
    C1173     R2499     -2
    C1173     R2565     1
    C1173     R2566     1
    C1173     R2567     1
    C1173     R2568     1
    C1173     R2569     1
    C1173     R2621     1
    C1173     R2622     1
    C1173     R2623     1
    C1173     R2624     1
    C1173     R2625     1
    C1173     R2691     -2
    C1173     R2692     -2
    C1173     R2693     -2
    C1173     R2694     -2
    C1173     R2695     -2
    C1173     R2774     -1
    C1173     R2836     1
    C1174     OBJ       148
    C1174     R0807     1
    C1174     R0902     1
    C1174     R0992     1
    C1174     R1083     1
    C1174     R1212     1
    C1174     R1213     1
    C1174     R1214     1
    C1174     R1276     1
    C1174     R1277     1
    C1174     R1278     1
    C1174     R1418     -1
    C1174     R1419     -1
    C1174     R1420     -1
    C1174     R1421     -1
    C1174     R1493     1
    C1174     R1494     1
    C1174     R1495     1
    C1174     R1496     1
    C1174     R1686     -2
    C1174     R1687     -2
    C1174     R1688     -2
    C1174     R1689     -2
    C1174     R1690     -2
    C1174     R1756     1
    C1174     R1757     1
    C1174     R1758     1
    C1174     R1759     1
    C1174     R1760     1
    C1174     R1812     1
    C1174     R1813     1
    C1174     R1814     1
    C1174     R1815     1
    C1174     R1816     1
    C1174     R1882     -2
    C1174     R1883     -2
    C1174     R1884     -2
    C1174     R1885     -2
    C1174     R1886     -2
    C1174     R1942     1
    C1174     R1943     1
    C1174     R1944     1
    C1174     R2166     1
    C1174     R2167     1
    C1174     R2168     1
    C1174     R2228     1
    C1174     R2229     1
    C1174     R2230     1
    C1174     R2231     1
    C1174     R2303     -1
    C1174     R2304     -1
    C1174     R2305     -1
    C1174     R2306     -1
    C1174     R2363     -1
    C1174     R2364     -1
    C1174     R2365     -1
    C1174     R2366     -1
    C1174     R2438     1
    C1174     R2439     1
    C1174     R2440     1
    C1174     R2441     1
    C1174     R2496     1
    C1174     R2497     1
    C1174     R2498     1
    C1174     R2499     1
    C1174     R2500     1
    C1174     R2566     -2
    C1174     R2567     -2
    C1174     R2568     -2
    C1174     R2569     -2
    C1174     R2570     -2
    C1174     R2622     -2
    C1174     R2623     -2
    C1174     R2624     -2
    C1174     R2625     -2
    C1174     R2626     -2
    C1174     R2692     1
    C1174     R2693     1
    C1174     R2694     1
    C1174     R2695     1
    C1174     R2696     1
    C1175     R2836     1
    C1175     R0807     1
    C1175     R0903     1
    C1175     R0993     1
    C1175     R1083     1
    C1175     R1213     1
    C1175     R1214     1
    C1175     R1215     1
    C1175     R1277     1
    C1175     R1278     1
    C1175     R1279     1
    C1175     R1419     -1
    C1175     R1420     -1
    C1175     R1421     -1
    C1175     R1422     -1
    C1175     R1494     1
    C1175     R1495     1
    C1175     R1496     1
    C1175     R1497     1
    C1175     R1687     -2
    C1175     R1688     -2
    C1175     R1689     -2
    C1175     R1690     -2
    C1175     R1691     -2
    C1175     R1757     1
    C1175     R1758     1
    C1175     R1759     1
    C1175     R1760     1
    C1175     R1761     1
    C1175     R1813     1
    C1175     R1814     1
    C1175     R1815     1
    C1175     R1816     1
    C1175     R1817     1
    C1175     R1883     -2
    C1175     R1884     -2
    C1175     R1885     -2
    C1175     R1886     -2
    C1175     R1887     -2
    C1175     R2023     1
    C1175     R2024     1
    C1175     R2025     1
    C1175     R2087     1
    C1175     R2088     1
    C1175     R2089     1
    C1175     R2229     -1
    C1175     R2230     -1
    C1175     R2231     -1
    C1175     R2232     -1
    C1175     R2304     1
    C1175     R2305     1
    C1175     R2306     1
    C1175     R2307     1
    C1175     R2364     1
    C1175     R2365     1
    C1175     R2366     1
    C1175     R2367     1
    C1175     R2439     -1
    C1175     R2440     -1
    C1175     R2441     -1
    C1175     R2442     -1
    C1175     R2497     -2
    C1175     R2498     -2
    C1175     R2499     -2
    C1175     R2500     -2
    C1175     R2501     -2
    C1175     R2567     1
    C1175     R2568     1
    C1175     R2569     1
    C1175     R2570     1
    C1175     R2571     1
    C1175     R2623     1
    C1175     R2624     1
    C1175     R2625     1
    C1175     R2626     1
    C1175     R2627     1
    C1175     R2693     -2
    C1175     R2694     -2
    C1175     R2695     -2
    C1175     R2696     -2
    C1175     R2697     -2
    C1175     R2774     -1
    C1176     OBJ       148
    C1176     R0807     1
    C1176     R0904     1
    C1176     R0994     1
    C1176     R1083     1
    C1176     R1214     1
    C1176     R1215     1
    C1176     R1216     1
    C1176     R1278     1
    C1176     R1279     1
    C1176     R1280     1
    C1176     R1420     -1
    C1176     R1421     -1
    C1176     R1422     -1
    C1176     R1423     -1
    C1176     R1495     1
    C1176     R1496     1
    C1176     R1497     1
    C1176     R1498     1
    C1176     R1688     -2
    C1176     R1689     -2
    C1176     R1690     -2
    C1176     R1691     -2
    C1176     R1758     1
    C1176     R1759     1
    C1176     R1760     1
    C1176     R1761     1
    C1176     R1814     1
    C1176     R1815     1
    C1176     R1816     1
    C1176     R1817     1
    C1176     R1884     -2
    C1176     R1885     -2
    C1176     R1886     -2
    C1176     R1887     -2
    C1176     R1944     1
    C1176     R1945     1
    C1176     R1946     1
    C1176     R2168     1
    C1176     R2169     1
    C1176     R2170     1
    C1176     R2230     1
    C1176     R2231     1
    C1176     R2232     1
    C1176     R2233     1
    C1176     R2305     -1
    C1176     R2306     -1
    C1176     R2307     -1
    C1176     R2308     -1
    C1176     R2365     -1
    C1176     R2366     -1
    C1176     R2367     -1
    C1176     R2368     -1
    C1176     R2440     1
    C1176     R2441     1
    C1176     R2442     1
    C1176     R2443     1
    C1176     R2498     1
    C1176     R2499     1
    C1176     R2500     1
    C1176     R2501     1
    C1176     R2568     -2
    C1176     R2569     -2
    C1176     R2570     -2
    C1176     R2571     -2
    C1176     R2624     -2
    C1176     R2625     -2
    C1176     R2626     -2
    C1176     R2627     -2
    C1176     R2694     1
    C1176     R2695     1
    C1176     R2696     1
    C1176     R2697     1
    C1177     R2836     1
    C1177     R0807     1
    C1177     R0905     1
    C1177     R0995     1
    C1177     R1083     1
    C1177     R1215     1
    C1177     R1216     1
    C1177     R1217     1
    C1177     R1279     1
    C1177     R1280     1
    C1177     R1281     1
    C1177     R1421     -1
    C1177     R1422     -1
    C1177     R1423     -1
    C1177     R1496     1
    C1177     R1497     1
    C1177     R1498     1
    C1177     R1689     -2
    C1177     R1690     -2
    C1177     R1691     -2
    C1177     R1759     1
    C1177     R1760     1
    C1177     R1761     1
    C1177     R1815     1
    C1177     R1816     1
    C1177     R1817     1
    C1177     R1885     -2
    C1177     R1886     -2
    C1177     R1887     -2
    C1177     R2025     1
    C1177     R2026     1
    C1177     R2027     1
    C1177     R2089     1
    C1177     R2090     1
    C1177     R2091     1
    C1177     R2231     -1
    C1177     R2232     -1
    C1177     R2233     -1
    C1177     R2306     1
    C1177     R2307     1
    C1177     R2308     1
    C1177     R2366     1
    C1177     R2367     1
    C1177     R2368     1
    C1177     R2441     -1
    C1177     R2442     -1
    C1177     R2443     -1
    C1177     R2499     -2
    C1177     R2500     -2
    C1177     R2501     -2
    C1177     R2569     1
    C1177     R2570     1
    C1177     R2571     1
    C1177     R2625     1
    C1177     R2626     1
    C1177     R2627     1
    C1177     R2695     -2
    C1177     R2696     -2
    C1177     R2697     -2
    C1177     R2774     -1
    C1178     OBJ       148
    C1178     R0807     1
    C1178     R0906     1
    C1178     R0996     1
    C1178     R1083     1
    C1178     R1216     1
    C1178     R1217     1
    C1178     R1280     1
    C1178     R1281     1
    C1178     R1422     -1
    C1178     R1423     -1
    C1178     R1497     1
    C1178     R1498     1
    C1178     R1690     -2
    C1178     R1691     -2
    C1178     R1760     1
    C1178     R1761     1
    C1178     R1816     1
    C1178     R1817     1
    C1178     R1886     -2
    C1178     R1887     -2
    C1178     R1946     1
    C1178     R1947     1
    C1178     R2170     1
    C1178     R2171     1
    C1178     R2232     1
    C1178     R2233     1
    C1178     R2307     -1
    C1178     R2308     -1
    C1178     R2367     -1
    C1178     R2368     -1
    C1178     R2442     1
    C1178     R2443     1
    C1178     R2500     1
    C1178     R2501     1
    C1178     R2570     -2
    C1178     R2571     -2
    C1178     R2626     -2
    C1178     R2627     -2
    C1178     R2696     1
    C1178     R2697     1
    C1179     R2836     1
    C1179     R0807     1
    C1179     R0907     1
    C1179     R0997     1
    C1179     R1083     1
    C1179     R1217     1
    C1179     R1281     1
    C1179     R1423     -1
    C1179     R1498     1
    C1179     R1691     -2
    C1179     R1761     1
    C1179     R1817     1
    C1179     R1887     -2
    C1179     R2027     1
    C1179     R2091     1
    C1179     R2233     -1
    C1179     R2308     1
    C1179     R2368     1
    C1179     R2443     -1
    C1179     R2501     -2
    C1179     R2571     1
    C1179     R2627     1
    C1179     R2697     -2
    C1179     R2774     -1
    C1186     R1142     1
    C1186     R0818     1
    C1186     R0914     1
    C1186     R0986     1
    C1186     R1084     1
    C1186     R1207     1
    C1186     R1208     1
    C1186     R1287     1
    C1186     R1288     1
    C1186     R1429     -1
    C1186     R1488     1
    C1186     R1489     1
    C1186     R1490     1
    C1186     R1565     -1
    C1186     R1696     -1
    C1186     R1697     -3
    C1186     R1698     -3
    C1186     R1877     -3
    C1186     R1878     -1
    C1186     R1879     -3
    C1186     R1880     -3
    C1186     R1952     1
    C1186     R1953     1
    C1186     R1954     1
    C1186     R2161     1
    C1186     R2162     1
    C1186     R2240     1
    C1186     R2299     -1
    C1186     R2300     -1
    C1186     R2375     -1
    C1186     R2433     1
    C1186     R2434     1
    C1186     R2435     1
    C1186     R2560     -1
    C1186     R2561     -3
    C1186     R2563     -3
    C1186     R2564     -3
    C1186     R2633     -3
    C1186     R2634     -3
    C1186     R2732     1
    C1186     R2737     1
    C1186     R2746     1
    C1186     R2759     1
    C1188     R0818     1
    C1188     R0916     1
    C1188     R0988     1
    C1188     R1084     1
    C1188     R1208     1
    C1188     R1209     1
    C1188     R1210     1
    C1188     R1288     1
    C1188     R1289     1
    C1188     R1290     1
    C1188     R1429     -1
    C1188     R1431     -1
    C1188     R1432     -1
    C1188     R1489     1
    C1188     R1490     1
    C1188     R1491     1
    C1188     R1492     1
    C1188     R1565     -1
    C1188     R1696     -1
    C1188     R1697     -3
    C1188     R1698     -3
    C1188     R1699     -3
    C1188     R1700     -2
    C1188     R1878     -1
    C1188     R1879     -3
    C1188     R1880     -3
    C1188     R1881     -3
    C1188     R1882     -3
    C1188     R1954     1
    C1188     R1955     1
    C1188     R1956     1
    C1188     R2162     1
    C1188     R2163     1
    C1188     R2164     1
    C1188     R2240     1
    C1188     R2241     1
    C1188     R2242     1
    C1188     R2299     -1
    C1188     R2300     -1
    C1188     R2301     -1
    C1188     R2302     -1
    C1188     R2375     -1
    C1188     R2376     -1
    C1188     R2377     -1
    C1188     R2434     1
    C1188     R2435     1
    C1188     R2436     1
    C1188     R2437     1
    C1188     R2563     -3
    C1188     R2564     -3
    C1188     R2565     -3
    C1188     R2566     -2
    C1188     R2633     -3
    C1188     R2634     -3
    C1188     R2635     -3
    C1188     R2636     -2
    C1188     R2732     1
    C1188     R2737     1
    C1188     R2746     1
    C1188     R2759     1
    C1188     R2853     1
    C1190     R0819     1
    C1190     R0918     1
    C1190     R0990     1
    C1190     R1084     1
    C1190     R1210     1
    C1190     R1211     1
    C1190     R1212     1
    C1190     R1290     1
    C1190     R1291     1
    C1190     R1292     1
    C1190     R1431     -1
    C1190     R1432     -1
    C1190     R1433     -1
    C1190     R1434     -1
    C1190     R1491     1
    C1190     R1492     1
    C1190     R1493     1
    C1190     R1494     1
    C1190     R1698     -2
    C1190     R1699     -2
    C1190     R1700     -2
    C1190     R1701     -2
    C1190     R1702     -2
    C1190     R1754     1
    C1190     R1755     1
    C1190     R1756     1
    C1190     R1757     1
    C1190     R1758     1
    C1190     R1824     1
    C1190     R1825     1
    C1190     R1826     1
    C1190     R1827     1
    C1190     R1828     1
    C1190     R1880     -2
    C1190     R1881     -2
    C1190     R1882     -2
    C1190     R1883     -2
    C1190     R1884     -2
    C1190     R1956     1
    C1190     R1957     1
    C1190     R1958     1
    C1190     R2164     1
    C1190     R2165     1
    C1190     R2166     1
    C1190     R2241     1
    C1190     R2242     1
    C1190     R2243     1
    C1190     R2244     1
    C1190     R2301     -1
    C1190     R2302     -1
    C1190     R2303     -1
    C1190     R2304     -1
    C1190     R2376     -1
    C1190     R2377     -1
    C1190     R2378     -1
    C1190     R2379     -1
    C1190     R2436     1
    C1190     R2437     1
    C1190     R2438     1
    C1190     R2439     1
    C1190     R2508     1
    C1190     R2509     1
    C1190     R2510     1
    C1190     R2511     1
    C1190     R2512     1
    C1190     R2564     -2
    C1190     R2565     -2
    C1190     R2566     -2
    C1190     R2567     -2
    C1190     R2568     -2
    C1190     R2634     -2
    C1190     R2635     -2
    C1190     R2636     -2
    C1190     R2637     -2
    C1190     R2638     -2
    C1190     R2690     1
    C1190     R2691     1
    C1190     R2692     1
    C1190     R2693     1
    C1190     R2694     1
    C1190     R2853     1
    C1192     R0819     1
    C1192     R0920     1
    C1192     R0992     1
    C1192     R1084     1
    C1192     R1212     1
    C1192     R1213     1
    C1192     R1214     1
    C1192     R1292     1
    C1192     R1293     1
    C1192     R1294     1
    C1192     R1433     -1
    C1192     R1434     -1
    C1192     R1435     -1
    C1192     R1493     1
    C1192     R1494     1
    C1192     R1495     1
    C1192     R1496     1
    C1192     R1571     -1
    C1192     R1700     -2
    C1192     R1701     -2
    C1192     R1702     -2
    C1192     R1703     -2
    C1192     R1704     -2
    C1192     R1756     1
    C1192     R1757     1
    C1192     R1758     1
    C1192     R1759     1
    C1192     R1760     1
    C1192     R1826     1
    C1192     R1827     1
    C1192     R1828     1
    C1192     R1829     1
    C1192     R1830     1
    C1192     R1882     -2
    C1192     R1883     -2
    C1192     R1884     -2
    C1192     R1885     -2
    C1192     R1886     -2
    C1192     R1958     1
    C1192     R1959     1
    C1192     R1960     1
    C1192     R2166     1
    C1192     R2167     1
    C1192     R2168     1
    C1192     R2243     1
    C1192     R2244     1
    C1192     R2245     1
    C1192     R2246     1
    C1192     R2303     -1
    C1192     R2304     -1
    C1192     R2305     -1
    C1192     R2306     -1
    C1192     R2378     -1
    C1192     R2379     -1
    C1192     R2380     -1
    C1192     R2381     -1
    C1192     R2438     1
    C1192     R2439     1
    C1192     R2440     1
    C1192     R2441     1
    C1192     R2510     1
    C1192     R2511     1
    C1192     R2512     1
    C1192     R2513     1
    C1192     R2514     1
    C1192     R2566     -2
    C1192     R2567     -2
    C1192     R2568     -2
    C1192     R2569     -2
    C1192     R2570     -2
    C1192     R2636     -2
    C1192     R2637     -2
    C1192     R2638     -2
    C1192     R2639     -2
    C1192     R2640     -2
    C1192     R2692     1
    C1192     R2693     1
    C1192     R2694     1
    C1192     R2695     1
    C1192     R2696     1
    C1194     R0819     1
    C1194     R0922     1
    C1194     R0994     1
    C1194     R1084     1
    C1194     R1214     1
    C1194     R1215     1
    C1194     R1216     1
    C1194     R1294     1
    C1194     R1295     1
    C1194     R1296     1
    C1194     R1435     -1
    C1194     R1495     1
    C1194     R1496     1
    C1194     R1497     1
    C1194     R1498     1
    C1194     R1571     -1
    C1194     R1572     -1
    C1194     R1573     -1
    C1194     R1702     -2
    C1194     R1703     -2
    C1194     R1704     -2
    C1194     R1705     -2
    C1194     R1758     1
    C1194     R1759     1
    C1194     R1760     1
    C1194     R1761     1
    C1194     R1828     1
    C1194     R1829     1
    C1194     R1830     1
    C1194     R1831     1
    C1194     R1884     -2
    C1194     R1885     -2
    C1194     R1886     -2
    C1194     R1887     -2
    C1194     R1960     1
    C1194     R1961     1
    C1194     R1962     1
    C1194     R2168     1
    C1194     R2169     1
    C1194     R2170     1
    C1194     R2245     1
    C1194     R2246     1
    C1194     R2247     1
    C1194     R2248     1
    C1194     R2305     -1
    C1194     R2306     -1
    C1194     R2307     -1
    C1194     R2308     -1
    C1194     R2380     -1
    C1194     R2381     -1
    C1194     R2382     -1
    C1194     R2383     -1
    C1194     R2440     1
    C1194     R2441     1
    C1194     R2442     1
    C1194     R2443     1
    C1194     R2512     1
    C1194     R2513     1
    C1194     R2514     1
    C1194     R2515     1
    C1194     R2568     -2
    C1194     R2569     -2
    C1194     R2570     -2
    C1194     R2571     -2
    C1194     R2638     -2
    C1194     R2639     -2
    C1194     R2640     -2
    C1194     R2641     -2
    C1194     R2694     1
    C1194     R2695     1
    C1194     R2696     1
    C1194     R2697     1
    C1196     R0819     1
    C1196     R0924     1
    C1196     R0996     1
    C1196     R1084     1
    C1196     R1216     1
    C1196     R1217     1
    C1196     R1296     1
    C1196     R1297     1
    C1196     R1497     1
    C1196     R1498     1
    C1196     R1572     -1
    C1196     R1573     -1
    C1196     R1704     -2
    C1196     R1705     -2
    C1196     R1760     1
    C1196     R1761     1
    C1196     R1830     1
    C1196     R1831     1
    C1196     R1886     -2
    C1196     R1887     -2
    C1196     R1962     1
    C1196     R1963     1
    C1196     R2170     1
    C1196     R2171     1
    C1196     R2247     1
    C1196     R2248     1
    C1196     R2307     -1
    C1196     R2308     -1
    C1196     R2382     -1
    C1196     R2383     -1
    C1196     R2442     1
    C1196     R2443     1
    C1196     R2514     1
    C1196     R2515     1
    C1196     R2570     -2
    C1196     R2571     -2
    C1196     R2640     -2
    C1196     R2641     -2
    C1196     R2696     1
    C1196     R2697     1
    C1203     OBJ       1000
    C1203     R0828     1
    C1203     R0931     1
    C1203     R0985     1
    C1203     R1085     1
    C1203     R1207     1
    C1203     R1301     1
    C1203     R1302     1
    C1203     R1488     1
    C1203     R1489     1
    C1203     R1711     -2
    C1203     R1835     1
    C1203     R1877     -2
    C1203     R1878     -1
    C1203     R1879     -3
    C1203     R2017     1
    C1203     R2112     1
    C1203     R2297     1
    C1203     R2298     1
    C1203     R2299     1
    C1203     R2388     1
    C1203     R2434     -1
    C1203     R2521     -2
    C1203     R2561     1
    C1203     R2688     -1
    C1203     R2689     -3
    C1203     R2732     1
    C1203     R2738     1
    C1203     R2750     1
    C1203     R2756     1
    C1203     R2785     1
    C1204     OBJ       99
    C1204     R0828     1
    C1204     R0932     1
    C1204     R0986     1
    C1204     R1085     1
    C1204     R1207     1
    C1204     R1208     1
    C1204     R1302     1
    C1204     R1488     1
    C1204     R1489     1
    C1204     R1490     1
    C1204     R1580     -1
    C1204     R1711     -2
    C1204     R1712     -2
    C1204     R1835     1
    C1204     R1838     1
    C1204     R1877     -2
    C1204     R1878     -1
    C1204     R1879     -3
    C1204     R1880     -3
    C1204     R1970     1
    C1204     R2161     1
    C1204     R2162     1
    C1204     R2254     1
    C1204     R2255     1
    C1204     R2299     -1
    C1204     R2300     -1
    C1204     R2388     -1
    C1204     R2390     -1
    C1204     R2433     1
    C1204     R2434     1
    C1204     R2435     1
    C1204     R2522     1
    C1204     R2560     -1
    C1204     R2561     -2
    C1204     R2563     -3
    C1204     R2564     -3
    C1204     R2646     -1
    C1204     R2647     -2
    C1204     R2648     -2
    C1204     R2732     1
    C1204     R2738     1
    C1204     R2747     1
    C1204     R2759     1
    C1204     R2867     1
    C1205     R0828     1
    C1205     R0933     1
    C1205     R0987     1
    C1205     R1085     1
    C1205     R1207     1
    C1205     R1208     1
    C1205     R1209     1
    C1205     R1305     1
    C1205     R1446     -1
    C1205     R1488     1
    C1205     R1489     1
    C1205     R1490     1
    C1205     R1491     1
    C1205     R1580     -1
    C1205     R1711     -2
    C1205     R1712     -2
    C1205     R1713     -2
    C1205     R1835     1
    C1205     R1838     1
    C1205     R1839     1
    C1205     R1877     -2
    C1205     R1878     -1
    C1205     R1879     -3
    C1205     R1880     -3
    C1205     R1881     -3
    C1205     R2017     1
    C1205     R2018     1
    C1205     R2019     1
    C1205     R2115     1
    C1205     R2255     -1
    C1205     R2256     -1
    C1205     R2298     1
    C1205     R2299     1
    C1205     R2300     1
    C1205     R2301     1
    C1205     R2388     1
    C1205     R2390     1
    C1205     R2391     1
    C1205     R2434     -1
    C1205     R2435     -1
    C1205     R2436     -1
    C1205     R2521     -2
    C1205     R2522     -2
    C1205     R2523     -2
    C1205     R2561     1
    C1205     R2648     1
    C1205     R2649     1
    C1205     R2688     -1
    C1205     R2689     -3
    C1205     R2690     -3
    C1205     R2691     -3
    C1205     R2732     1
    C1205     R2738     1
    C1205     R2750     1
    C1205     R2756     1
    C1205     R2785     1
    C1205     R2867     1
    C1205     R2868     1
    C1206     OBJ       99
    C1206     R0828     1
    C1206     R0934     1
    C1206     R0988     1
    C1206     R1085     1
    C1206     R1208     1
    C1206     R1209     1
    C1206     R1210     1
    C1206     R1305     1
    C1206     R1306     1
    C1206     R1446     -1
    C1206     R1447     -1
    C1206     R1489     1
    C1206     R1490     1
    C1206     R1491     1
    C1206     R1492     1
    C1206     R1580     -1
    C1206     R1711     -2
    C1206     R1712     -2
    C1206     R1713     -2
    C1206     R1714     -2
    C1206     R1838     1
    C1206     R1839     1
    C1206     R1840     1
    C1206     R1878     -1
    C1206     R1879     -3
    C1206     R1880     -3
    C1206     R1881     -3
    C1206     R1882     -3
    C1206     R1970     1
    C1206     R1971     1
    C1206     R1972     1
    C1206     R2162     1
    C1206     R2163     1
    C1206     R2164     1
    C1206     R2254     1
    C1206     R2255     1
    C1206     R2256     1
    C1206     R2257     1
    C1206     R2299     -1
    C1206     R2300     -1
    C1206     R2301     -1
    C1206     R2302     -1
    C1206     R2390     -1
    C1206     R2391     -1
    C1206     R2392     -1
    C1206     R2434     1
    C1206     R2435     1
    C1206     R2436     1
    C1206     R2437     1
    C1206     R2522     1
    C1206     R2523     1
    C1206     R2524     1
    C1206     R2563     -3
    C1206     R2564     -3
    C1206     R2565     -3
    C1206     R2566     -2
    C1206     R2646     -1
    C1206     R2647     -2
    C1206     R2648     -2
    C1206     R2649     -2
    C1206     R2650     -2
    C1206     R2732     1
    C1206     R2738     1
    C1206     R2747     1
    C1206     R2759     1
    C1206     R2867     1
    C1206     R2868     1
    C1206     R2869     1
    C1207     R0829     1
    C1207     R0935     1
    C1207     R0989     1
    C1207     R1085     1
    C1207     R1209     1
    C1207     R1210     1
    C1207     R1211     1
    C1207     R1305     1
    C1207     R1306     1
    C1207     R1307     1
    C1207     R1446     -1
    C1207     R1447     -1
    C1207     R1448     -1
    C1207     R1490     1
    C1207     R1491     1
    C1207     R1492     1
    C1207     R1493     1
    C1207     R1580     -1
    C1207     R1711     -1
    C1207     R1712     -2
    C1207     R1713     -2
    C1207     R1714     -2
    C1207     R1715     -2
    C1207     R1753     1
    C1207     R1754     1
    C1207     R1755     1
    C1207     R1756     1
    C1207     R1757     1
    C1207     R1837     1
    C1207     R1838     1
    C1207     R1839     1
    C1207     R1840     1
    C1207     R1841     1
    C1207     R1879     -2
    C1207     R1880     -2
    C1207     R1881     -2
    C1207     R1882     -2
    C1207     R1883     -2
    C1207     R2019     1
    C1207     R2020     1
    C1207     R2021     1
    C1207     R2115     1
    C1207     R2116     1
    C1207     R2117     1
    C1207     R2255     -1
    C1207     R2256     -1
    C1207     R2257     -1
    C1207     R2258     -1
    C1207     R2300     1
    C1207     R2301     1
    C1207     R2302     1
    C1207     R2303     1
    C1207     R2390     1
    C1207     R2391     1
    C1207     R2392     1
    C1207     R2393     1
    C1207     R2435     -1
    C1207     R2436     -1
    C1207     R2437     -1
    C1207     R2438     -1
    C1207     R2521     -1
    C1207     R2522     -2
    C1207     R2523     -2
    C1207     R2524     -2
    C1207     R2525     -2
    C1207     R2563     1
    C1207     R2564     1
    C1207     R2565     1
    C1207     R2566     1
    C1207     R2567     1
    C1207     R2647     1
    C1207     R2648     1
    C1207     R2649     1
    C1207     R2650     1
    C1207     R2651     1
    C1207     R2689     -2
    C1207     R2690     -2
    C1207     R2691     -2
    C1207     R2692     -2
    C1207     R2693     -2
    C1207     R2785     -1
    C1207     R2867     1
    C1207     R2868     1
    C1207     R2869     1
    C1208     OBJ       99
    C1208     R0829     1
    C1208     R0936     1
    C1208     R0990     1
    C1208     R1085     1
    C1208     R1210     1
    C1208     R1211     1
    C1208     R1212     1
    C1208     R1306     1
    C1208     R1307     1
    C1208     R1308     1
    C1208     R1446     -1
    C1208     R1447     -1
    C1208     R1448     -1
    C1208     R1449     -1
    C1208     R1491     1
    C1208     R1492     1
    C1208     R1493     1
    C1208     R1494     1
    C1208     R1712     -2
    C1208     R1713     -2
    C1208     R1714     -2
    C1208     R1715     -2
    C1208     R1716     -2
    C1208     R1754     1
    C1208     R1755     1
    C1208     R1756     1
    C1208     R1757     1
    C1208     R1758     1
    C1208     R1838     1
    C1208     R1839     1
    C1208     R1840     1
    C1208     R1841     1
    C1208     R1842     1
    C1208     R1880     -2
    C1208     R1881     -2
    C1208     R1882     -2
    C1208     R1883     -2
    C1208     R1884     -2
    C1208     R1972     1
    C1208     R1973     1
    C1208     R1974     1
    C1208     R2164     1
    C1208     R2165     1
    C1208     R2166     1
    C1208     R2256     1
    C1208     R2257     1
    C1208     R2258     1
    C1208     R2259     1
    C1208     R2301     -1
    C1208     R2302     -1
    C1208     R2303     -1
    C1208     R2304     -1
    C1208     R2391     -1
    C1208     R2392     -1
    C1208     R2393     -1
    C1208     R2394     -1
    C1208     R2436     1
    C1208     R2437     1
    C1208     R2438     1
    C1208     R2439     1
    C1208     R2522     1
    C1208     R2523     1
    C1208     R2524     1
    C1208     R2525     1
    C1208     R2526     1
    C1208     R2564     -2
    C1208     R2565     -2
    C1208     R2566     -2
    C1208     R2567     -2
    C1208     R2568     -2
    C1208     R2648     -2
    C1208     R2649     -2
    C1208     R2650     -2
    C1208     R2651     -2
    C1208     R2652     -2
    C1208     R2690     1
    C1208     R2691     1
    C1208     R2692     1
    C1208     R2693     1
    C1208     R2694     1
    C1208     R2868     1
    C1208     R2869     1
    C1209     R0829     1
    C1209     R0937     1
    C1209     R0991     1
    C1209     R1085     1
    C1209     R1211     1
    C1209     R1212     1
    C1209     R1213     1
    C1209     R1307     1
    C1209     R1308     1
    C1209     R1309     1
    C1209     R1447     -1
    C1209     R1448     -1
    C1209     R1449     -1
    C1209     R1450     -1
    C1209     R1492     1
    C1209     R1493     1
    C1209     R1494     1
    C1209     R1495     1
    C1209     R1713     -2
    C1209     R1714     -2
    C1209     R1715     -2
    C1209     R1716     -2
    C1209     R1717     -2
    C1209     R1755     1
    C1209     R1756     1
    C1209     R1757     1
    C1209     R1758     1
    C1209     R1759     1
    C1209     R1839     1
    C1209     R1840     1
    C1209     R1841     1
    C1209     R1842     1
    C1209     R1843     1
    C1209     R1881     -2
    C1209     R1882     -2
    C1209     R1883     -2
    C1209     R1884     -2
    C1209     R1885     -2
    C1209     R2021     1
    C1209     R2022     1
    C1209     R2023     1
    C1209     R2117     1
    C1209     R2118     1
    C1209     R2119     1
    C1209     R2257     -1
    C1209     R2258     -1
    C1209     R2259     -1
    C1209     R2260     -1
    C1209     R2302     1
    C1209     R2303     1
    C1209     R2304     1
    C1209     R2305     1
    C1209     R2392     1
    C1209     R2393     1
    C1209     R2394     1
    C1209     R2395     1
    C1209     R2437     -1
    C1209     R2438     -1
    C1209     R2439     -1
    C1209     R2440     -1
    C1209     R2523     -2
    C1209     R2524     -2
    C1209     R2525     -2
    C1209     R2526     -2
    C1209     R2527     -2
    C1209     R2565     1
    C1209     R2566     1
    C1209     R2567     1
    C1209     R2568     1
    C1209     R2569     1
    C1209     R2649     1
    C1209     R2650     1
    C1209     R2651     1
    C1209     R2652     1
    C1209     R2653     1
    C1209     R2691     -2
    C1209     R2692     -2
    C1209     R2693     -2
    C1209     R2694     -2
    C1209     R2695     -2
    C1209     R2785     -1
    C1209     R2869     1
    C1210     OBJ       99
    C1210     R0829     1
    C1210     R0938     1
    C1210     R0992     1
    C1210     R1085     1
    C1210     R1212     1
    C1210     R1213     1
    C1210     R1214     1
    C1210     R1308     1
    C1210     R1309     1
    C1210     R1310     1
    C1210     R1448     -1
    C1210     R1449     -1
    C1210     R1450     -1
    C1210     R1493     1
    C1210     R1494     1
    C1210     R1495     1
    C1210     R1496     1
    C1210     R1586     -1
    C1210     R1714     -2
    C1210     R1715     -2
    C1210     R1716     -2
    C1210     R1717     -2
    C1210     R1718     -2
    C1210     R1756     1
    C1210     R1757     1
    C1210     R1758     1
    C1210     R1759     1
    C1210     R1760     1
    C1210     R1840     1
    C1210     R1841     1
    C1210     R1842     1
    C1210     R1843     1
    C1210     R1844     1
    C1210     R1882     -2
    C1210     R1883     -2
    C1210     R1884     -2
    C1210     R1885     -2
    C1210     R1886     -2
    C1210     R1974     1
    C1210     R1975     1
    C1210     R1976     1
    C1210     R2166     1
    C1210     R2167     1
    C1210     R2168     1
    C1210     R2258     1
    C1210     R2259     1
    C1210     R2260     1
    C1210     R2261     1
    C1210     R2303     -1
    C1210     R2304     -1
    C1210     R2305     -1
    C1210     R2306     -1
    C1210     R2393     -1
    C1210     R2394     -1
    C1210     R2395     -1
    C1210     R2396     -1
    C1210     R2438     1
    C1210     R2439     1
    C1210     R2440     1
    C1210     R2441     1
    C1210     R2524     1
    C1210     R2525     1
    C1210     R2526     1
    C1210     R2527     1
    C1210     R2528     1
    C1210     R2566     -2
    C1210     R2567     -2
    C1210     R2568     -2
    C1210     R2569     -2
    C1210     R2570     -2
    C1210     R2650     -2
    C1210     R2651     -2
    C1210     R2652     -2
    C1210     R2653     -2
    C1210     R2654     -2
    C1210     R2692     1
    C1210     R2693     1
    C1210     R2694     1
    C1210     R2695     1
    C1210     R2696     1
    C1211     R2869     1
    C1211     R0829     1
    C1211     R0939     1
    C1211     R0993     1
    C1211     R1085     1
    C1211     R1213     1
    C1211     R1214     1
    C1211     R1215     1
    C1211     R1309     1
    C1211     R1310     1
    C1211     R1311     1
    C1211     R1449     -1
    C1211     R1450     -1
    C1211     R1452     -1
    C1211     R1494     1
    C1211     R1495     1
    C1211     R1496     1
    C1211     R1497     1
    C1211     R1586     -1
    C1211     R1715     -2
    C1211     R1716     -2
    C1211     R1717     -2
    C1211     R1718     -2
    C1211     R1719     -2
    C1211     R1757     1
    C1211     R1758     1
    C1211     R1759     1
    C1211     R1760     1
    C1211     R1761     1
    C1211     R1841     1
    C1211     R1842     1
    C1211     R1843     1
    C1211     R1844     1
    C1211     R1845     1
    C1211     R1883     -2
    C1211     R1884     -2
    C1211     R1885     -2
    C1211     R1886     -2
    C1211     R1887     -2
    C1211     R2023     1
    C1211     R2024     1
    C1211     R2025     1
    C1211     R2119     1
    C1211     R2120     1
    C1211     R2121     1
    C1211     R2259     -1
    C1211     R2260     -1
    C1211     R2261     -1
    C1211     R2262     -1
    C1211     R2304     1
    C1211     R2305     1
    C1211     R2306     1
    C1211     R2307     1
    C1211     R2394     1
    C1211     R2395     1
    C1211     R2396     1
    C1211     R2397     1
    C1211     R2439     -1
    C1211     R2440     -1
    C1211     R2441     -1
    C1211     R2442     -1
    C1211     R2525     -2
    C1211     R2526     -2
    C1211     R2527     -2
    C1211     R2528     -2
    C1211     R2529     -2
    C1211     R2567     1
    C1211     R2568     1
    C1211     R2569     1
    C1211     R2570     1
    C1211     R2571     1
    C1211     R2651     1
    C1211     R2652     1
    C1211     R2653     1
    C1211     R2654     1
    C1211     R2655     1
    C1211     R2693     -2
    C1211     R2694     -2
    C1211     R2695     -2
    C1211     R2696     -2
    C1211     R2697     -2
    C1211     R2785     -1
    C1212     OBJ       99
    C1212     R0829     1
    C1212     R0940     1
    C1212     R0994     1
    C1212     R1085     1
    C1212     R1214     1
    C1212     R1215     1
    C1212     R1216     1
    C1212     R1310     1
    C1212     R1311     1
    C1212     R1312     1
    C1212     R1450     -1
    C1212     R1452     -1
    C1212     R1495     1
    C1212     R1496     1
    C1212     R1497     1
    C1212     R1498     1
    C1212     R1586     -1
    C1212     R1588     -1
    C1212     R1716     -2
    C1212     R1717     -2
    C1212     R1718     -2
    C1212     R1719     -2
    C1212     R1758     1
    C1212     R1759     1
    C1212     R1760     1
    C1212     R1761     1
    C1212     R1842     1
    C1212     R1843     1
    C1212     R1844     1
    C1212     R1845     1
    C1212     R1884     -2
    C1212     R1885     -2
    C1212     R1886     -2
    C1212     R1887     -2
    C1212     R1976     1
    C1212     R1977     1
    C1212     R1978     1
    C1212     R2168     1
    C1212     R2169     1
    C1212     R2170     1
    C1212     R2260     1
    C1212     R2261     1
    C1212     R2262     1
    C1212     R2263     1
    C1212     R2305     -1
    C1212     R2306     -1
    C1212     R2307     -1
    C1212     R2308     -1
    C1212     R2395     -1
    C1212     R2396     -1
    C1212     R2397     -1
    C1212     R2398     -1
    C1212     R2440     1
    C1212     R2441     1
    C1212     R2442     1
    C1212     R2443     1
    C1212     R2526     1
    C1212     R2527     1
    C1212     R2528     1
    C1212     R2529     1
    C1212     R2568     -2
    C1212     R2569     -2
    C1212     R2570     -2
    C1212     R2571     -2
    C1212     R2652     -2
    C1212     R2653     -2
    C1212     R2654     -2
    C1212     R2655     -2
    C1212     R2694     1
    C1212     R2695     1
    C1212     R2696     1
    C1212     R2697     1
    C1213     R2869     1
    C1213     R0829     1
    C1213     R0941     1
    C1213     R0995     1
    C1213     R1085     1
    C1213     R1215     1
    C1213     R1216     1
    C1213     R1217     1
    C1213     R1311     1
    C1213     R1312     1
    C1213     R1313     1
    C1213     R1452     -1
    C1213     R1496     1
    C1213     R1497     1
    C1213     R1498     1
    C1213     R1586     -1
    C1213     R1588     -1
    C1213     R1717     -2
    C1213     R1718     -2
    C1213     R1719     -2
    C1213     R1759     1
    C1213     R1760     1
    C1213     R1761     1
    C1213     R1843     1
    C1213     R1844     1
    C1213     R1845     1
    C1213     R1885     -2
    C1213     R1886     -2
    C1213     R1887     -2
    C1213     R2025     1
    C1213     R2026     1
    C1213     R2027     1
    C1213     R2121     1
    C1213     R2122     1
    C1213     R2123     1
    C1213     R2261     -1
    C1213     R2262     -1
    C1213     R2263     -1
    C1213     R2306     1
    C1213     R2307     1
    C1213     R2308     1
    C1213     R2396     1
    C1213     R2397     1
    C1213     R2398     1
    C1213     R2441     -1
    C1213     R2442     -1
    C1213     R2443     -1
    C1213     R2527     -2
    C1213     R2528     -2
    C1213     R2529     -2
    C1213     R2569     1
    C1213     R2570     1
    C1213     R2571     1
    C1213     R2653     1
    C1213     R2654     1
    C1213     R2655     1
    C1213     R2695     -2
    C1213     R2696     -2
    C1213     R2697     -2
    C1213     R2785     -1
    C1214     OBJ       99
    C1214     R0829     1
    C1214     R0942     1
    C1214     R0996     1
    C1214     R1085     1
    C1214     R1216     1
    C1214     R1217     1
    C1214     R1312     1
    C1214     R1313     1
    C1214     R1452     -1
    C1214     R1497     1
    C1214     R1498     1
    C1214     R1588     -1
    C1214     R1718     -2
    C1214     R1719     -2
    C1214     R1760     1
    C1214     R1761     1
    C1214     R1844     1
    C1214     R1845     1
    C1214     R1886     -2
    C1214     R1887     -2
    C1214     R1978     1
    C1214     R1979     1
    C1214     R2170     1
    C1214     R2171     1
    C1214     R2262     1
    C1214     R2263     1
    C1214     R2307     -1
    C1214     R2308     -1
    C1214     R2397     -1
    C1214     R2398     -1
    C1214     R2442     1
    C1214     R2443     1
    C1214     R2528     1
    C1214     R2529     1
    C1214     R2570     -2
    C1214     R2571     -2
    C1214     R2654     -2
    C1214     R2655     -2
    C1214     R2696     1
    C1214     R2697     1
    C1215     R2869     1
    C1215     R0829     1
    C1215     R0943     1
    C1215     R0997     1
    C1215     R1085     1
    C1215     R1217     1
    C1215     R1313     1
    C1215     R1498     1
    C1215     R1588     -1
    C1215     R1719     -2
    C1215     R1761     1
    C1215     R1845     1
    C1215     R1887     -2
    C1215     R2027     1
    C1215     R2123     1
    C1215     R2263     -1
    C1215     R2308     1
    C1215     R2398     1
    C1215     R2443     -1
    C1215     R2529     -2
    C1215     R2571     1
    C1215     R2655     1
    C1215     R2697     -2
    C1215     R2785     -1
    C1239     OBJ       1000
    C1239     R0842     1
    C1239     R0967     1
    C1239     R0985     1
    C1239     R1087     1
    C1239     R1207     1
    C1239     R1335     1
    C1239     R1473     -1
    C1239     R1488     1
    C1239     R1489     1
    C1239     R1607     -1
    C1239     R1737     -3
    C1239     R1738     -1
    C1239     R1739     -2
    C1239     R1877     -2
    C1239     R1878     -1
    C1239     R1879     -3
    C1239     R2017     1
    C1239     R2283     -1
    C1239     R2297     1
    C1239     R2298     1
    C1239     R2299     1
    C1239     R2419     1
    C1239     R2434     -1
    C1239     R2548     -1
    C1239     R2549     -2
    C1239     R2688     -1
    C1239     R2689     -3
    C1239     R2732     1
    C1239     R2740     1
    C1239     R2750     1
    C1239     R2758     1
    C1241     R0842     1
    C1241     R0969     1
    C1241     R0987     1
    C1241     R1087     1
    C1241     R1207     1
    C1241     R1208     1
    C1241     R1209     1
    C1241     R1335     1
    C1241     R1336     1
    C1241     R1337     1
    C1241     R1473     -1
    C1241     R1476     -1
    C1241     R1488     1
    C1241     R1489     1
    C1241     R1490     1
    C1241     R1491     1
    C1241     R1610     -1
    C1241     R1737     -3
    C1241     R1738     -1
    C1241     R1739     -2
    C1241     R1740     -2
    C1241     R1741     -2
    C1241     R1866     1
    C1241     R1867     1
    C1241     R1877     -2
    C1241     R1878     -1
    C1241     R1879     -3
    C1241     R1880     -3
    C1241     R1881     -3
    C1241     R2017     1
    C1241     R2018     1
    C1241     R2019     1
    C1241     R2146     1
    C1241     R2147     1
    C1241     R2283     -1
    C1241     R2285     -1
    C1241     R2286     -1
    C1241     R2298     1
    C1241     R2299     1
    C1241     R2300     1
    C1241     R2301     1
    C1241     R2419     1
    C1241     R2420     1
    C1241     R2421     1
    C1241     R2434     -1
    C1241     R2435     -1
    C1241     R2436     -1
    C1241     R2548     -1
    C1241     R2549     -2
    C1241     R2550     -2
    C1241     R2551     -2
    C1241     R2676     1
    C1241     R2677     1
    C1241     R2688     -1
    C1241     R2689     -3
    C1241     R2690     -3
    C1241     R2691     -3
    C1241     R2732     1
    C1241     R2740     1
    C1241     R2750     1
    C1241     R2758     1
    C1241     R2889     1
    C1243     R0843     1
    C1243     R0971     1
    C1243     R0989     1
    C1243     R1087     1
    C1243     R1209     1
    C1243     R1210     1
    C1243     R1211     1
    C1243     R1337     1
    C1243     R1338     1
    C1243     R1339     1
    C1243     R1476     -1
    C1243     R1477     -1
    C1243     R1478     -1
    C1243     R1490     1
    C1243     R1491     1
    C1243     R1492     1
    C1243     R1493     1
    C1243     R1610     -1
    C1243     R1739     -1
    C1243     R1740     -2
    C1243     R1741     -2
    C1243     R1742     -2
    C1243     R1743     -2
    C1243     R1753     1
    C1243     R1754     1
    C1243     R1755     1
    C1243     R1756     1
    C1243     R1757     1
    C1243     R1865     1
    C1243     R1866     1
    C1243     R1867     1
    C1243     R1868     1
    C1243     R1869     1
    C1243     R1879     -2
    C1243     R1880     -2
    C1243     R1881     -2
    C1243     R1882     -2
    C1243     R1883     -2
    C1243     R2019     1
    C1243     R2020     1
    C1243     R2021     1
    C1243     R2147     1
    C1243     R2148     1
    C1243     R2149     1
    C1243     R2285     -1
    C1243     R2286     -1
    C1243     R2287     -1
    C1243     R2288     -1
    C1243     R2300     1
    C1243     R2301     1
    C1243     R2302     1
    C1243     R2303     1
    C1243     R2420     1
    C1243     R2421     1
    C1243     R2422     1
    C1243     R2423     1
    C1243     R2435     -1
    C1243     R2436     -1
    C1243     R2437     -1
    C1243     R2438     -1
    C1243     R2549     -1
    C1243     R2550     -2
    C1243     R2551     -2
    C1243     R2552     -2
    C1243     R2553     -2
    C1243     R2563     1
    C1243     R2564     1
    C1243     R2565     1
    C1243     R2566     1
    C1243     R2567     1
    C1243     R2675     1
    C1243     R2676     1
    C1243     R2677     1
    C1243     R2678     1
    C1243     R2679     1
    C1243     R2689     -2
    C1243     R2690     -2
    C1243     R2691     -2
    C1243     R2692     -2
    C1243     R2693     -2
    C1243     R2889     1
    C1245     R0843     1
    C1245     R0973     1
    C1245     R0991     1
    C1245     R1087     1
    C1245     R1211     1
    C1245     R1212     1
    C1245     R1213     1
    C1245     R1339     1
    C1245     R1340     1
    C1245     R1341     1
    C1245     R1477     -1
    C1245     R1478     -1
    C1245     R1479     -1
    C1245     R1480     -1
    C1245     R1492     1
    C1245     R1493     1
    C1245     R1494     1
    C1245     R1495     1
    C1245     R1741     -2
    C1245     R1742     -2
    C1245     R1743     -2
    C1245     R1744     -2
    C1245     R1745     -2
    C1245     R1755     1
    C1245     R1756     1
    C1245     R1757     1
    C1245     R1758     1
    C1245     R1759     1
    C1245     R1867     1
    C1245     R1868     1
    C1245     R1869     1
    C1245     R1870     1
    C1245     R1871     1
    C1245     R1881     -2
    C1245     R1882     -2
    C1245     R1883     -2
    C1245     R1884     -2
    C1245     R1885     -2
    C1245     R2021     1
    C1245     R2022     1
    C1245     R2023     1
    C1245     R2149     1
    C1245     R2150     1
    C1245     R2151     1
    C1245     R2287     -1
    C1245     R2288     -1
    C1245     R2289     -1
    C1245     R2290     -1
    C1245     R2302     1
    C1245     R2303     1
    C1245     R2304     1
    C1245     R2305     1
    C1245     R2422     1
    C1245     R2423     1
    C1245     R2424     1
    C1245     R2425     1
    C1245     R2437     -1
    C1245     R2438     -1
    C1245     R2439     -1
    C1245     R2440     -1
    C1245     R2551     -2
    C1245     R2552     -2
    C1245     R2553     -2
    C1245     R2554     -2
    C1245     R2555     -2
    C1245     R2565     1
    C1245     R2566     1
    C1245     R2567     1
    C1245     R2568     1
    C1245     R2569     1
    C1245     R2677     1
    C1245     R2678     1
    C1245     R2679     1
    C1245     R2680     1
    C1245     R2681     1
    C1245     R2691     -2
    C1245     R2692     -2
    C1245     R2693     -2
    C1245     R2694     -2
    C1245     R2695     -2
    C1247     R0843     1
    C1247     R0975     1
    C1247     R0993     1
    C1247     R1087     1
    C1247     R1213     1
    C1247     R1214     1
    C1247     R1215     1
    C1247     R1341     1
    C1247     R1342     1
    C1247     R1343     1
    C1247     R1479     -1
    C1247     R1480     -1
    C1247     R1494     1
    C1247     R1495     1
    C1247     R1496     1
    C1247     R1497     1
    C1247     R1616     -1
    C1247     R1617     -1
    C1247     R1743     -2
    C1247     R1744     -2
    C1247     R1745     -2
    C1247     R1746     -2
    C1247     R1747     -2
    C1247     R1757     1
    C1247     R1758     1
    C1247     R1759     1
    C1247     R1760     1
    C1247     R1761     1
    C1247     R1869     1
    C1247     R1870     1
    C1247     R1871     1
    C1247     R1872     1
    C1247     R1873     1
    C1247     R1883     -2
    C1247     R1884     -2
    C1247     R1885     -2
    C1247     R1886     -2
    C1247     R1887     -2
    C1247     R2023     1
    C1247     R2024     1
    C1247     R2025     1
    C1247     R2151     1
    C1247     R2152     1
    C1247     R2153     1
    C1247     R2289     -1
    C1247     R2290     -1
    C1247     R2291     -1
    C1247     R2292     -1
    C1247     R2304     1
    C1247     R2305     1
    C1247     R2306     1
    C1247     R2307     1
    C1247     R2424     1
    C1247     R2425     1
    C1247     R2426     1
    C1247     R2427     1
    C1247     R2439     -1
    C1247     R2440     -1
    C1247     R2441     -1
    C1247     R2442     -1
    C1247     R2553     -2
    C1247     R2554     -2
    C1247     R2555     -2
    C1247     R2556     -2
    C1247     R2557     -2
    C1247     R2567     1
    C1247     R2568     1
    C1247     R2569     1
    C1247     R2570     1
    C1247     R2571     1
    C1247     R2679     1
    C1247     R2680     1
    C1247     R2681     1
    C1247     R2682     1
    C1247     R2683     1
    C1247     R2693     -2
    C1247     R2694     -2
    C1247     R2695     -2
    C1247     R2696     -2
    C1247     R2697     -2
    C1249     R0843     1
    C1249     R0977     1
    C1249     R0995     1
    C1249     R1087     1
    C1249     R1215     1
    C1249     R1216     1
    C1249     R1217     1
    C1249     R1343     1
    C1249     R1344     1
    C1249     R1345     1
    C1249     R1483     -1
    C1249     R1496     1
    C1249     R1497     1
    C1249     R1498     1
    C1249     R1616     -1
    C1249     R1617     -1
    C1249     R1745     -2
    C1249     R1746     -2
    C1249     R1747     -2
    C1249     R1759     1
    C1249     R1760     1
    C1249     R1761     1
    C1249     R1871     1
    C1249     R1872     1
    C1249     R1873     1
    C1249     R1885     -2
    C1249     R1886     -2
    C1249     R1887     -2
    C1249     R2025     1
    C1249     R2026     1
    C1249     R2027     1
    C1249     R2153     1
    C1249     R2154     1
    C1249     R2155     1
    C1249     R2291     -1
    C1249     R2292     -1
    C1249     R2293     -1
    C1249     R2306     1
    C1249     R2307     1
    C1249     R2308     1
    C1249     R2426     1
    C1249     R2427     1
    C1249     R2428     1
    C1249     R2441     -1
    C1249     R2442     -1
    C1249     R2443     -1
    C1249     R2555     -2
    C1249     R2556     -2
    C1249     R2557     -2
    C1249     R2569     1
    C1249     R2570     1
    C1249     R2571     1
    C1249     R2681     1
    C1249     R2682     1
    C1249     R2683     1
    C1249     R2695     -2
    C1249     R2696     -2
    C1249     R2697     -2
    C1251     R0843     1
    C1251     R0979     1
    C1251     R0997     1
    C1251     R1087     1
    C1251     R1217     1
    C1251     R1345     1
    C1251     R1483     -1
    C1251     R1498     1
    C1251     R1747     -2
    C1251     R1761     1
    C1251     R1873     1
    C1251     R1887     -2
    C1251     R2027     1
    C1251     R2155     1
    C1251     R2293     -1
    C1251     R2308     1
    C1251     R2428     1
    C1251     R2443     -1
    C1251     R2557     -2
    C1251     R2571     1
    C1251     R2683     1
    C1251     R2697     -2
    C1280     R0990     1
    C1280     R1026     1
    C1280     R1089     1
    C1280     R1210     1
    C1280     R1211     1
    C1280     R1212     1
    C1280     R1386     1
    C1280     R1387     1
    C1280     R1388     1
    C1280     R1491     1
    C1280     R1492     1
    C1280     R1493     1
    C1280     R1494     1
    C1280     R1522     -1
    C1280     R1656     -1
    C1280     R1658     -1
    C1280     R1659     -1
    C1280     R1754     1
    C1280     R1755     1
    C1280     R1756     1
    C1280     R1757     1
    C1280     R1758     1
    C1280     R1782     -1
    C1280     R1783     -2
    C1280     R1784     -2
    C1280     R1785     -2
    C1280     R1786     -2
    C1280     R1880     -2
    C1280     R1881     -2
    C1280     R1882     -2
    C1280     R1883     -2
    C1280     R1884     -2
    C1280     R1908     1
    C1280     R1909     1
    C1280     R1910     1
    C1280     R1911     1
    C1280     R1912     1
    C1280     R2052     1
    C1280     R2053     1
    C1280     R2054     1
    C1280     R2164     1
    C1280     R2165     1
    C1280     R2166     1
    C1280     R2301     -1
    C1280     R2302     -1
    C1280     R2303     -1
    C1280     R2304     -1
    C1280     R2331     1
    C1280     R2332     1
    C1280     R2333     1
    C1280     R2334     1
    C1280     R2436     1
    C1280     R2437     1
    C1280     R2438     1
    C1280     R2439     1
    C1280     R2466     -1
    C1280     R2467     -1
    C1280     R2468     -1
    C1280     R2469     -1
    C1280     R2564     -2
    C1280     R2565     -2
    C1280     R2566     -2
    C1280     R2567     -2
    C1280     R2568     -2
    C1280     R2592     1
    C1280     R2593     1
    C1280     R2594     1
    C1280     R2595     1
    C1280     R2596     1
    C1280     R2690     1
    C1280     R2691     1
    C1280     R2692     1
    C1280     R2693     1
    C1280     R2694     1
    C1280     R2718     -1
    C1280     R2719     -2
    C1280     R2720     -2
    C1280     R2721     -2
    C1280     R2722     -2
    C1282     R0992     1
    C1282     R1028     1
    C1282     R1089     1
    C1282     R1212     1
    C1282     R1213     1
    C1282     R1214     1
    C1282     R1388     1
    C1282     R1389     1
    C1282     R1390     1
    C1282     R1493     1
    C1282     R1494     1
    C1282     R1495     1
    C1282     R1496     1
    C1282     R1658     -1
    C1282     R1659     -1
    C1282     R1660     -1
    C1282     R1661     -1
    C1282     R1756     1
    C1282     R1757     1
    C1282     R1758     1
    C1282     R1759     1
    C1282     R1760     1
    C1282     R1784     -2
    C1282     R1785     -2
    C1282     R1786     -2
    C1282     R1787     -2
    C1282     R1788     -2
    C1282     R1882     -2
    C1282     R1883     -2
    C1282     R1884     -2
    C1282     R1885     -2
    C1282     R1886     -2
    C1282     R1910     1
    C1282     R1911     1
    C1282     R1912     1
    C1282     R1913     1
    C1282     R1914     1
    C1282     R2054     1
    C1282     R2055     1
    C1282     R2056     1
    C1282     R2166     1
    C1282     R2167     1
    C1282     R2168     1
    C1282     R2303     -1
    C1282     R2304     -1
    C1282     R2305     -1
    C1282     R2306     -1
    C1282     R2333     1
    C1282     R2334     1
    C1282     R2335     1
    C1282     R2336     1
    C1282     R2438     1
    C1282     R2439     1
    C1282     R2440     1
    C1282     R2441     1
    C1282     R2468     -1
    C1282     R2469     -1
    C1282     R2470     -1
    C1282     R2471     -1
    C1282     R2566     -2
    C1282     R2567     -2
    C1282     R2568     -2
    C1282     R2569     -2
    C1282     R2570     -2
    C1282     R2594     1
    C1282     R2595     1
    C1282     R2596     1
    C1282     R2597     1
    C1282     R2598     1
    C1282     R2692     1
    C1282     R2693     1
    C1282     R2694     1
    C1282     R2695     1
    C1282     R2696     1
    C1282     R2720     -2
    C1282     R2721     -2
    C1282     R2722     -2
    C1282     R2723     -2
    C1282     R2724     -2
    C1284     R0994     1
    C1284     R1030     1
    C1284     R1089     1
    C1284     R1214     1
    C1284     R1215     1
    C1284     R1216     1
    C1284     R1390     1
    C1284     R1391     1
    C1284     R1392     1
    C1284     R1495     1
    C1284     R1496     1
    C1284     R1497     1
    C1284     R1498     1
    C1284     R1528     -1
    C1284     R1660     -1
    C1284     R1661     -1
    C1284     R1662     -1
    C1284     R1758     1
    C1284     R1759     1
    C1284     R1760     1
    C1284     R1761     1
    C1284     R1786     -2
    C1284     R1787     -2
    C1284     R1788     -2
    C1284     R1789     -2
    C1284     R1884     -2
    C1284     R1885     -2
    C1284     R1886     -2
    C1284     R1887     -2
    C1284     R1912     1
    C1284     R1913     1
    C1284     R1914     1
    C1284     R1915     1
    C1284     R2056     1
    C1284     R2057     1
    C1284     R2058     1
    C1284     R2168     1
    C1284     R2169     1
    C1284     R2170     1
    C1284     R2305     -1
    C1284     R2306     -1
    C1284     R2307     -1
    C1284     R2308     -1
    C1284     R2335     1
    C1284     R2336     1
    C1284     R2337     1
    C1284     R2338     1
    C1284     R2440     1
    C1284     R2441     1
    C1284     R2442     1
    C1284     R2443     1
    C1284     R2470     -1
    C1284     R2471     -1
    C1284     R2472     -1
    C1284     R2473     -1
    C1284     R2568     -2
    C1284     R2569     -2
    C1284     R2570     -2
    C1284     R2571     -2
    C1284     R2596     1
    C1284     R2597     1
    C1284     R2598     1
    C1284     R2599     1
    C1284     R2694     1
    C1284     R2695     1
    C1284     R2696     1
    C1284     R2697     1
    C1284     R2722     -2
    C1284     R2723     -2
    C1284     R2724     -2
    C1284     R2725     -2
    C1286     R0996     1
    C1286     R1032     1
    C1286     R1089     1
    C1286     R1216     1
    C1286     R1217     1
    C1286     R1392     1
    C1286     R1393     1
    C1286     R1497     1
    C1286     R1498     1
    C1286     R1528     -1
    C1286     R1662     -1
    C1286     R1760     1
    C1286     R1761     1
    C1286     R1788     -2
    C1286     R1789     -2
    C1286     R1886     -2
    C1286     R1887     -2
    C1286     R1914     1
    C1286     R1915     1
    C1286     R2058     1
    C1286     R2059     1
    C1286     R2170     1
    C1286     R2171     1
    C1286     R2307     -1
    C1286     R2308     -1
    C1286     R2337     1
    C1286     R2338     1
    C1286     R2442     1
    C1286     R2443     1
    C1286     R2472     -1
    C1286     R2473     -1
    C1286     R2570     -2
    C1286     R2571     -2
    C1286     R2598     1
    C1286     R2599     1
    C1286     R2696     1
    C1286     R2697     1
    C1286     R2724     -2
    C1286     R2725     -2
    C1297     R0867     1
    C1297     R0989     1
    C1298     R0867     1
    C1298     R0990     1
    C1299     R0867     1
    C1299     R0991     1
    C1300     R0867     1
    C1300     R0992     1
    C1301     R0867     1
    C1301     R0993     1
    C1302     R0867     1
    C1302     R0994     1
    C1303     R0867     1
    C1303     R0995     1
    C1304     R0867     1
    C1304     R0996     1
    C1305     R0867     1
    C1305     R0997     1
    C1333     R0899     1
    C1333     R1007     1
    C1333     R1091     1
    C1333     R1225     1
    C1333     R1226     1
    C1333     R1227     1
    C1333     R1273     1
    C1333     R1274     1
    C1333     R1275     1
    C1333     R1415     -1
    C1333     R1416     -1
    C1333     R1418     -1
    C1333     R1507     1
    C1333     R1508     1
    C1333     R1552     -1
    C1333     R1640     1
    C1333     R1641     1
    C1333     R1683     -2
    C1333     R1684     -2
    C1333     R1685     -2
    C1333     R1686     -2
    C1333     R1687     -2
    C1333     R1767     1
    C1333     R1768     1
    C1333     R1769     1
    C1333     R1770     1
    C1333     R1771     1
    C1333     R1809     1
    C1333     R1810     1
    C1333     R1811     1
    C1333     R1812     1
    C1333     R1813     1
    C1333     R1894     -2
    C1333     R1895     -2
    C1333     R1896     -2
    C1333     R1897     -2
    C1333     R2035     1
    C1333     R2036     1
    C1333     R2037     1
    C1333     R2083     1
    C1333     R2084     1
    C1333     R2085     1
    C1333     R2225     -1
    C1333     R2226     -1
    C1333     R2227     -1
    C1333     R2228     -1
    C1333     R2315     1
    C1333     R2316     1
    C1333     R2317     1
    C1333     R2318     1
    C1333     R2360     1
    C1333     R2361     1
    C1333     R2362     1
    C1333     R2363     1
    C1333     R2450     -1
    C1333     R2451     -1
    C1333     R2452     -1
    C1333     R2453     -1
    C1333     R2493     -2
    C1333     R2494     -2
    C1333     R2495     -2
    C1333     R2496     -2
    C1333     R2497     -2
    C1333     R2577     1
    C1333     R2578     1
    C1333     R2579     1
    C1333     R2580     1
    C1333     R2581     1
    C1333     R2619     1
    C1333     R2620     1
    C1333     R2621     1
    C1333     R2622     1
    C1333     R2623     1
    C1333     R2704     -2
    C1333     R2705     -2
    C1333     R2706     -2
    C1333     R2707     -2
    C1335     R0901     1
    C1335     R1009     1
    C1335     R1091     1
    C1335     R1227     1
    C1335     R1228     1
    C1335     R1229     1
    C1335     R1275     1
    C1335     R1276     1
    C1335     R1277     1
    C1335     R1418     -1
    C1335     R1419     -1
    C1335     R1420     -1
    C1335     R1507     1
    C1335     R1508     1
    C1335     R1552     -1
    C1335     R1644     1
    C1335     R1645     1
    C1335     R1685     -2
    C1335     R1686     -2
    C1335     R1687     -2
    C1335     R1688     -2
    C1335     R1689     -2
    C1335     R1769     1
    C1335     R1770     1
    C1335     R1771     1
    C1335     R1772     1
    C1335     R1773     1
    C1335     R1811     1
    C1335     R1812     1
    C1335     R1813     1
    C1335     R1814     1
    C1335     R1815     1
    C1335     R1895     -2
    C1335     R1896     -2
    C1335     R1897     -2
    C1335     R1898     -2
    C1335     R1899     -2
    C1335     R2037     1
    C1335     R2038     1
    C1335     R2039     1
    C1335     R2085     1
    C1335     R2086     1
    C1335     R2087     1
    C1335     R2227     -1
    C1335     R2228     -1
    C1335     R2229     -1
    C1335     R2230     -1
    C1335     R2317     1
    C1335     R2318     1
    C1335     R2319     1
    C1335     R2320     1
    C1335     R2362     1
    C1335     R2363     1
    C1335     R2364     1
    C1335     R2365     1
    C1335     R2452     -1
    C1335     R2453     -1
    C1335     R2454     -1
    C1335     R2455     -1
    C1335     R2495     -2
    C1335     R2496     -2
    C1335     R2497     -2
    C1335     R2498     -2
    C1335     R2499     -2
    C1335     R2579     1
    C1335     R2580     1
    C1335     R2581     1
    C1335     R2582     1
    C1335     R2583     1
    C1335     R2621     1
    C1335     R2622     1
    C1335     R2623     1
    C1335     R2624     1
    C1335     R2625     1
    C1335     R2705     -2
    C1335     R2706     -2
    C1335     R2707     -2
    C1335     R2708     -2
    C1335     R2709     -2
    C1337     R0903     1
    C1337     R1011     1
    C1337     R1091     1
    C1337     R1229     1
    C1337     R1230     1
    C1337     R1231     1
    C1337     R1277     1
    C1337     R1278     1
    C1337     R1279     1
    C1337     R1419     -1
    C1337     R1420     -1
    C1337     R1421     -1
    C1337     R1422     -1
    C1337     R1512     1
    C1337     R1644     1
    C1337     R1645     1
    C1337     R1646     1
    C1337     R1687     -2
    C1337     R1688     -2
    C1337     R1689     -2
    C1337     R1690     -2
    C1337     R1691     -2
    C1337     R1771     1
    C1337     R1772     1
    C1337     R1773     1
    C1337     R1774     1
    C1337     R1775     1
    C1337     R1813     1
    C1337     R1814     1
    C1337     R1815     1
    C1337     R1816     1
    C1337     R1817     1
    C1337     R1897     -2
    C1337     R1898     -2
    C1337     R1899     -2
    C1337     R1900     -2
    C1337     R1901     -2
    C1337     R2039     1
    C1337     R2040     1
    C1337     R2041     1
    C1337     R2087     1
    C1337     R2088     1
    C1337     R2089     1
    C1337     R2229     -1
    C1337     R2230     -1
    C1337     R2231     -1
    C1337     R2232     -1
    C1337     R2319     1
    C1337     R2320     1
    C1337     R2321     1
    C1337     R2322     1
    C1337     R2364     1
    C1337     R2365     1
    C1337     R2366     1
    C1337     R2367     1
    C1337     R2454     -1
    C1337     R2455     -1
    C1337     R2456     -1
    C1337     R2457     -1
    C1337     R2497     -2
    C1337     R2498     -2
    C1337     R2499     -2
    C1337     R2500     -2
    C1337     R2501     -2
    C1337     R2581     1
    C1337     R2582     1
    C1337     R2583     1
    C1337     R2584     1
    C1337     R2585     1
    C1337     R2623     1
    C1337     R2624     1
    C1337     R2625     1
    C1337     R2626     1
    C1337     R2627     1
    C1337     R2707     -2
    C1337     R2708     -2
    C1337     R2709     -2
    C1337     R2710     -2
    C1337     R2711     -2
    C1339     R0905     1
    C1339     R1013     1
    C1339     R1091     1
    C1339     R1231     1
    C1339     R1232     1
    C1339     R1233     1
    C1339     R1279     1
    C1339     R1280     1
    C1339     R1281     1
    C1339     R1421     -1
    C1339     R1422     -1
    C1339     R1423     -1
    C1339     R1512     1
    C1339     R1646     1
    C1339     R1648     1
    C1339     R1689     -2
    C1339     R1690     -2
    C1339     R1691     -2
    C1339     R1773     1
    C1339     R1774     1
    C1339     R1775     1
    C1339     R1815     1
    C1339     R1816     1
    C1339     R1817     1
    C1339     R1899     -2
    C1339     R1900     -2
    C1339     R1901     -2
    C1339     R2041     1
    C1339     R2042     1
    C1339     R2043     1
    C1339     R2089     1
    C1339     R2090     1
    C1339     R2091     1
    C1339     R2231     -1
    C1339     R2232     -1
    C1339     R2233     -1
    C1339     R2321     1
    C1339     R2322     1
    C1339     R2323     1
    C1339     R2366     1
    C1339     R2367     1
    C1339     R2368     1
    C1339     R2456     -1
    C1339     R2457     -1
    C1339     R2458     -1
    C1339     R2499     -2
    C1339     R2500     -2
    C1339     R2501     -2
    C1339     R2583     1
    C1339     R2584     1
    C1339     R2585     1
    C1339     R2625     1
    C1339     R2626     1
    C1339     R2627     1
    C1339     R2709     -2
    C1339     R2710     -2
    C1339     R2711     -2
    C1341     R0907     1
    C1341     R1015     1
    C1341     R1091     1
    C1341     R1233     1
    C1341     R1281     1
    C1341     R1423     -1
    C1341     R1648     1
    C1341     R1691     -2
    C1341     R1775     1
    C1341     R1817     1
    C1341     R1901     -2
    C1341     R2043     1
    C1341     R2091     1
    C1341     R2233     -1
    C1341     R2323     1
    C1341     R2368     1
    C1341     R2458     -1
    C1341     R2501     -2
    C1341     R2585     1
    C1341     R2627     1
    C1341     R2711     -2
    C1347     R2919     -1
    C1347     R0951     -1
    C1347     R2855     -1
    C1347     R0820     1
    C1347     R0913     1
    C1347     R1003     1
    C1347     R1092     1
    C1347     R1287     1
    C1347     R1696     -1
    C1347     R1697     -3
    C1347     R2097     1
    C1347     R2505     -1
    C1347     R2507     -3
    C1347     R2701     -1
    C1347     R2737     1
    C1347     R2755     1
    C1349     R0820     1
    C1349     R0915     1
    C1349     R1005     1
    C1349     R1092     1
    C1349     R1223     1
    C1349     R1225     1
    C1349     R1287     1
    C1349     R1288     1
    C1349     R1289     1
    C1349     R1431     -1
    C1349     R1565     -1
    C1349     R1640     1
    C1349     R1641     1
    C1349     R1696     -1
    C1349     R1697     -3
    C1349     R1698     -3
    C1349     R1699     -3
    C1349     R1894     -3
    C1349     R1895     -3
    C1349     R2033     1
    C1349     R2034     1
    C1349     R2035     1
    C1349     R2097     1
    C1349     R2098     1
    C1349     R2099     1
    C1349     R2240     -1
    C1349     R2241     -1
    C1349     R2315     1
    C1349     R2316     1
    C1349     R2375     1
    C1349     R2376     1
    C1349     R2450     -1
    C1349     R2451     -1
    C1349     R2505     -1
    C1349     R2507     -3
    C1349     R2508     -3
    C1349     R2509     -3
    C1349     R2704     -3
    C1349     R2705     -3
    C1349     R2733     1
    C1349     R2737     1
    C1349     R2751     1
    C1349     R2755     1
    C1353     R0821     1
    C1353     R0919     1
    C1353     R1009     1
    C1353     R1092     1
    C1353     R1227     1
    C1353     R1228     1
    C1353     R1229     1
    C1353     R1291     1
    C1353     R1292     1
    C1353     R1293     1
    C1353     R1432     -1
    C1353     R1433     -1
    C1353     R1434     -1
    C1353     R1435     -1
    C1353     R1507     1
    C1353     R1508     1
    C1353     R1644     1
    C1353     R1645     1
    C1353     R1699     -2
    C1353     R1700     -2
    C1353     R1701     -2
    C1353     R1702     -2
    C1353     R1703     -2
    C1353     R1769     1
    C1353     R1770     1
    C1353     R1771     1
    C1353     R1772     1
    C1353     R1773     1
    C1353     R1825     1
    C1353     R1826     1
    C1353     R1827     1
    C1353     R1828     1
    C1353     R1829     1
    C1353     R1895     -2
    C1353     R1896     -2
    C1353     R1897     -2
    C1353     R1898     -2
    C1353     R1899     -2
    C1353     R2037     1
    C1353     R2038     1
    C1353     R2039     1
    C1353     R2101     1
    C1353     R2102     1
    C1353     R2103     1
    C1353     R2242     -1
    C1353     R2243     -1
    C1353     R2244     -1
    C1353     R2245     -1
    C1353     R2317     1
    C1353     R2318     1
    C1353     R2319     1
    C1353     R2320     1
    C1353     R2377     1
    C1353     R2378     1
    C1353     R2379     1
    C1353     R2380     1
    C1353     R2452     -1
    C1353     R2453     -1
    C1353     R2454     -1
    C1353     R2455     -1
    C1353     R2509     -2
    C1353     R2510     -2
    C1353     R2511     -2
    C1353     R2512     -2
    C1353     R2513     -2
    C1353     R2579     1
    C1353     R2580     1
    C1353     R2581     1
    C1353     R2582     1
    C1353     R2583     1
    C1353     R2635     1
    C1353     R2636     1
    C1353     R2637     1
    C1353     R2638     1
    C1353     R2639     1
    C1353     R2705     -2
    C1353     R2706     -2
    C1353     R2707     -2
    C1353     R2708     -2
    C1353     R2709     -2
    C1355     R0821     1
    C1355     R0921     1
    C1355     R1011     1
    C1355     R1092     1
    C1355     R1229     1
    C1355     R1230     1
    C1355     R1231     1
    C1355     R1293     1
    C1355     R1294     1
    C1355     R1295     1
    C1355     R1434     -1
    C1355     R1435     -1
    C1355     R1512     1
    C1355     R1571     -1
    C1355     R1572     -1
    C1355     R1644     1
    C1355     R1645     1
    C1355     R1646     1
    C1355     R1701     -2
    C1355     R1702     -2
    C1355     R1703     -2
    C1355     R1704     -2
    C1355     R1705     -2
    C1355     R1771     1
    C1355     R1772     1
    C1355     R1773     1
    C1355     R1774     1
    C1355     R1775     1
    C1355     R1827     1
    C1355     R1828     1
    C1355     R1829     1
    C1355     R1830     1
    C1355     R1831     1
    C1355     R1897     -2
    C1355     R1898     -2
    C1355     R1899     -2
    C1355     R1900     -2
    C1355     R1901     -2
    C1355     R2039     1
    C1355     R2040     1
    C1355     R2041     1
    C1355     R2103     1
    C1355     R2104     1
    C1355     R2105     1
    C1355     R2244     -1
    C1355     R2245     -1
    C1355     R2246     -1
    C1355     R2247     -1
    C1355     R2319     1
    C1355     R2320     1
    C1355     R2321     1
    C1355     R2322     1
    C1355     R2379     1
    C1355     R2380     1
    C1355     R2381     1
    C1355     R2382     1
    C1355     R2454     -1
    C1355     R2455     -1
    C1355     R2456     -1
    C1355     R2457     -1
    C1355     R2511     -2
    C1355     R2512     -2
    C1355     R2513     -2
    C1355     R2514     -2
    C1355     R2515     -2
    C1355     R2581     1
    C1355     R2582     1
    C1355     R2583     1
    C1355     R2584     1
    C1355     R2585     1
    C1355     R2637     1
    C1355     R2638     1
    C1355     R2639     1
    C1355     R2640     1
    C1355     R2641     1
    C1355     R2707     -2
    C1355     R2708     -2
    C1355     R2709     -2
    C1355     R2710     -2
    C1355     R2711     -2
    C1357     R0821     1
    C1357     R0923     1
    C1357     R1013     1
    C1357     R1092     1
    C1357     R1231     1
    C1357     R1232     1
    C1357     R1233     1
    C1357     R1295     1
    C1357     R1296     1
    C1357     R1297     1
    C1357     R1512     1
    C1357     R1571     -1
    C1357     R1572     -1
    C1357     R1573     -1
    C1357     R1646     1
    C1357     R1648     1
    C1357     R1703     -2
    C1357     R1704     -2
    C1357     R1705     -2
    C1357     R1773     1
    C1357     R1774     1
    C1357     R1775     1
    C1357     R1829     1
    C1357     R1830     1
    C1357     R1831     1
    C1357     R1899     -2
    C1357     R1900     -2
    C1357     R1901     -2
    C1357     R2041     1
    C1357     R2042     1
    C1357     R2043     1
    C1357     R2105     1
    C1357     R2106     1
    C1357     R2107     1
    C1357     R2246     -1
    C1357     R2247     -1
    C1357     R2248     -1
    C1357     R2321     1
    C1357     R2322     1
    C1357     R2323     1
    C1357     R2381     1
    C1357     R2382     1
    C1357     R2383     1
    C1357     R2456     -1
    C1357     R2457     -1
    C1357     R2458     -1
    C1357     R2513     -2
    C1357     R2514     -2
    C1357     R2515     -2
    C1357     R2583     1
    C1357     R2584     1
    C1357     R2585     1
    C1357     R2639     1
    C1357     R2640     1
    C1357     R2641     1
    C1357     R2709     -2
    C1357     R2710     -2
    C1357     R2711     -2
    C1359     R0821     1
    C1359     R0925     1
    C1359     R1015     1
    C1359     R1092     1
    C1359     R1233     1
    C1359     R1297     1
    C1359     R1573     -1
    C1359     R1648     1
    C1359     R1705     -2
    C1359     R1775     1
    C1359     R1831     1
    C1359     R1901     -2
    C1359     R2043     1
    C1359     R2107     1
    C1359     R2248     -1
    C1359     R2323     1
    C1359     R2383     1
    C1359     R2458     -1
    C1359     R2515     -2
    C1359     R2585     1
    C1359     R2641     1
    C1359     R2711     -2
    C1365     R2870     -1
    C1365     R0830     1
    C1365     R0931     1
    C1365     R1003     1
    C1365     R1093     1
    C1365     R1301     1
    C1365     R1302     1
    C1365     R1711     -2
    C1365     R1765     1
    C1365     R1835     1
    C1365     R2112     1
    C1365     R2388     1
    C1365     R2448     -1
    C1365     R2521     -2
    C1365     R2738     1
    C1365     R2756     1
    C1365     R2786     1
    C1366     OBJ       87
    C1366     R0830     1
    C1366     R0932     1
    C1366     R1004     1
    C1366     R1093     1
    C1366     R1223     1
    C1366     R1302     1
    C1366     R1580     -1
    C1366     R1640     1
    C1366     R1711     -2
    C1366     R1712     -2
    C1366     R1835     1
    C1366     R1838     1
    C1366     R1894     -3
    C1366     R1970     1
    C1366     R2254     1
    C1366     R2255     1
    C1366     R2314     -1
    C1366     R2315     -1
    C1366     R2388     -1
    C1366     R2390     -1
    C1366     R2448     1
    C1366     R2450     1
    C1366     R2522     1
    C1366     R2577     -3
    C1366     R2578     -3
    C1366     R2646     -1
    C1366     R2647     -2
    C1366     R2648     -2
    C1366     R2733     1
    C1366     R2738     1
    C1366     R2747     1
    C1366     R2760     1
    C1367     R2701     1
    C1367     R0830     1
    C1367     R0933     1
    C1367     R1005     1
    C1367     R1093     1
    C1367     R1223     1
    C1367     R1225     1
    C1367     R1305     1
    C1367     R1446     -1
    C1367     R1580     -1
    C1367     R1640     1
    C1367     R1641     1
    C1367     R1711     -2
    C1367     R1712     -2
    C1367     R1713     -2
    C1367     R1765     1
    C1367     R1835     1
    C1367     R1838     1
    C1367     R1839     1
    C1367     R1894     -3
    C1367     R1895     -3
    C1367     R2033     1
    C1367     R2034     1
    C1367     R2035     1
    C1367     R2115     1
    C1367     R2255     -1
    C1367     R2256     -1
    C1367     R2315     1
    C1367     R2316     1
    C1367     R2388     1
    C1367     R2390     1
    C1367     R2391     1
    C1367     R2450     -1
    C1367     R2451     -1
    C1367     R2521     -2
    C1367     R2522     -2
    C1367     R2523     -2
    C1367     R2648     1
    C1367     R2649     1
    C1367     R2704     -3
    C1367     R2705     -3
    C1367     R2733     1
    C1367     R2738     1
    C1367     R2751     1
    C1367     R2756     1
    C1367     R2786     1
    C1367     R2871     1
    C1368     OBJ       87
    C1368     R0830     1
    C1368     R0934     1
    C1368     R1006     1
    C1368     R1093     1
    C1368     R1225     1
    C1368     R1226     1
    C1368     R1305     1
    C1368     R1306     1
    C1368     R1446     -1
    C1368     R1447     -1
    C1368     R1507     1
    C1368     R1580     -1
    C1368     R1640     1
    C1368     R1641     1
    C1368     R1711     -2
    C1368     R1712     -2
    C1368     R1713     -2
    C1368     R1714     -2
    C1368     R1838     1
    C1368     R1839     1
    C1368     R1840     1
    C1368     R1894     -3
    C1368     R1895     -3
    C1368     R1896     -3
    C1368     R1970     1
    C1368     R1971     1
    C1368     R1972     1
    C1368     R2179     1
    C1368     R2180     1
    C1368     R2254     1
    C1368     R2255     1
    C1368     R2256     1
    C1368     R2257     1
    C1368     R2314     -1
    C1368     R2315     -1
    C1368     R2316     -1
    C1368     R2317     -1
    C1368     R2390     -1
    C1368     R2391     -1
    C1368     R2392     -1
    C1368     R2450     1
    C1368     R2451     1
    C1368     R2452     1
    C1368     R2522     1
    C1368     R2523     1
    C1368     R2524     1
    C1368     R2577     -3
    C1368     R2578     -3
    C1368     R2579     -3
    C1368     R2580     -2
    C1368     R2646     -1
    C1368     R2647     -2
    C1368     R2648     -2
    C1368     R2649     -2
    C1368     R2650     -2
    C1368     R2733     1
    C1368     R2738     1
    C1368     R2747     1
    C1368     R2760     1
    C1368     R2871     1
    C1368     R2872     1
    C1370     OBJ       87
    C1370     R0831     1
    C1370     R0936     1
    C1370     R1008     1
    C1370     R1093     1
    C1370     R1226     1
    C1370     R1227     1
    C1370     R1228     1
    C1370     R1306     1
    C1370     R1307     1
    C1370     R1308     1
    C1370     R1446     -1
    C1370     R1447     -1
    C1370     R1448     -1
    C1370     R1449     -1
    C1370     R1507     1
    C1370     R1508     1
    C1370     R1641     1
    C1370     R1644     1
    C1370     R1712     -2
    C1370     R1713     -2
    C1370     R1714     -2
    C1370     R1715     -2
    C1370     R1716     -2
    C1370     R1768     1
    C1370     R1769     1
    C1370     R1770     1
    C1370     R1771     1
    C1370     R1772     1
    C1370     R1838     1
    C1370     R1839     1
    C1370     R1840     1
    C1370     R1841     1
    C1370     R1842     1
    C1370     R1894     -2
    C1370     R1895     -2
    C1370     R1896     -2
    C1370     R1897     -2
    C1370     R1898     -2
    C1370     R1972     1
    C1370     R1973     1
    C1370     R1974     1
    C1370     R2180     1
    C1370     R2181     1
    C1370     R2182     1
    C1370     R2256     1
    C1370     R2257     1
    C1370     R2258     1
    C1370     R2259     1
    C1370     R2316     -1
    C1370     R2317     -1
    C1370     R2318     -1
    C1370     R2319     -1
    C1370     R2391     -1
    C1370     R2392     -1
    C1370     R2393     -1
    C1370     R2394     -1
    C1370     R2451     1
    C1370     R2452     1
    C1370     R2453     1
    C1370     R2454     1
    C1370     R2522     1
    C1370     R2523     1
    C1370     R2524     1
    C1370     R2525     1
    C1370     R2526     1
    C1370     R2578     -2
    C1370     R2579     -2
    C1370     R2580     -2
    C1370     R2581     -2
    C1370     R2582     -2
    C1370     R2648     -2
    C1370     R2649     -2
    C1370     R2650     -2
    C1370     R2651     -2
    C1370     R2652     -2
    C1370     R2704     1
    C1370     R2705     1
    C1370     R2706     1
    C1370     R2707     1
    C1370     R2708     1
    C1370     R2871     1
    C1370     R2872     1
    C1371     R0831     1
    C1371     R0937     1
    C1371     R1009     1
    C1371     R1093     1
    C1371     R1227     1
    C1371     R1228     1
    C1371     R1229     1
    C1371     R1307     1
    C1371     R1308     1
    C1371     R1309     1
    C1371     R1447     -1
    C1371     R1448     -1
    C1371     R1449     -1
    C1371     R1450     -1
    C1371     R1507     1
    C1371     R1508     1
    C1371     R1644     1
    C1371     R1645     1
    C1371     R1713     -2
    C1371     R1714     -2
    C1371     R1715     -2
    C1371     R1716     -2
    C1371     R1717     -2
    C1371     R1769     1
    C1371     R1770     1
    C1371     R1771     1
    C1371     R1772     1
    C1371     R1773     1
    C1371     R1839     1
    C1371     R1840     1
    C1371     R1841     1
    C1371     R1842     1
    C1371     R1843     1
    C1371     R1895     -2
    C1371     R1896     -2
    C1371     R1897     -2
    C1371     R1898     -2
    C1371     R1899     -2
    C1371     R2037     1
    C1371     R2038     1
    C1371     R2039     1
    C1371     R2117     1
    C1371     R2118     1
    C1371     R2119     1
    C1371     R2257     -1
    C1371     R2258     -1
    C1371     R2259     -1
    C1371     R2260     -1
    C1371     R2317     1
    C1371     R2318     1
    C1371     R2319     1
    C1371     R2320     1
    C1371     R2392     1
    C1371     R2393     1
    C1371     R2394     1
    C1371     R2395     1
    C1371     R2452     -1
    C1371     R2453     -1
    C1371     R2454     -1
    C1371     R2455     -1
    C1371     R2523     -2
    C1371     R2524     -2
    C1371     R2525     -2
    C1371     R2526     -2
    C1371     R2527     -2
    C1371     R2579     1
    C1371     R2580     1
    C1371     R2581     1
    C1371     R2582     1
    C1371     R2583     1
    C1371     R2649     1
    C1371     R2650     1
    C1371     R2651     1
    C1371     R2652     1
    C1371     R2653     1
    C1371     R2705     -2
    C1371     R2706     -2
    C1371     R2707     -2
    C1371     R2708     -2
    C1371     R2709     -2
    C1371     R2786     -1
    C1371     R2872     1
    C1372     OBJ       87
    C1372     R0831     1
    C1372     R0938     1
    C1372     R1010     1
    C1372     R1093     1
    C1372     R1228     1
    C1372     R1229     1
    C1372     R1230     1
    C1372     R1308     1
    C1372     R1309     1
    C1372     R1310     1
    C1372     R1448     -1
    C1372     R1449     -1
    C1372     R1450     -1
    C1372     R1508     1
    C1372     R1586     -1
    C1372     R1644     1
    C1372     R1645     1
    C1372     R1646     1
    C1372     R1714     -2
    C1372     R1715     -2
    C1372     R1716     -2
    C1372     R1717     -2
    C1372     R1718     -2
    C1372     R1770     1
    C1372     R1771     1
    C1372     R1772     1
    C1372     R1773     1
    C1372     R1774     1
    C1372     R1840     1
    C1372     R1841     1
    C1372     R1842     1
    C1372     R1843     1
    C1372     R1844     1
    C1372     R1896     -2
    C1372     R1897     -2
    C1372     R1898     -2
    C1372     R1899     -2
    C1372     R1900     -2
    C1372     R1974     1
    C1372     R1975     1
    C1372     R1976     1
    C1372     R2182     1
    C1372     R2183     1
    C1372     R2184     1
    C1372     R2258     1
    C1372     R2259     1
    C1372     R2260     1
    C1372     R2261     1
    C1372     R2318     -1
    C1372     R2319     -1
    C1372     R2320     -1
    C1372     R2321     -1
    C1372     R2393     -1
    C1372     R2394     -1
    C1372     R2395     -1
    C1372     R2396     -1
    C1372     R2453     1
    C1372     R2454     1
    C1372     R2455     1
    C1372     R2456     1
    C1372     R2524     1
    C1372     R2525     1
    C1372     R2526     1
    C1372     R2527     1
    C1372     R2528     1
    C1372     R2580     -2
    C1372     R2581     -2
    C1372     R2582     -2
    C1372     R2583     -2
    C1372     R2584     -2
    C1372     R2650     -2
    C1372     R2651     -2
    C1372     R2652     -2
    C1372     R2653     -2
    C1372     R2654     -2
    C1372     R2706     1
    C1372     R2707     1
    C1372     R2708     1
    C1372     R2709     1
    C1372     R2710     1
    C1373     R2872     1
    C1373     R0831     1
    C1373     R0939     1
    C1373     R1011     1
    C1373     R1093     1
    C1373     R1229     1
    C1373     R1230     1
    C1373     R1231     1
    C1373     R1309     1
    C1373     R1310     1
    C1373     R1311     1
    C1373     R1449     -1
    C1373     R1450     -1
    C1373     R1452     -1
    C1373     R1512     1
    C1373     R1586     -1
    C1373     R1644     1
    C1373     R1645     1
    C1373     R1646     1
    C1373     R1715     -2
    C1373     R1716     -2
    C1373     R1717     -2
    C1373     R1718     -2
    C1373     R1719     -2
    C1373     R1771     1
    C1373     R1772     1
    C1373     R1773     1
    C1373     R1774     1
    C1373     R1775     1
    C1373     R1841     1
    C1373     R1842     1
    C1373     R1843     1
    C1373     R1844     1
    C1373     R1845     1
    C1373     R1897     -2
    C1373     R1898     -2
    C1373     R1899     -2
    C1373     R1900     -2
    C1373     R1901     -2
    C1373     R2039     1
    C1373     R2040     1
    C1373     R2041     1
    C1373     R2119     1
    C1373     R2120     1
    C1373     R2121     1
    C1373     R2259     -1
    C1373     R2260     -1
    C1373     R2261     -1
    C1373     R2262     -1
    C1373     R2319     1
    C1373     R2320     1
    C1373     R2321     1
    C1373     R2322     1
    C1373     R2394     1
    C1373     R2395     1
    C1373     R2396     1
    C1373     R2397     1
    C1373     R2454     -1
    C1373     R2455     -1
    C1373     R2456     -1
    C1373     R2457     -1
    C1373     R2525     -2
    C1373     R2526     -2
    C1373     R2527     -2
    C1373     R2528     -2
    C1373     R2529     -2
    C1373     R2581     1
    C1373     R2582     1
    C1373     R2583     1
    C1373     R2584     1
    C1373     R2585     1
    C1373     R2651     1
    C1373     R2652     1
    C1373     R2653     1
    C1373     R2654     1
    C1373     R2655     1
    C1373     R2707     -2
    C1373     R2708     -2
    C1373     R2709     -2
    C1373     R2710     -2
    C1373     R2711     -2
    C1373     R2786     -1
    C1374     OBJ       87
    C1374     R0831     1
    C1374     R0940     1
    C1374     R1012     1
    C1374     R1093     1
    C1374     R1230     1
    C1374     R1231     1
    C1374     R1232     1
    C1374     R1310     1
    C1374     R1311     1
    C1374     R1312     1
    C1374     R1450     -1
    C1374     R1452     -1
    C1374     R1512     1
    C1374     R1586     -1
    C1374     R1588     -1
    C1374     R1645     1
    C1374     R1646     1
    C1374     R1648     1
    C1374     R1716     -2
    C1374     R1717     -2
    C1374     R1718     -2
    C1374     R1719     -2
    C1374     R1772     1
    C1374     R1773     1
    C1374     R1774     1
    C1374     R1775     1
    C1374     R1842     1
    C1374     R1843     1
    C1374     R1844     1
    C1374     R1845     1
    C1374     R1898     -2
    C1374     R1899     -2
    C1374     R1900     -2
    C1374     R1901     -2
    C1374     R1976     1
    C1374     R1977     1
    C1374     R1978     1
    C1374     R2184     1
    C1374     R2185     1
    C1374     R2186     1
    C1374     R2260     1
    C1374     R2261     1
    C1374     R2262     1
    C1374     R2263     1
    C1374     R2320     -1
    C1374     R2321     -1
    C1374     R2322     -1
    C1374     R2323     -1
    C1374     R2395     -1
    C1374     R2396     -1
    C1374     R2397     -1
    C1374     R2398     -1
    C1374     R2455     1
    C1374     R2456     1
    C1374     R2457     1
    C1374     R2458     1
    C1374     R2526     1
    C1374     R2527     1
    C1374     R2528     1
    C1374     R2529     1
    C1374     R2582     -2
    C1374     R2583     -2
    C1374     R2584     -2
    C1374     R2585     -2
    C1374     R2652     -2
    C1374     R2653     -2
    C1374     R2654     -2
    C1374     R2655     -2
    C1374     R2708     1
    C1374     R2709     1
    C1374     R2710     1
    C1374     R2711     1
    C1375     R2872     1
    C1375     R0831     1
    C1375     R0941     1
    C1375     R1013     1
    C1375     R1093     1
    C1375     R1231     1
    C1375     R1232     1
    C1375     R1233     1
    C1375     R1311     1
    C1375     R1312     1
    C1375     R1313     1
    C1375     R1452     -1
    C1375     R1512     1
    C1375     R1586     -1
    C1375     R1588     -1
    C1375     R1646     1
    C1375     R1648     1
    C1375     R1717     -2
    C1375     R1718     -2
    C1375     R1719     -2
    C1375     R1773     1
    C1375     R1774     1
    C1375     R1775     1
    C1375     R1843     1
    C1375     R1844     1
    C1375     R1845     1
    C1375     R1899     -2
    C1375     R1900     -2
    C1375     R1901     -2
    C1375     R2041     1
    C1375     R2042     1
    C1375     R2043     1
    C1375     R2121     1
    C1375     R2122     1
    C1375     R2123     1
    C1375     R2261     -1
    C1375     R2262     -1
    C1375     R2263     -1
    C1375     R2321     1
    C1375     R2322     1
    C1375     R2323     1
    C1375     R2396     1
    C1375     R2397     1
    C1375     R2398     1
    C1375     R2456     -1
    C1375     R2457     -1
    C1375     R2458     -1
    C1375     R2527     -2
    C1375     R2528     -2
    C1375     R2529     -2
    C1375     R2583     1
    C1375     R2584     1
    C1375     R2585     1
    C1375     R2653     1
    C1375     R2654     1
    C1375     R2655     1
    C1375     R2709     -2
    C1375     R2710     -2
    C1375     R2711     -2
    C1375     R2786     -1
    C1376     OBJ       87
    C1376     R0831     1
    C1376     R0942     1
    C1376     R1014     1
    C1376     R1093     1
    C1376     R1232     1
    C1376     R1233     1
    C1376     R1312     1
    C1376     R1313     1
    C1376     R1452     -1
    C1376     R1512     1
    C1376     R1588     -1
    C1376     R1648     1
    C1376     R1718     -2
    C1376     R1719     -2
    C1376     R1774     1
    C1376     R1775     1
    C1376     R1844     1
    C1376     R1845     1
    C1376     R1900     -2
    C1376     R1901     -2
    C1376     R1978     1
    C1376     R1979     1
    C1376     R2186     1
    C1376     R2187     1
    C1376     R2262     1
    C1376     R2263     1
    C1376     R2322     -1
    C1376     R2323     -1
    C1376     R2397     -1
    C1376     R2398     -1
    C1376     R2457     1
    C1376     R2458     1
    C1376     R2528     1
    C1376     R2529     1
    C1376     R2584     -2
    C1376     R2585     -2
    C1376     R2654     -2
    C1376     R2655     -2
    C1376     R2710     1
    C1376     R2711     1
    C1377     R2872     1
    C1377     R0831     1
    C1377     R0943     1
    C1377     R1015     1
    C1377     R1093     1
    C1377     R1233     1
    C1377     R1313     1
    C1377     R1588     -1
    C1377     R1648     1
    C1377     R1719     -2
    C1377     R1775     1
    C1377     R1845     1
    C1377     R1901     -2
    C1377     R2043     1
    C1377     R2123     1
    C1377     R2263     -1
    C1377     R2323     1
    C1377     R2398     1
    C1377     R2458     -1
    C1377     R2529     -2
    C1377     R2585     1
    C1377     R2655     1
    C1377     R2711     -2
    C1377     R2786     -1
    C1384     R0838     1
    C1384     R0950     1
    C1384     R1004     1
    C1384     R1094     1
    C1384     R1223     1
    C1384     R1318     1
    C1384     R1595     -1
    C1384     R1640     1
    C1384     R1725     -2
    C1384     R1726     -3
    C1384     R1894     -3
    C1384     R1986     1
    C1384     R2269     1
    C1384     R2270     1
    C1384     R2314     -1
    C1384     R2315     -1
    C1384     R2402     -1
    C1384     R2405     -1
    C1384     R2448     1
    C1384     R2450     1
    C1384     R2577     -3
    C1384     R2578     -3
    C1384     R2659     -1
    C1384     R2661     -2
    C1384     R2662     -3
    C1384     R2733     1
    C1384     R2739     1
    C1384     R2748     1
    C1384     R2760     1
    C1386     R0838     1
    C1386     R0952     1
    C1386     R1006     1
    C1386     R1094     1
    C1386     R1225     1
    C1386     R1226     1
    C1386     R1321     1
    C1386     R1322     1
    C1386     R1507     1
    C1386     R1595     -1
    C1386     R1596     -1
    C1386     R1597     -1
    C1386     R1640     1
    C1386     R1641     1
    C1386     R1725     -2
    C1386     R1726     -3
    C1386     R1727     -3
    C1386     R1728     -2
    C1386     R1894     -3
    C1386     R1895     -3
    C1386     R1896     -3
    C1386     R1986     1
    C1386     R1987     1
    C1386     R1988     1
    C1386     R2179     1
    C1386     R2180     1
    C1386     R2269     1
    C1386     R2270     1
    C1386     R2271     1
    C1386     R2272     1
    C1386     R2314     -1
    C1386     R2315     -1
    C1386     R2316     -1
    C1386     R2317     -1
    C1386     R2405     -1
    C1386     R2406     -1
    C1386     R2407     -1
    C1386     R2450     1
    C1386     R2451     1
    C1386     R2452     1
    C1386     R2577     -3
    C1386     R2578     -3
    C1386     R2579     -3
    C1386     R2580     -2
    C1386     R2661     -2
    C1386     R2662     -3
    C1386     R2663     -3
    C1386     R2664     -2
    C1386     R2733     1
    C1386     R2739     1
    C1386     R2748     1
    C1386     R2760     1
    C1386     R2884     1
    C1388     R0839     1
    C1388     R0954     1
    C1388     R1008     1
    C1388     R1094     1
    C1388     R1226     1
    C1388     R1227     1
    C1388     R1228     1
    C1388     R1322     1
    C1388     R1323     1
    C1388     R1324     1
    C1388     R1463     -1
    C1388     R1507     1
    C1388     R1508     1
    C1388     R1596     -1
    C1388     R1597     -1
    C1388     R1599     -1
    C1388     R1641     1
    C1388     R1644     1
    C1388     R1726     -2
    C1388     R1727     -2
    C1388     R1728     -2
    C1388     R1729     -2
    C1388     R1730     -2
    C1388     R1768     1
    C1388     R1769     1
    C1388     R1770     1
    C1388     R1771     1
    C1388     R1772     1
    C1388     R1852     1
    C1388     R1853     1
    C1388     R1854     1
    C1388     R1855     1
    C1388     R1856     1
    C1388     R1894     -2
    C1388     R1895     -2
    C1388     R1896     -2
    C1388     R1897     -2
    C1388     R1898     -2
    C1388     R1988     1
    C1388     R1989     1
    C1388     R1990     1
    C1388     R2180     1
    C1388     R2181     1
    C1388     R2182     1
    C1388     R2271     1
    C1388     R2272     1
    C1388     R2273     1
    C1388     R2274     1
    C1388     R2316     -1
    C1388     R2317     -1
    C1388     R2318     -1
    C1388     R2319     -1
    C1388     R2406     -1
    C1388     R2407     -1
    C1388     R2408     -1
    C1388     R2409     -1
    C1388     R2451     1
    C1388     R2452     1
    C1388     R2453     1
    C1388     R2454     1
    C1388     R2536     1
    C1388     R2537     1
    C1388     R2538     1
    C1388     R2539     1
    C1388     R2540     1
    C1388     R2578     -2
    C1388     R2579     -2
    C1388     R2580     -2
    C1388     R2581     -2
    C1388     R2582     -2
    C1388     R2662     -2
    C1388     R2663     -2
    C1388     R2664     -2
    C1388     R2665     -1
    C1388     R2666     -2
    C1388     R2704     1
    C1388     R2705     1
    C1388     R2706     1
    C1388     R2707     1
    C1388     R2708     1
    C1388     R2884     1
    C1390     R0839     1
    C1390     R0956     1
    C1390     R1010     1
    C1390     R1094     1
    C1390     R1228     1
    C1390     R1229     1
    C1390     R1230     1
    C1390     R1324     1
    C1390     R1325     1
    C1390     R1326     1
    C1390     R1463     -1
    C1390     R1465     -1
    C1390     R1466     -1
    C1390     R1508     1
    C1390     R1599     -1
    C1390     R1644     1
    C1390     R1645     1
    C1390     R1646     1
    C1390     R1728     -2
    C1390     R1729     -2
    C1390     R1730     -2
    C1390     R1731     -2
    C1390     R1732     -2
    C1390     R1770     1
    C1390     R1771     1
    C1390     R1772     1
    C1390     R1773     1
    C1390     R1774     1
    C1390     R1854     1
    C1390     R1855     1
    C1390     R1856     1
    C1390     R1857     1
    C1390     R1858     1
    C1390     R1896     -2
    C1390     R1897     -2
    C1390     R1898     -2
    C1390     R1899     -2
    C1390     R1900     -2
    C1390     R1990     1
    C1390     R1991     1
    C1390     R1992     1
    C1390     R2182     1
    C1390     R2183     1
    C1390     R2184     1
    C1390     R2273     1
    C1390     R2274     1
    C1390     R2275     1
    C1390     R2276     1
    C1390     R2318     -1
    C1390     R2319     -1
    C1390     R2320     -1
    C1390     R2321     -1
    C1390     R2408     -1
    C1390     R2409     -1
    C1390     R2410     -1
    C1390     R2411     -1
    C1390     R2453     1
    C1390     R2454     1
    C1390     R2455     1
    C1390     R2456     1
    C1390     R2538     1
    C1390     R2539     1
    C1390     R2540     1
    C1390     R2541     1
    C1390     R2542     1
    C1390     R2580     -2
    C1390     R2581     -2
    C1390     R2582     -2
    C1390     R2583     -2
    C1390     R2584     -2
    C1390     R2664     -2
    C1390     R2665     -1
    C1390     R2666     -2
    C1390     R2667     -1
    C1390     R2668     -2
    C1390     R2706     1
    C1390     R2707     1
    C1390     R2708     1
    C1390     R2709     1
    C1390     R2710     1
    C1392     R0839     1
    C1392     R0958     1
    C1392     R1012     1
    C1392     R1094     1
    C1392     R1230     1
    C1392     R1231     1
    C1392     R1232     1
    C1392     R1326     1
    C1392     R1327     1
    C1392     R1328     1
    C1392     R1465     -1
    C1392     R1466     -1
    C1392     R1468     -1
    C1392     R1512     1
    C1392     R1602     -1
    C1392     R1645     1
    C1392     R1646     1
    C1392     R1648     1
    C1392     R1730     -2
    C1392     R1731     -2
    C1392     R1732     -2
    C1392     R1733     -2
    C1392     R1772     1
    C1392     R1773     1
    C1392     R1774     1
    C1392     R1775     1
    C1392     R1856     1
    C1392     R1857     1
    C1392     R1858     1
    C1392     R1859     1
    C1392     R1898     -2
    C1392     R1899     -2
    C1392     R1900     -2
    C1392     R1901     -2
    C1392     R1992     1
    C1392     R1993     1
    C1392     R1994     1
    C1392     R2184     1
    C1392     R2185     1
    C1392     R2186     1
    C1392     R2275     1
    C1392     R2276     1
    C1392     R2277     1
    C1392     R2278     1
    C1392     R2320     -1
    C1392     R2321     -1
    C1392     R2322     -1
    C1392     R2323     -1
    C1392     R2410     -1
    C1392     R2411     -1
    C1392     R2412     -1
    C1392     R2413     -1
    C1392     R2455     1
    C1392     R2456     1
    C1392     R2457     1
    C1392     R2458     1
    C1392     R2540     1
    C1392     R2541     1
    C1392     R2542     1
    C1392     R2543     1
    C1392     R2582     -2
    C1392     R2583     -2
    C1392     R2584     -2
    C1392     R2585     -2
    C1392     R2666     -2
    C1392     R2667     -1
    C1392     R2668     -2
    C1392     R2669     -1
    C1392     R2708     1
    C1392     R2709     1
    C1392     R2710     1
    C1392     R2711     1
    C1394     R0839     1
    C1394     R0960     1
    C1394     R1014     1
    C1394     R1094     1
    C1394     R1232     1
    C1394     R1233     1
    C1394     R1328     1
    C1394     R1329     1
    C1394     R1468     -1
    C1394     R1512     1
    C1394     R1602     -1
    C1394     R1648     1
    C1394     R1732     -2
    C1394     R1733     -2
    C1394     R1774     1
    C1394     R1775     1
    C1394     R1858     1
    C1394     R1859     1
    C1394     R1900     -2
    C1394     R1901     -2
    C1394     R1994     1
    C1394     R1995     1
    C1394     R2186     1
    C1394     R2187     1
    C1394     R2277     1
    C1394     R2278     1
    C1394     R2322     -1
    C1394     R2323     -1
    C1394     R2412     -1
    C1394     R2413     -1
    C1394     R2457     1
    C1394     R2458     1
    C1394     R2542     1
    C1394     R2543     1
    C1394     R2584     -2
    C1394     R2585     -2
    C1394     R2668     -2
    C1394     R2669     -1
    C1394     R2710     1
    C1394     R2711     1
    C1401     R2891     -1
    C1401     R0844     1
    C1401     R0967     1
    C1401     R1003     1
    C1401     R1095     1
    C1401     R1335     1
    C1401     R1473     -1
    C1401     R1607     -1
    C1401     R1737     -2
    C1401     R1738     -1
    C1401     R1739     -2
    C1401     R1765     1
    C1401     R2283     -1
    C1401     R2419     1
    C1401     R2448     -1
    C1401     R2548     -1
    C1401     R2549     -2
    C1401     R2740     1
    C1401     R2758     1
    C1401     R2793     1
    C1402     OBJ       180
    C1402     R0844     1
    C1402     R0968     1
    C1402     R1004     1
    C1402     R1095     1
    C1402     R1223     1
    C1402     R1335     1
    C1402     R1336     1
    C1402     R1473     -1
    C1402     R1607     -1
    C1402     R1610     -1
    C1402     R1640     1
    C1402     R1737     -2
    C1402     R1738     -1
    C1402     R1739     -2
    C1402     R1740     -2
    C1402     R1866     1
    C1402     R1894     -3
    C1402     R2000     1
    C1402     R2283     1
    C1402     R2285     1
    C1402     R2314     -1
    C1402     R2315     -1
    C1402     R2420     -1
    C1402     R2448     1
    C1402     R2450     1
    C1402     R2550     1
    C1402     R2577     -3
    C1402     R2578     -3
    C1402     R2675     -2
    C1402     R2676     -2
    C1402     R2733     1
    C1402     R2740     1
    C1402     R2749     1
    C1402     R2760     1
    C1403     R2701     1
    C1403     R0844     1
    C1403     R0969     1
    C1403     R1005     1
    C1403     R1095     1
    C1403     R1223     1
    C1403     R1225     1
    C1403     R1335     1
    C1403     R1336     1
    C1403     R1337     1
    C1403     R1473     -1
    C1403     R1476     -1
    C1403     R1610     -1
    C1403     R1640     1
    C1403     R1641     1
    C1403     R1737     -2
    C1403     R1738     -1
    C1403     R1739     -2
    C1403     R1740     -2
    C1403     R1741     -2
    C1403     R1765     1
    C1403     R1866     1
    C1403     R1867     1
    C1403     R1894     -3
    C1403     R1895     -3
    C1403     R2033     1
    C1403     R2034     1
    C1403     R2035     1
    C1403     R2146     1
    C1403     R2147     1
    C1403     R2283     -1
    C1403     R2285     -1
    C1403     R2286     -1
    C1403     R2315     1
    C1403     R2316     1
    C1403     R2419     1
    C1403     R2420     1
    C1403     R2421     1
    C1403     R2450     -1
    C1403     R2451     -1
    C1403     R2548     -1
    C1403     R2549     -2
    C1403     R2550     -2
    C1403     R2551     -2
    C1403     R2676     1
    C1403     R2677     1
    C1403     R2704     -3
    C1403     R2705     -3
    C1403     R2733     1
    C1403     R2740     1
    C1403     R2751     1
    C1403     R2758     1
    C1403     R2793     1
    C1403     R2892     1
    C1404     OBJ       180
    C1404     R0844     1
    C1404     R0970     1
    C1404     R1006     1
    C1404     R1095     1
    C1404     R1225     1
    C1404     R1226     1
    C1404     R1336     1
    C1404     R1337     1
    C1404     R1338     1
    C1404     R1476     -1
    C1404     R1477     -1
    C1404     R1507     1
    C1404     R1610     -1
    C1404     R1640     1
    C1404     R1641     1
    C1404     R1738     -1
    C1404     R1739     -2
    C1404     R1740     -2
    C1404     R1741     -2
    C1404     R1742     -2
    C1404     R1866     1
    C1404     R1867     1
    C1404     R1868     1
    C1404     R1894     -3
    C1404     R1895     -3
    C1404     R1896     -3
    C1404     R2003     1
    C1404     R2004     1
    C1404     R2179     1
    C1404     R2180     1
    C1404     R2285     1
    C1404     R2286     1
    C1404     R2287     1
    C1404     R2314     -1
    C1404     R2315     -1
    C1404     R2316     -1
    C1404     R2317     -1
    C1404     R2420     -1
    C1404     R2421     -1
    C1404     R2422     -1
    C1404     R2450     1
    C1404     R2451     1
    C1404     R2452     1
    C1404     R2550     1
    C1404     R2551     1
    C1404     R2552     1
    C1404     R2577     -3
    C1404     R2578     -3
    C1404     R2579     -3
    C1404     R2580     -2
    C1404     R2675     -2
    C1404     R2676     -2
    C1404     R2677     -2
    C1404     R2678     -2
    C1404     R2733     1
    C1404     R2740     1
    C1404     R2749     1
    C1404     R2760     1
    C1404     R2892     1
    C1404     R2893     1
    C1406     OBJ       180
    C1406     R0845     1
    C1406     R0972     1
    C1406     R1008     1
    C1406     R1095     1
    C1406     R1226     1
    C1406     R1227     1
    C1406     R1228     1
    C1406     R1338     1
    C1406     R1339     1
    C1406     R1340     1
    C1406     R1476     -1
    C1406     R1477     -1
    C1406     R1478     -1
    C1406     R1479     -1
    C1406     R1507     1
    C1406     R1508     1
    C1406     R1641     1
    C1406     R1644     1
    C1406     R1740     -2
    C1406     R1741     -2
    C1406     R1742     -2
    C1406     R1743     -2
    C1406     R1744     -2
    C1406     R1768     1
    C1406     R1769     1
    C1406     R1770     1
    C1406     R1771     1
    C1406     R1772     1
    C1406     R1866     1
    C1406     R1867     1
    C1406     R1868     1
    C1406     R1869     1
    C1406     R1870     1
    C1406     R1894     -2
    C1406     R1895     -2
    C1406     R1896     -2
    C1406     R1897     -2
    C1406     R1898     -2
    C1406     R2004     1
    C1406     R2005     1
    C1406     R2006     1
    C1406     R2180     1
    C1406     R2181     1
    C1406     R2182     1
    C1406     R2286     1
    C1406     R2287     1
    C1406     R2288     1
    C1406     R2289     1
    C1406     R2316     -1
    C1406     R2317     -1
    C1406     R2318     -1
    C1406     R2319     -1
    C1406     R2421     -1
    C1406     R2422     -1
    C1406     R2423     -1
    C1406     R2424     -1
    C1406     R2451     1
    C1406     R2452     1
    C1406     R2453     1
    C1406     R2454     1
    C1406     R2550     1
    C1406     R2551     1
    C1406     R2552     1
    C1406     R2553     1
    C1406     R2554     1
    C1406     R2578     -2
    C1406     R2579     -2
    C1406     R2580     -2
    C1406     R2581     -2
    C1406     R2582     -2
    C1406     R2676     -2
    C1406     R2677     -2
    C1406     R2678     -2
    C1406     R2679     -2
    C1406     R2680     -2
    C1406     R2704     1
    C1406     R2705     1
    C1406     R2706     1
    C1406     R2707     1
    C1406     R2708     1
    C1406     R2892     1
    C1406     R2893     1
    C1407     R0845     1
    C1407     R0973     1
    C1407     R1009     1
    C1407     R1095     1
    C1407     R1227     1
    C1407     R1228     1
    C1407     R1229     1
    C1407     R1339     1
    C1407     R1340     1
    C1407     R1341     1
    C1407     R1477     -1
    C1407     R1478     -1
    C1407     R1479     -1
    C1407     R1480     -1
    C1407     R1507     1
    C1407     R1508     1
    C1407     R1644     1
    C1407     R1645     1
    C1407     R1741     -2
    C1407     R1742     -2
    C1407     R1743     -2
    C1407     R1744     -2
    C1407     R1745     -2
    C1407     R1769     1
    C1407     R1770     1
    C1407     R1771     1
    C1407     R1772     1
    C1407     R1773     1
    C1407     R1867     1
    C1407     R1868     1
    C1407     R1869     1
    C1407     R1870     1
    C1407     R1871     1
    C1407     R1895     -2
    C1407     R1896     -2
    C1407     R1897     -2
    C1407     R1898     -2
    C1407     R1899     -2
    C1407     R2037     1
    C1407     R2038     1
    C1407     R2039     1
    C1407     R2149     1
    C1407     R2150     1
    C1407     R2151     1
    C1407     R2287     -1
    C1407     R2288     -1
    C1407     R2289     -1
    C1407     R2290     -1
    C1407     R2317     1
    C1407     R2318     1
    C1407     R2319     1
    C1407     R2320     1
    C1407     R2422     1
    C1407     R2423     1
    C1407     R2424     1
    C1407     R2425     1
    C1407     R2452     -1
    C1407     R2453     -1
    C1407     R2454     -1
    C1407     R2455     -1
    C1407     R2551     -2
    C1407     R2552     -2
    C1407     R2553     -2
    C1407     R2554     -2
    C1407     R2555     -2
    C1407     R2579     1
    C1407     R2580     1
    C1407     R2581     1
    C1407     R2582     1
    C1407     R2583     1
    C1407     R2677     1
    C1407     R2678     1
    C1407     R2679     1
    C1407     R2680     1
    C1407     R2681     1
    C1407     R2705     -2
    C1407     R2706     -2
    C1407     R2707     -2
    C1407     R2708     -2
    C1407     R2709     -2
    C1407     R2793     -1
    C1407     R2893     1
    C1408     OBJ       180
    C1408     R0845     1
    C1408     R0974     1
    C1408     R1010     1
    C1408     R1095     1
    C1408     R1228     1
    C1408     R1229     1
    C1408     R1230     1
    C1408     R1340     1
    C1408     R1341     1
    C1408     R1342     1
    C1408     R1478     -1
    C1408     R1479     -1
    C1408     R1480     -1
    C1408     R1508     1
    C1408     R1616     -1
    C1408     R1644     1
    C1408     R1645     1
    C1408     R1646     1
    C1408     R1742     -2
    C1408     R1743     -2
    C1408     R1744     -2
    C1408     R1745     -2
    C1408     R1746     -2
    C1408     R1770     1
    C1408     R1771     1
    C1408     R1772     1
    C1408     R1773     1
    C1408     R1774     1
    C1408     R1868     1
    C1408     R1869     1
    C1408     R1870     1
    C1408     R1871     1
    C1408     R1872     1
    C1408     R1896     -2
    C1408     R1897     -2
    C1408     R1898     -2
    C1408     R1899     -2
    C1408     R1900     -2
    C1408     R2006     1
    C1408     R2007     1
    C1408     R2008     1
    C1408     R2182     1
    C1408     R2183     1
    C1408     R2184     1
    C1408     R2288     1
    C1408     R2289     1
    C1408     R2290     1
    C1408     R2291     1
    C1408     R2318     -1
    C1408     R2319     -1
    C1408     R2320     -1
    C1408     R2321     -1
    C1408     R2423     -1
    C1408     R2424     -1
    C1408     R2425     -1
    C1408     R2426     -1
    C1408     R2453     1
    C1408     R2454     1
    C1408     R2455     1
    C1408     R2456     1
    C1408     R2552     1
    C1408     R2553     1
    C1408     R2554     1
    C1408     R2555     1
    C1408     R2556     1
    C1408     R2580     -2
    C1408     R2581     -2
    C1408     R2582     -2
    C1408     R2583     -2
    C1408     R2584     -2
    C1408     R2678     -2
    C1408     R2679     -2
    C1408     R2680     -2
    C1408     R2681     -2
    C1408     R2682     -2
    C1408     R2706     1
    C1408     R2707     1
    C1408     R2708     1
    C1408     R2709     1
    C1408     R2710     1
    C1409     R2893     1
    C1409     R0845     1
    C1409     R0975     1
    C1409     R1011     1
    C1409     R1095     1
    C1409     R1229     1
    C1409     R1230     1
    C1409     R1231     1
    C1409     R1341     1
    C1409     R1342     1
    C1409     R1343     1
    C1409     R1479     -1
    C1409     R1480     -1
    C1409     R1512     1
    C1409     R1616     -1
    C1409     R1617     -1
    C1409     R1644     1
    C1409     R1645     1
    C1409     R1646     1
    C1409     R1743     -2
    C1409     R1744     -2
    C1409     R1745     -2
    C1409     R1746     -2
    C1409     R1747     -2
    C1409     R1771     1
    C1409     R1772     1
    C1409     R1773     1
    C1409     R1774     1
    C1409     R1775     1
    C1409     R1869     1
    C1409     R1870     1
    C1409     R1871     1
    C1409     R1872     1
    C1409     R1873     1
    C1409     R1897     -2
    C1409     R1898     -2
    C1409     R1899     -2
    C1409     R1900     -2
    C1409     R1901     -2
    C1409     R2039     1
    C1409     R2040     1
    C1409     R2041     1
    C1409     R2151     1
    C1409     R2152     1
    C1409     R2153     1
    C1409     R2289     -1
    C1409     R2290     -1
    C1409     R2291     -1
    C1409     R2292     -1
    C1409     R2319     1
    C1409     R2320     1
    C1409     R2321     1
    C1409     R2322     1
    C1409     R2424     1
    C1409     R2425     1
    C1409     R2426     1
    C1409     R2427     1
    C1409     R2454     -1
    C1409     R2455     -1
    C1409     R2456     -1
    C1409     R2457     -1
    C1409     R2553     -2
    C1409     R2554     -2
    C1409     R2555     -2
    C1409     R2556     -2
    C1409     R2557     -2
    C1409     R2581     1
    C1409     R2582     1
    C1409     R2583     1
    C1409     R2584     1
    C1409     R2585     1
    C1409     R2679     1
    C1409     R2680     1
    C1409     R2681     1
    C1409     R2682     1
    C1409     R2683     1
    C1409     R2707     -2
    C1409     R2708     -2
    C1409     R2709     -2
    C1409     R2710     -2
    C1409     R2711     -2
    C1409     R2793     -1
    C1410     OBJ       180
    C1410     R0845     1
    C1410     R0976     1
    C1410     R1012     1
    C1410     R1095     1
    C1410     R1230     1
    C1410     R1231     1
    C1410     R1232     1
    C1410     R1342     1
    C1410     R1343     1
    C1410     R1344     1
    C1410     R1480     -1
    C1410     R1483     -1
    C1410     R1512     1
    C1410     R1616     -1
    C1410     R1617     -1
    C1410     R1645     1
    C1410     R1646     1
    C1410     R1648     1
    C1410     R1744     -2
    C1410     R1745     -2
    C1410     R1746     -2
    C1410     R1747     -2
    C1410     R1772     1
    C1410     R1773     1
    C1410     R1774     1
    C1410     R1775     1
    C1410     R1870     1
    C1410     R1871     1
    C1410     R1872     1
    C1410     R1873     1
    C1410     R1898     -2
    C1410     R1899     -2
    C1410     R1900     -2
    C1410     R1901     -2
    C1410     R2008     1
    C1410     R2009     1
    C1410     R2010     1
    C1410     R2184     1
    C1410     R2185     1
    C1410     R2186     1
    C1410     R2290     1
    C1410     R2291     1
    C1410     R2292     1
    C1410     R2293     1
    C1410     R2320     -1
    C1410     R2321     -1
    C1410     R2322     -1
    C1410     R2323     -1
    C1410     R2425     -1
    C1410     R2426     -1
    C1410     R2427     -1
    C1410     R2428     -1
    C1410     R2455     1
    C1410     R2456     1
    C1410     R2457     1
    C1410     R2458     1
    C1410     R2554     1
    C1410     R2555     1
    C1410     R2556     1
    C1410     R2557     1
    C1410     R2582     -2
    C1410     R2583     -2
    C1410     R2584     -2
    C1410     R2585     -2
    C1410     R2680     -2
    C1410     R2681     -2
    C1410     R2682     -2
    C1410     R2683     -2
    C1410     R2708     1
    C1410     R2709     1
    C1410     R2710     1
    C1410     R2711     1
    C1411     R2893     1
    C1411     R0845     1
    C1411     R0977     1
    C1411     R1013     1
    C1411     R1095     1
    C1411     R1231     1
    C1411     R1232     1
    C1411     R1233     1
    C1411     R1343     1
    C1411     R1344     1
    C1411     R1345     1
    C1411     R1483     -1
    C1411     R1512     1
    C1411     R1616     -1
    C1411     R1617     -1
    C1411     R1646     1
    C1411     R1648     1
    C1411     R1745     -2
    C1411     R1746     -2
    C1411     R1747     -2
    C1411     R1773     1
    C1411     R1774     1
    C1411     R1775     1
    C1411     R1871     1
    C1411     R1872     1
    C1411     R1873     1
    C1411     R1899     -2
    C1411     R1900     -2
    C1411     R1901     -2
    C1411     R2041     1
    C1411     R2042     1
    C1411     R2043     1
    C1411     R2153     1
    C1411     R2154     1
    C1411     R2155     1
    C1411     R2291     -1
    C1411     R2292     -1
    C1411     R2293     -1
    C1411     R2321     1
    C1411     R2322     1
    C1411     R2323     1
    C1411     R2426     1
    C1411     R2427     1
    C1411     R2428     1
    C1411     R2456     -1
    C1411     R2457     -1
    C1411     R2458     -1
    C1411     R2555     -2
    C1411     R2556     -2
    C1411     R2557     -2
    C1411     R2583     1
    C1411     R2584     1
    C1411     R2585     1
    C1411     R2681     1
    C1411     R2682     1
    C1411     R2683     1
    C1411     R2709     -2
    C1411     R2710     -2
    C1411     R2711     -2
    C1411     R2793     -1
    C1412     OBJ       180
    C1412     R0845     1
    C1412     R0978     1
    C1412     R1014     1
    C1412     R1095     1
    C1412     R1232     1
    C1412     R1233     1
    C1412     R1344     1
    C1412     R1345     1
    C1412     R1483     -1
    C1412     R1512     1
    C1412     R1617     -1
    C1412     R1648     1
    C1412     R1746     -2
    C1412     R1747     -2
    C1412     R1774     1
    C1412     R1775     1
    C1412     R1872     1
    C1412     R1873     1
    C1412     R1900     -2
    C1412     R1901     -2
    C1412     R2010     1
    C1412     R2011     1
    C1412     R2186     1
    C1412     R2187     1
    C1412     R2292     1
    C1412     R2293     1
    C1412     R2322     -1
    C1412     R2323     -1
    C1412     R2427     -1
    C1412     R2428     -1
    C1412     R2457     1
    C1412     R2458     1
    C1412     R2556     1
    C1412     R2557     1
    C1412     R2584     -2
    C1412     R2585     -2
    C1412     R2682     -2
    C1412     R2683     -2
    C1412     R2710     1
    C1412     R2711     1
    C1413     R2893     1
    C1413     R0845     1
    C1413     R0979     1
    C1413     R1015     1
    C1413     R1095     1
    C1413     R1233     1
    C1413     R1345     1
    C1413     R1483     -1
    C1413     R1648     1
    C1413     R1747     -2
    C1413     R1775     1
    C1413     R1873     1
    C1413     R1901     -2
    C1413     R2043     1
    C1413     R2155     1
    C1413     R2293     -1
    C1413     R2323     1
    C1413     R2428     1
    C1413     R2458     -1
    C1413     R2557     -2
    C1413     R2585     1
    C1413     R2683     1
    C1413     R2711     -2
    C1413     R2793     -1
    C1423     R0989     1
    C1423     R1007     1
    C1423     R1225     1
    C1423     R1226     1
    C1423     R1227     1
    C1423     R1353     1
    C1423     R1354     1
    C1423     R1355     1
    C1423     R1490     -1
    C1423     R1491     -1
    C1423     R1492     -1
    C1423     R1493     -1
    C1423     R1507     1
    C1423     R1508     1
    C1423     R1640     1
    C1423     R1641     1
    C1423     R1753     -2
    C1423     R1754     -2
    C1423     R1755     -2
    C1423     R1756     -2
    C1423     R1757     -2
    C1423     R1767     1
    C1423     R1768     1
    C1423     R1769     1
    C1423     R1770     1
    C1423     R1771     1
    C1423     R1879     1
    C1423     R1880     1
    C1423     R1881     1
    C1423     R1882     1
    C1423     R1883     1
    C1423     R1894     -2
    C1423     R1895     -2
    C1423     R1896     -2
    C1423     R1897     -2
    C1423     R2035     1
    C1423     R2036     1
    C1423     R2037     1
    C1423     R2163     1
    C1423     R2164     1
    C1423     R2165     1
    C1423     R2300     -1
    C1423     R2301     -1
    C1423     R2302     -1
    C1423     R2303     -1
    C1423     R2315     1
    C1423     R2316     1
    C1423     R2317     1
    C1423     R2318     1
    C1423     R2435     1
    C1423     R2436     1
    C1423     R2437     1
    C1423     R2438     1
    C1423     R2450     -1
    C1423     R2451     -1
    C1423     R2452     -1
    C1423     R2453     -1
    C1423     R2563     -2
    C1423     R2564     -2
    C1423     R2565     -2
    C1423     R2566     -2
    C1423     R2567     -2
    C1423     R2577     1
    C1423     R2578     1
    C1423     R2579     1
    C1423     R2580     1
    C1423     R2581     1
    C1423     R2689     1
    C1423     R2690     1
    C1423     R2691     1
    C1423     R2692     1
    C1423     R2693     1
    C1423     R2704     -2
    C1423     R2705     -2
    C1423     R2706     -2
    C1423     R2707     -2
    C1423     R2795     -1
    C1425     R0991     1
    C1425     R1009     1
    C1425     R1227     1
    C1425     R1228     1
    C1425     R1229     1
    C1425     R1355     1
    C1425     R1356     1
    C1425     R1357     1
    C1425     R1492     -1
    C1425     R1493     -1
    C1425     R1494     -1
    C1425     R1495     -1
    C1425     R1507     1
    C1425     R1508     1
    C1425     R1644     1
    C1425     R1645     1
    C1425     R1755     -2
    C1425     R1756     -2
    C1425     R1757     -2
    C1425     R1758     -2
    C1425     R1759     -2
    C1425     R1769     1
    C1425     R1770     1
    C1425     R1771     1
    C1425     R1772     1
    C1425     R1773     1
    C1425     R1881     1
    C1425     R1882     1
    C1425     R1883     1
    C1425     R1884     1
    C1425     R1885     1
    C1425     R1895     -2
    C1425     R1896     -2
    C1425     R1897     -2
    C1425     R1898     -2
    C1425     R1899     -2
    C1425     R2037     1
    C1425     R2038     1
    C1425     R2039     1
    C1425     R2165     1
    C1425     R2166     1
    C1425     R2167     1
    C1425     R2302     -1
    C1425     R2303     -1
    C1425     R2304     -1
    C1425     R2305     -1
    C1425     R2317     1
    C1425     R2318     1
    C1425     R2319     1
    C1425     R2320     1
    C1425     R2437     1
    C1425     R2438     1
    C1425     R2439     1
    C1425     R2440     1
    C1425     R2452     -1
    C1425     R2453     -1
    C1425     R2454     -1
    C1425     R2455     -1
    C1425     R2565     -2
    C1425     R2566     -2
    C1425     R2567     -2
    C1425     R2568     -2
    C1425     R2569     -2
    C1425     R2579     1
    C1425     R2580     1
    C1425     R2581     1
    C1425     R2582     1
    C1425     R2583     1
    C1425     R2691     1
    C1425     R2692     1
    C1425     R2693     1
    C1425     R2694     1
    C1425     R2695     1
    C1425     R2705     -2
    C1425     R2706     -2
    C1425     R2707     -2
    C1425     R2708     -2
    C1425     R2709     -2
    C1425     R2795     -1
    C1427     R0993     1
    C1427     R1011     1
    C1427     R1229     1
    C1427     R1230     1
    C1427     R1231     1
    C1427     R1357     1
    C1427     R1358     1
    C1427     R1359     1
    C1427     R1494     -1
    C1427     R1495     -1
    C1427     R1496     -1
    C1427     R1497     -1
    C1427     R1512     1
    C1427     R1644     1
    C1427     R1645     1
    C1427     R1646     1
    C1427     R1757     -2
    C1427     R1758     -2
    C1427     R1759     -2
    C1427     R1760     -2
    C1427     R1761     -2
    C1427     R1771     1
    C1427     R1772     1
    C1427     R1773     1
    C1427     R1774     1
    C1427     R1775     1
    C1427     R1883     1
    C1427     R1884     1
    C1427     R1885     1
    C1427     R1886     1
    C1427     R1887     1
    C1427     R1897     -2
    C1427     R1898     -2
    C1427     R1899     -2
    C1427     R1900     -2
    C1427     R1901     -2
    C1427     R2039     1
    C1427     R2040     1
    C1427     R2041     1
    C1427     R2167     1
    C1427     R2168     1
    C1427     R2169     1
    C1427     R2304     -1
    C1427     R2305     -1
    C1427     R2306     -1
    C1427     R2307     -1
    C1427     R2319     1
    C1427     R2320     1
    C1427     R2321     1
    C1427     R2322     1
    C1427     R2439     1
    C1427     R2440     1
    C1427     R2441     1
    C1427     R2442     1
    C1427     R2454     -1
    C1427     R2455     -1
    C1427     R2456     -1
    C1427     R2457     -1
    C1427     R2567     -2
    C1427     R2568     -2
    C1427     R2569     -2
    C1427     R2570     -2
    C1427     R2571     -2
    C1427     R2581     1
    C1427     R2582     1
    C1427     R2583     1
    C1427     R2584     1
    C1427     R2585     1
    C1427     R2693     1
    C1427     R2694     1
    C1427     R2695     1
    C1427     R2696     1
    C1427     R2697     1
    C1427     R2707     -2
    C1427     R2708     -2
    C1427     R2709     -2
    C1427     R2710     -2
    C1427     R2711     -2
    C1427     R2795     -1
    C1429     R0995     1
    C1429     R1013     1
    C1429     R1231     1
    C1429     R1232     1
    C1429     R1233     1
    C1429     R1359     1
    C1429     R1360     1
    C1429     R1361     1
    C1429     R1496     -1
    C1429     R1497     -1
    C1429     R1498     -1
    C1429     R1512     1
    C1429     R1646     1
    C1429     R1648     1
    C1429     R1759     -2
    C1429     R1760     -2
    C1429     R1761     -2
    C1429     R1773     1
    C1429     R1774     1
    C1429     R1775     1
    C1429     R1885     1
    C1429     R1886     1
    C1429     R1887     1
    C1429     R1899     -2
    C1429     R1900     -2
    C1429     R1901     -2
    C1429     R2041     1
    C1429     R2042     1
    C1429     R2043     1
    C1429     R2169     1
    C1429     R2170     1
    C1429     R2171     1
    C1429     R2306     -1
    C1429     R2307     -1
    C1429     R2308     -1
    C1429     R2321     1
    C1429     R2322     1
    C1429     R2323     1
    C1429     R2441     1
    C1429     R2442     1
    C1429     R2443     1
    C1429     R2456     -1
    C1429     R2457     -1
    C1429     R2458     -1
    C1429     R2569     -2
    C1429     R2570     -2
    C1429     R2571     -2
    C1429     R2583     1
    C1429     R2584     1
    C1429     R2585     1
    C1429     R2695     1
    C1429     R2696     1
    C1429     R2697     1
    C1429     R2709     -2
    C1429     R2710     -2
    C1429     R2711     -2
    C1429     R2795     -1
    C1431     R0997     1
    C1431     R1015     1
    C1431     R1233     1
    C1431     R1361     1
    C1431     R1498     -1
    C1431     R1648     1
    C1431     R1761     -2
    C1431     R1775     1
    C1431     R1887     1
    C1431     R1901     -2
    C1431     R2043     1
    C1431     R2171     1
    C1431     R2308     -1
    C1431     R2323     1
    C1431     R2443     1
    C1431     R2458     -1
    C1431     R2571     -2
    C1431     R2585     1
    C1431     R2697     1
    C1431     R2711     -2
    C1431     R2795     -1
    C1459     R0869     1
    C1459     R1007     1
    C1460     R0869     1
    C1460     R1008     1
    C1461     R0869     1
    C1461     R1009     1
    C1462     R0869     1
    C1462     R1010     1
    C1463     R0869     1
    C1463     R1011     1
    C1464     R0869     1
    C1464     R1012     1
    C1465     R0869     1
    C1465     R1013     1
    C1466     R0869     1
    C1466     R1014     1
    C1467     R0869     1
    C1467     R1015     1
    C1473     R0796     1
    C1473     R0877     1
    C1473     R1021     1
    C1473     R1098     1
    C1473     R1255     1
    C1473     R1398     -1
    C1473     R1399     -1
    C1473     R1654     1
    C1473     R1668     -1
    C1473     R1669     -3
    C1473     R1906     -1
    C1473     R1907     -1
    C1473     R2065     1
    C1473     R2207     -1
    C1473     R2208     -1
    C1473     R2209     -1
    C1473     R2329     1
    C1473     R2344     1
    C1473     R2462     -1
    C1473     R2463     -3
    C1473     R2476     -1
    C1473     R2477     -3
    C1473     R2479     -3
    C1473     R2715     -3
    C1473     R2716     -6
    C1473     R2717     -1
    C1473     R2734     1
    C1473     R2735     1
    C1473     R2752     1
    C1473     R2753     1
    C1475     R0796     1
    C1475     R0879     1
    C1475     R1023     1
    C1475     R1098     1
    C1475     R1241     1
    C1475     R1255     1
    C1475     R1256     1
    C1475     R1257     1
    C1475     R1398     -1
    C1475     R1399     -1
    C1475     R1535     -1
    C1475     R1536     -1
    C1475     R1654     1
    C1475     R1655     1
    C1475     R1656     1
    C1475     R1668     -1
    C1475     R1669     -3
    C1475     R1670     -3
    C1475     R1671     -3
    C1475     R1782     1
    C1475     R1906     -1
    C1475     R1907     -1
    C1475     R1908     -1
    C1475     R1909     -3
    C1475     R2051     1
    C1475     R2065     1
    C1475     R2066     1
    C1475     R2067     1
    C1475     R2208     -1
    C1475     R2209     -1
    C1475     R2210     -1
    C1475     R2211     -1
    C1475     R2329     1
    C1475     R2330     1
    C1475     R2331     1
    C1475     R2344     1
    C1475     R2345     1
    C1475     R2346     1
    C1475     R2463     -3
    C1475     R2466     -1
    C1475     R2477     -3
    C1475     R2479     -3
    C1475     R2480     -3
    C1475     R2481     -3
    C1475     R2592     1
    C1475     R2715     -3
    C1475     R2716     -6
    C1475     R2717     -1
    C1475     R2718     -1
    C1475     R2719     -3
    C1475     R2734     1
    C1475     R2735     1
    C1475     R2752     1
    C1475     R2753     1
    C1475     R2820     1
    C1477     R0797     1
    C1477     R0881     1
    C1477     R1025     1
    C1477     R1098     1
    C1477     R1241     1
    C1477     R1242     1
    C1477     R1243     1
    C1477     R1257     1
    C1477     R1258     1
    C1477     R1259     1
    C1477     R1522     1
    C1477     R1535     -1
    C1477     R1536     -1
    C1477     R1537     -1
    C1477     R1538     -1
    C1477     R1655     1
    C1477     R1656     1
    C1477     R1658     1
    C1477     R1669     -2
    C1477     R1670     -2
    C1477     R1671     -2
    C1477     R1672     -2
    C1477     R1673     -1
    C1477     R1782     1
    C1477     R1795     1
    C1477     R1796     1
    C1477     R1797     1
    C1477     R1798     1
    C1477     R1799     1
    C1477     R1908     -1
    C1477     R1909     -3
    C1477     R1910     -3
    C1477     R1911     -3
    C1477     R2051     1
    C1477     R2052     1
    C1477     R2053     1
    C1477     R2067     1
    C1477     R2068     1
    C1477     R2069     1
    C1477     R2210     -1
    C1477     R2211     -1
    C1477     R2212     -1
    C1477     R2213     -1
    C1477     R2330     1
    C1477     R2331     1
    C1477     R2332     1
    C1477     R2333     1
    C1477     R2345     1
    C1477     R2346     1
    C1477     R2347     1
    C1477     R2348     1
    C1477     R2466     -1
    C1477     R2467     -1
    C1477     R2468     -1
    C1477     R2479     -2
    C1477     R2480     -2
    C1477     R2481     -2
    C1477     R2482     -2
    C1477     R2483     -1
    C1477     R2592     1
    C1477     R2605     1
    C1477     R2606     1
    C1477     R2607     1
    C1477     R2608     1
    C1477     R2609     1
    C1477     R2718     -1
    C1477     R2719     -3
    C1477     R2720     -3
    C1477     R2721     -3
    C1477     R2820     1
    C1479     R0797     1
    C1479     R0883     1
    C1479     R1027     1
    C1479     R1098     1
    C1479     R1243     1
    C1479     R1244     1
    C1479     R1245     1
    C1479     R1259     1
    C1479     R1260     1
    C1479     R1261     1
    C1479     R1405     -1
    C1479     R1522     1
    C1479     R1537     -1
    C1479     R1538     -1
    C1479     R1539     -1
    C1479     R1658     1
    C1479     R1659     1
    C1479     R1660     1
    C1479     R1671     -2
    C1479     R1672     -2
    C1479     R1673     -1
    C1479     R1674     -2
    C1479     R1675     -1
    C1479     R1783     1
    C1479     R1784     1
    C1479     R1785     1
    C1479     R1786     1
    C1479     R1787     1
    C1479     R1797     1
    C1479     R1798     1
    C1479     R1799     1
    C1479     R1800     1
    C1479     R1801     1
    C1479     R1909     -2
    C1479     R1910     -2
    C1479     R1911     -2
    C1479     R1912     -1
    C1479     R1913     -2
    C1479     R2053     1
    C1479     R2054     1
    C1479     R2055     1
    C1479     R2069     1
    C1479     R2070     1
    C1479     R2071     1
    C1479     R2212     -1
    C1479     R2213     -1
    C1479     R2214     -1
    C1479     R2215     -1
    C1479     R2332     1
    C1479     R2333     1
    C1479     R2334     1
    C1479     R2335     1
    C1479     R2347     1
    C1479     R2348     1
    C1479     R2349     1
    C1479     R2350     1
    C1479     R2467     -1
    C1479     R2468     -1
    C1479     R2469     -1
    C1479     R2470     -1
    C1479     R2481     -2
    C1479     R2482     -2
    C1479     R2483     -1
    C1479     R2484     -2
    C1479     R2485     -1
    C1479     R2593     1
    C1479     R2594     1
    C1479     R2595     1
    C1479     R2596     1
    C1479     R2597     1
    C1479     R2607     1
    C1479     R2608     1
    C1479     R2609     1
    C1479     R2610     1
    C1479     R2611     1
    C1479     R2719     -2
    C1479     R2720     -2
    C1479     R2721     -2
    C1479     R2722     -1
    C1479     R2723     -2
    C1481     R0797     1
    C1481     R0885     1
    C1481     R1029     1
    C1481     R1098     1
    C1481     R1245     1
    C1481     R1246     1
    C1481     R1247     1
    C1481     R1261     1
    C1481     R1262     1
    C1481     R1263     1
    C1481     R1405     -1
    C1481     R1406     -1
    C1481     R1539     -1
    C1481     R1542     -1
    C1481     R1659     1
    C1481     R1660     1
    C1481     R1661     1
    C1481     R1662     1
    C1481     R1673     -1
    C1481     R1674     -2
    C1481     R1675     -1
    C1481     R1676     -2
    C1481     R1677     -1
    C1481     R1785     1
    C1481     R1786     1
    C1481     R1787     1
    C1481     R1788     1
    C1481     R1789     1
    C1481     R1799     1
    C1481     R1800     1
    C1481     R1801     1
    C1481     R1802     1
    C1481     R1803     1
    C1481     R1911     -2
    C1481     R1912     -1
    C1481     R1913     -2
    C1481     R1914     -1
    C1481     R1915     -2
    C1481     R2055     1
    C1481     R2056     1
    C1481     R2057     1
    C1481     R2071     1
    C1481     R2072     1
    C1481     R2073     1
    C1481     R2214     -1
    C1481     R2215     -1
    C1481     R2216     -1
    C1481     R2217     -1
    C1481     R2334     1
    C1481     R2335     1
    C1481     R2336     1
    C1481     R2337     1
    C1481     R2349     1
    C1481     R2350     1
    C1481     R2351     1
    C1481     R2352     1
    C1481     R2469     -1
    C1481     R2470     -1
    C1481     R2471     -1
    C1481     R2472     -1
    C1481     R2483     -1
    C1481     R2484     -2
    C1481     R2485     -1
    C1481     R2486     -2
    C1481     R2487     -1
    C1481     R2595     1
    C1481     R2596     1
    C1481     R2597     1
    C1481     R2598     1
    C1481     R2599     1
    C1481     R2609     1
    C1481     R2610     1
    C1481     R2611     1
    C1481     R2612     1
    C1481     R2613     1
    C1481     R2721     -2
    C1481     R2722     -1
    C1481     R2723     -2
    C1481     R2724     -1
    C1481     R2725     -2
    C1483     R0797     1
    C1483     R0887     1
    C1483     R1031     1
    C1483     R1098     1
    C1483     R1247     1
    C1483     R1248     1
    C1483     R1249     1
    C1483     R1263     1
    C1483     R1264     1
    C1483     R1265     1
    C1483     R1406     -1
    C1483     R1408     -1
    C1483     R1528     1
    C1483     R1542     -1
    C1483     R1661     1
    C1483     R1662     1
    C1483     R1675     -1
    C1483     R1676     -2
    C1483     R1677     -1
    C1483     R1787     1
    C1483     R1788     1
    C1483     R1789     1
    C1483     R1801     1
    C1483     R1802     1
    C1483     R1803     1
    C1483     R1913     -2
    C1483     R1914     -1
    C1483     R1915     -2
    C1483     R2057     1
    C1483     R2058     1
    C1483     R2059     1
    C1483     R2073     1
    C1483     R2074     1
    C1483     R2075     1
    C1483     R2216     -1
    C1483     R2217     -1
    C1483     R2218     -1
    C1483     R2336     1
    C1483     R2337     1
    C1483     R2338     1
    C1483     R2351     1
    C1483     R2352     1
    C1483     R2353     1
    C1483     R2471     -1
    C1483     R2472     -1
    C1483     R2473     -1
    C1483     R2485     -1
    C1483     R2486     -2
    C1483     R2487     -1
    C1483     R2597     1
    C1483     R2598     1
    C1483     R2599     1
    C1483     R2611     1
    C1483     R2612     1
    C1483     R2613     1
    C1483     R2723     -2
    C1483     R2724     -1
    C1483     R2725     -2
    C1485     R0797     1
    C1485     R0889     1
    C1485     R1033     1
    C1485     R1098     1
    C1485     R1249     1
    C1485     R1265     1
    C1485     R1408     -1
    C1485     R1528     1
    C1485     R1677     -1
    C1485     R1789     1
    C1485     R1803     1
    C1485     R1915     -2
    C1485     R2059     1
    C1485     R2075     1
    C1485     R2218     -1
    C1485     R2338     1
    C1485     R2353     1
    C1485     R2473     -1
    C1485     R2487     -1
    C1485     R2599     1
    C1485     R2613     1
    C1485     R2725     -2
    C1491     R0810     1
    C1491     R0895     1
    C1491     R1021     1
    C1491     R1099     1
    C1491     R1271     1
    C1491     R1413     -1
    C1491     R1549     -1
    C1491     R1654     1
    C1491     R1681     -2
    C1491     R1682     -1
    C1491     R1683     -3
    C1491     R1906     -1
    C1491     R1907     -1
    C1491     R2081     1
    C1491     R2223     -1
    C1491     R2224     -1
    C1491     R2329     1
    C1491     R2359     1
    C1491     R2462     -1
    C1491     R2463     -3
    C1491     R2491     -2
    C1491     R2492     -1
    C1491     R2493     -3
    C1491     R2715     -3
    C1491     R2716     -6
    C1491     R2717     -1
    C1491     R2734     1
    C1491     R2736     1
    C1491     R2752     1
    C1491     R2754     1
    C1493     R0810     1
    C1493     R0897     1
    C1493     R1023     1
    C1493     R1099     1
    C1493     R1241     1
    C1493     R1271     1
    C1493     R1272     1
    C1493     R1273     1
    C1493     R1413     -1
    C1493     R1415     -1
    C1493     R1416     -1
    C1493     R1549     -1
    C1493     R1654     1
    C1493     R1655     1
    C1493     R1656     1
    C1493     R1681     -2
    C1493     R1682     -1
    C1493     R1683     -3
    C1493     R1684     -3
    C1493     R1685     -3
    C1493     R1782     1
    C1493     R1906     -1
    C1493     R1907     -1
    C1493     R1908     -1
    C1493     R1909     -3
    C1493     R2051     1
    C1493     R2081     1
    C1493     R2082     1
    C1493     R2083     1
    C1493     R2223     -1
    C1493     R2224     -1
    C1493     R2225     -1
    C1493     R2226     -1
    C1493     R2329     1
    C1493     R2330     1
    C1493     R2331     1
    C1493     R2359     1
    C1493     R2360     1
    C1493     R2361     1
    C1493     R2463     -3
    C1493     R2466     -1
    C1493     R2491     -2
    C1493     R2492     -1
    C1493     R2493     -3
    C1493     R2494     -3
    C1493     R2495     -3
    C1493     R2592     1
    C1493     R2715     -3
    C1493     R2716     -6
    C1493     R2717     -1
    C1493     R2718     -1
    C1493     R2719     -3
    C1493     R2734     1
    C1493     R2736     1
    C1493     R2752     1
    C1493     R2754     1
    C1493     R2840     1
    C1495     R0811     1
    C1495     R0899     1
    C1495     R1025     1
    C1495     R1099     1
    C1495     R1241     1
    C1495     R1242     1
    C1495     R1243     1
    C1495     R1273     1
    C1495     R1274     1
    C1495     R1275     1
    C1495     R1415     -1
    C1495     R1416     -1
    C1495     R1418     -1
    C1495     R1522     1
    C1495     R1552     -1
    C1495     R1655     1
    C1495     R1656     1
    C1495     R1658     1
    C1495     R1683     -2
    C1495     R1684     -2
    C1495     R1685     -2
    C1495     R1686     -2
    C1495     R1687     -2
    C1495     R1782     1
    C1495     R1809     1
    C1495     R1810     1
    C1495     R1811     1
    C1495     R1812     1
    C1495     R1813     1
    C1495     R1908     -1
    C1495     R1909     -3
    C1495     R1910     -3
    C1495     R1911     -3
    C1495     R2051     1
    C1495     R2052     1
    C1495     R2053     1
    C1495     R2083     1
    C1495     R2084     1
    C1495     R2085     1
    C1495     R2225     -1
    C1495     R2226     -1
    C1495     R2227     -1
    C1495     R2228     -1
    C1495     R2330     1
    C1495     R2331     1
    C1495     R2332     1
    C1495     R2333     1
    C1495     R2360     1
    C1495     R2361     1
    C1495     R2362     1
    C1495     R2363     1
    C1495     R2466     -1
    C1495     R2467     -1
    C1495     R2468     -1
    C1495     R2493     -2
    C1495     R2494     -2
    C1495     R2495     -2
    C1495     R2496     -2
    C1495     R2497     -2
    C1495     R2592     1
    C1495     R2619     1
    C1495     R2620     1
    C1495     R2621     1
    C1495     R2622     1
    C1495     R2623     1
    C1495     R2718     -1
    C1495     R2719     -3
    C1495     R2720     -3
    C1495     R2721     -3
    C1495     R2840     1
    C1497     R0811     1
    C1497     R0901     1
    C1497     R1027     1
    C1497     R1099     1
    C1497     R1243     1
    C1497     R1244     1
    C1497     R1245     1
    C1497     R1275     1
    C1497     R1276     1
    C1497     R1277     1
    C1497     R1418     -1
    C1497     R1419     -1
    C1497     R1420     -1
    C1497     R1522     1
    C1497     R1552     -1
    C1497     R1658     1
    C1497     R1659     1
    C1497     R1660     1
    C1497     R1685     -2
    C1497     R1686     -2
    C1497     R1687     -2
    C1497     R1688     -2
    C1497     R1689     -2
    C1497     R1783     1
    C1497     R1784     1
    C1497     R1785     1
    C1497     R1786     1
    C1497     R1787     1
    C1497     R1811     1
    C1497     R1812     1
    C1497     R1813     1
    C1497     R1814     1
    C1497     R1815     1
    C1497     R1909     -2
    C1497     R1910     -2
    C1497     R1911     -2
    C1497     R1912     -1
    C1497     R1913     -2
    C1497     R2053     1
    C1497     R2054     1
    C1497     R2055     1
    C1497     R2085     1
    C1497     R2086     1
    C1497     R2087     1
    C1497     R2227     -1
    C1497     R2228     -1
    C1497     R2229     -1
    C1497     R2230     -1
    C1497     R2332     1
    C1497     R2333     1
    C1497     R2334     1
    C1497     R2335     1
    C1497     R2362     1
    C1497     R2363     1
    C1497     R2364     1
    C1497     R2365     1
    C1497     R2467     -1
    C1497     R2468     -1
    C1497     R2469     -1
    C1497     R2470     -1
    C1497     R2495     -2
    C1497     R2496     -2
    C1497     R2497     -2
    C1497     R2498     -2
    C1497     R2499     -2
    C1497     R2593     1
    C1497     R2594     1
    C1497     R2595     1
    C1497     R2596     1
    C1497     R2597     1
    C1497     R2621     1
    C1497     R2622     1
    C1497     R2623     1
    C1497     R2624     1
    C1497     R2625     1
    C1497     R2719     -2
    C1497     R2720     -2
    C1497     R2721     -2
    C1497     R2722     -1
    C1497     R2723     -2
    C1499     R0811     1
    C1499     R0903     1
    C1499     R1029     1
    C1499     R1099     1
    C1499     R1245     1
    C1499     R1246     1
    C1499     R1247     1
    C1499     R1277     1
    C1499     R1278     1
    C1499     R1279     1
    C1499     R1419     -1
    C1499     R1420     -1
    C1499     R1421     -1
    C1499     R1422     -1
    C1499     R1659     1
    C1499     R1660     1
    C1499     R1661     1
    C1499     R1662     1
    C1499     R1687     -2
    C1499     R1688     -2
    C1499     R1689     -2
    C1499     R1690     -2
    C1499     R1691     -2
    C1499     R1785     1
    C1499     R1786     1
    C1499     R1787     1
    C1499     R1788     1
    C1499     R1789     1
    C1499     R1813     1
    C1499     R1814     1
    C1499     R1815     1
    C1499     R1816     1
    C1499     R1817     1
    C1499     R1911     -2
    C1499     R1912     -1
    C1499     R1913     -2
    C1499     R1914     -1
    C1499     R1915     -2
    C1499     R2055     1
    C1499     R2056     1
    C1499     R2057     1
    C1499     R2087     1
    C1499     R2088     1
    C1499     R2089     1
    C1499     R2229     -1
    C1499     R2230     -1
    C1499     R2231     -1
    C1499     R2232     -1
    C1499     R2334     1
    C1499     R2335     1
    C1499     R2336     1
    C1499     R2337     1
    C1499     R2364     1
    C1499     R2365     1
    C1499     R2366     1
    C1499     R2367     1
    C1499     R2469     -1
    C1499     R2470     -1
    C1499     R2471     -1
    C1499     R2472     -1
    C1499     R2497     -2
    C1499     R2498     -2
    C1499     R2499     -2
    C1499     R2500     -2
    C1499     R2501     -2
    C1499     R2595     1
    C1499     R2596     1
    C1499     R2597     1
    C1499     R2598     1
    C1499     R2599     1
    C1499     R2623     1
    C1499     R2624     1
    C1499     R2625     1
    C1499     R2626     1
    C1499     R2627     1
    C1499     R2721     -2
    C1499     R2722     -1
    C1499     R2723     -2
    C1499     R2724     -1
    C1499     R2725     -2
    C1501     R0811     1
    C1501     R0905     1
    C1501     R1031     1
    C1501     R1099     1
    C1501     R1247     1
    C1501     R1248     1
    C1501     R1249     1
    C1501     R1279     1
    C1501     R1280     1
    C1501     R1281     1
    C1501     R1421     -1
    C1501     R1422     -1
    C1501     R1423     -1
    C1501     R1528     1
    C1501     R1661     1
    C1501     R1662     1
    C1501     R1689     -2
    C1501     R1690     -2
    C1501     R1691     -2
    C1501     R1787     1
    C1501     R1788     1
    C1501     R1789     1
    C1501     R1815     1
    C1501     R1816     1
    C1501     R1817     1
    C1501     R1913     -2
    C1501     R1914     -1
    C1501     R1915     -2
    C1501     R2057     1
    C1501     R2058     1
    C1501     R2059     1
    C1501     R2089     1
    C1501     R2090     1
    C1501     R2091     1
    C1501     R2231     -1
    C1501     R2232     -1
    C1501     R2233     -1
    C1501     R2336     1
    C1501     R2337     1
    C1501     R2338     1
    C1501     R2366     1
    C1501     R2367     1
    C1501     R2368     1
    C1501     R2471     -1
    C1501     R2472     -1
    C1501     R2473     -1
    C1501     R2499     -2
    C1501     R2500     -2
    C1501     R2501     -2
    C1501     R2597     1
    C1501     R2598     1
    C1501     R2599     1
    C1501     R2625     1
    C1501     R2626     1
    C1501     R2627     1
    C1501     R2723     -2
    C1501     R2724     -1
    C1501     R2725     -2
    C1503     R0811     1
    C1503     R0907     1
    C1503     R1033     1
    C1503     R1099     1
    C1503     R1249     1
    C1503     R1281     1
    C1503     R1423     -1
    C1503     R1528     1
    C1503     R1691     -2
    C1503     R1789     1
    C1503     R1817     1
    C1503     R1915     -2
    C1503     R2059     1
    C1503     R2091     1
    C1503     R2233     -1
    C1503     R2338     1
    C1503     R2368     1
    C1503     R2473     -1
    C1503     R2501     -2
    C1503     R2599     1
    C1503     R2627     1
    C1503     R2725     -2
    C1532     R0936     1
    C1532     R1026     1
    C1532     R1101     1
    C1532     R1242     1
    C1532     R1243     1
    C1532     R1244     1
    C1532     R1306     1
    C1532     R1307     1
    C1532     R1308     1
    C1532     R1446     -1
    C1532     R1447     -1
    C1532     R1448     -1
    C1532     R1449     -1
    C1532     R1522     1
    C1532     R1656     1
    C1532     R1658     1
    C1532     R1659     1
    C1532     R1712     -2
    C1532     R1713     -2
    C1532     R1714     -2
    C1532     R1715     -2
    C1532     R1716     -2
    C1532     R1782     1
    C1532     R1783     1
    C1532     R1784     1
    C1532     R1785     1
    C1532     R1786     1
    C1532     R1838     1
    C1532     R1839     1
    C1532     R1840     1
    C1532     R1841     1
    C1532     R1842     1
    C1532     R1908     -1
    C1532     R1909     -2
    C1532     R1910     -2
    C1532     R1911     -2
    C1532     R1912     -2
    C1532     R1972     1
    C1532     R1973     1
    C1532     R1974     1
    C1532     R2196     1
    C1532     R2197     1
    C1532     R2198     1
    C1532     R2256     1
    C1532     R2257     1
    C1532     R2258     1
    C1532     R2259     1
    C1532     R2331     -1
    C1532     R2332     -1
    C1532     R2333     -1
    C1532     R2334     -1
    C1532     R2391     -1
    C1532     R2392     -1
    C1532     R2393     -1
    C1532     R2394     -1
    C1532     R2466     1
    C1532     R2467     1
    C1532     R2468     1
    C1532     R2469     1
    C1532     R2522     1
    C1532     R2523     1
    C1532     R2524     1
    C1532     R2525     1
    C1532     R2526     1
    C1532     R2592     -1
    C1532     R2593     -2
    C1532     R2594     -2
    C1532     R2595     -2
    C1532     R2596     -2
    C1532     R2648     -2
    C1532     R2649     -2
    C1532     R2650     -2
    C1532     R2651     -2
    C1532     R2652     -2
    C1532     R2718     1
    C1532     R2719     1
    C1532     R2720     1
    C1532     R2721     1
    C1532     R2722     1
    C1534     R0938     1
    C1534     R1028     1
    C1534     R1101     1
    C1534     R1244     1
    C1534     R1245     1
    C1534     R1246     1
    C1534     R1308     1
    C1534     R1309     1
    C1534     R1310     1
    C1534     R1448     -1
    C1534     R1449     -1
    C1534     R1450     -1
    C1534     R1586     -1
    C1534     R1658     1
    C1534     R1659     1
    C1534     R1660     1
    C1534     R1661     1
    C1534     R1714     -2
    C1534     R1715     -2
    C1534     R1716     -2
    C1534     R1717     -2
    C1534     R1718     -2
    C1534     R1784     1
    C1534     R1785     1
    C1534     R1786     1
    C1534     R1787     1
    C1534     R1788     1
    C1534     R1840     1
    C1534     R1841     1
    C1534     R1842     1
    C1534     R1843     1
    C1534     R1844     1
    C1534     R1910     -2
    C1534     R1911     -2
    C1534     R1912     -2
    C1534     R1913     -2
    C1534     R1914     -2
    C1534     R1974     1
    C1534     R1975     1
    C1534     R1976     1
    C1534     R2198     1
    C1534     R2199     1
    C1534     R2200     1
    C1534     R2258     1
    C1534     R2259     1
    C1534     R2260     1
    C1534     R2261     1
    C1534     R2333     -1
    C1534     R2334     -1
    C1534     R2335     -1
    C1534     R2336     -1
    C1534     R2393     -1
    C1534     R2394     -1
    C1534     R2395     -1
    C1534     R2396     -1
    C1534     R2468     1
    C1534     R2469     1
    C1534     R2470     1
    C1534     R2471     1
    C1534     R2524     1
    C1534     R2525     1
    C1534     R2526     1
    C1534     R2527     1
    C1534     R2528     1
    C1534     R2594     -2
    C1534     R2595     -2
    C1534     R2596     -2
    C1534     R2597     -2
    C1534     R2598     -2
    C1534     R2650     -2
    C1534     R2651     -2
    C1534     R2652     -2
    C1534     R2653     -2
    C1534     R2654     -2
    C1534     R2720     1
    C1534     R2721     1
    C1534     R2722     1
    C1534     R2723     1
    C1534     R2724     1
    C1536     R0940     1
    C1536     R1030     1
    C1536     R1101     1
    C1536     R1246     1
    C1536     R1247     1
    C1536     R1248     1
    C1536     R1310     1
    C1536     R1311     1
    C1536     R1312     1
    C1536     R1450     -1
    C1536     R1452     -1
    C1536     R1528     1
    C1536     R1586     -1
    C1536     R1588     -1
    C1536     R1660     1
    C1536     R1661     1
    C1536     R1662     1
    C1536     R1716     -2
    C1536     R1717     -2
    C1536     R1718     -2
    C1536     R1719     -2
    C1536     R1786     1
    C1536     R1787     1
    C1536     R1788     1
    C1536     R1789     1
    C1536     R1842     1
    C1536     R1843     1
    C1536     R1844     1
    C1536     R1845     1
    C1536     R1912     -2
    C1536     R1913     -2
    C1536     R1914     -2
    C1536     R1915     -2
    C1536     R1976     1
    C1536     R1977     1
    C1536     R1978     1
    C1536     R2200     1
    C1536     R2201     1
    C1536     R2202     1
    C1536     R2260     1
    C1536     R2261     1
    C1536     R2262     1
    C1536     R2263     1
    C1536     R2335     -1
    C1536     R2336     -1
    C1536     R2337     -1
    C1536     R2338     -1
    C1536     R2395     -1
    C1536     R2396     -1
    C1536     R2397     -1
    C1536     R2398     -1
    C1536     R2470     1
    C1536     R2471     1
    C1536     R2472     1
    C1536     R2473     1
    C1536     R2526     1
    C1536     R2527     1
    C1536     R2528     1
    C1536     R2529     1
    C1536     R2596     -2
    C1536     R2597     -2
    C1536     R2598     -2
    C1536     R2599     -2
    C1536     R2652     -2
    C1536     R2653     -2
    C1536     R2654     -2
    C1536     R2655     -2
    C1536     R2722     1
    C1536     R2723     1
    C1536     R2724     1
    C1536     R2725     1
    C1538     R0942     1
    C1538     R1032     1
    C1538     R1101     1
    C1538     R1248     1
    C1538     R1249     1
    C1538     R1312     1
    C1538     R1313     1
    C1538     R1452     -1
    C1538     R1528     1
    C1538     R1588     -1
    C1538     R1662     1
    C1538     R1718     -2
    C1538     R1719     -2
    C1538     R1788     1
    C1538     R1789     1
    C1538     R1844     1
    C1538     R1845     1
    C1538     R1914     -2
    C1538     R1915     -2
    C1538     R1978     1
    C1538     R1979     1
    C1538     R2202     1
    C1538     R2203     1
    C1538     R2262     1
    C1538     R2263     1
    C1538     R2337     -1
    C1538     R2338     -1
    C1538     R2397     -1
    C1538     R2398     -1
    C1538     R2472     1
    C1538     R2473     1
    C1538     R2528     1
    C1538     R2529     1
    C1538     R2598     -2
    C1538     R2599     -2
    C1538     R2654     -2
    C1538     R2655     -2
    C1538     R2724     1
    C1538     R2725     1
    C1546     R2932     1
    C1546     R0950     1
    C1546     R1102     1
    C1546     R1318     1
    C1546     R1595     -1
    C1546     R1654     1
    C1546     R1655     1
    C1546     R1725     -2
    C1546     R1726     -3
    C1546     R1782     1
    C1546     R1906     -1
    C1546     R1907     -1
    C1546     R1908     -1
    C1546     R1986     1
    C1546     R2192     3
    C1546     R2269     1
    C1546     R2270     1
    C1546     R2402     -1
    C1546     R2405     -1
    C1546     R2462     1
    C1546     R2463     3
    C1546     R2465     1
    C1546     R2591     -1
    C1546     R2592     -1
    C1546     R2659     -1
    C1546     R2661     -2
    C1546     R2662     -3
    C1546     R2715     1
    C1546     R2718     1
    C1546     R2734     1
    C1546     R2739     1
    C1546     R2748     1
    C1546     R2761     1
    C1546     R2885     1
    C1548     R0952     1
    C1548     R1102     1
    C1548     R1241     1
    C1548     R1242     1
    C1548     R1321     1
    C1548     R1322     1
    C1548     R1522     1
    C1548     R1595     -1
    C1548     R1596     -1
    C1548     R1597     -1
    C1548     R1654     1
    C1548     R1655     1
    C1548     R1656     1
    C1548     R1725     -2
    C1548     R1726     -3
    C1548     R1727     -3
    C1548     R1728     -2
    C1548     R1782     1
    C1548     R1783     1
    C1548     R1784     1
    C1548     R1906     -1
    C1548     R1907     -1
    C1548     R1908     -1
    C1548     R1909     -2
    C1548     R1910     -2
    C1548     R1986     1
    C1548     R1987     1
    C1548     R1988     1
    C1548     R2195     1
    C1548     R2196     1
    C1548     R2269     1
    C1548     R2270     1
    C1548     R2271     1
    C1548     R2272     1
    C1548     R2331     -1
    C1548     R2332     -1
    C1548     R2405     -1
    C1548     R2406     -1
    C1548     R2407     -1
    C1548     R2465     1
    C1548     R2466     1
    C1548     R2467     1
    C1548     R2591     -1
    C1548     R2592     -1
    C1548     R2593     -2
    C1548     R2594     -2
    C1548     R2661     -2
    C1548     R2662     -3
    C1548     R2663     -3
    C1548     R2664     -2
    C1548     R2718     1
    C1548     R2719     1
    C1548     R2720     1
    C1548     R2734     1
    C1548     R2739     1
    C1548     R2748     1
    C1548     R2761     1
    C1548     R2885     1
    C1548     R2887     1
    C1550     R0841     1
    C1550     R0954     1
    C1550     R1026     1
    C1550     R1102     1
    C1550     R1242     1
    C1550     R1243     1
    C1550     R1244     1
    C1550     R1322     1
    C1550     R1323     1
    C1550     R1324     1
    C1550     R1463     -1
    C1550     R1522     1
    C1550     R1596     -1
    C1550     R1597     -1
    C1550     R1599     -1
    C1550     R1656     1
    C1550     R1658     1
    C1550     R1659     1
    C1550     R1726     -2
    C1550     R1727     -2
    C1550     R1728     -2
    C1550     R1729     -2
    C1550     R1730     -2
    C1550     R1782     1
    C1550     R1783     1
    C1550     R1784     1
    C1550     R1785     1
    C1550     R1786     1
    C1550     R1852     1
    C1550     R1853     1
    C1550     R1854     1
    C1550     R1855     1
    C1550     R1856     1
    C1550     R1908     -1
    C1550     R1909     -2
    C1550     R1910     -2
    C1550     R1911     -2
    C1550     R1912     -1
    C1550     R1988     1
    C1550     R1989     1
    C1550     R1990     1
    C1550     R2196     1
    C1550     R2197     1
    C1550     R2198     1
    C1550     R2271     1
    C1550     R2272     1
    C1550     R2273     1
    C1550     R2274     1
    C1550     R2331     -1
    C1550     R2332     -1
    C1550     R2333     -1
    C1550     R2334     -1
    C1550     R2406     -1
    C1550     R2407     -1
    C1550     R2408     -1
    C1550     R2409     -1
    C1550     R2466     1
    C1550     R2467     1
    C1550     R2468     1
    C1550     R2469     1
    C1550     R2536     1
    C1550     R2537     1
    C1550     R2538     1
    C1550     R2539     1
    C1550     R2540     1
    C1550     R2592     -1
    C1550     R2593     -2
    C1550     R2594     -2
    C1550     R2595     -2
    C1550     R2596     -1
    C1550     R2662     -2
    C1550     R2663     -2
    C1550     R2664     -2
    C1550     R2665     -1
    C1550     R2666     -2
    C1550     R2718     1
    C1550     R2719     1
    C1550     R2720     1
    C1550     R2721     1
    C1550     R2722     1
    C1550     R2887     1
    C1552     R0841     1
    C1552     R0956     1
    C1552     R1028     1
    C1552     R1102     1
    C1552     R1244     1
    C1552     R1245     1
    C1552     R1246     1
    C1552     R1324     1
    C1552     R1325     1
    C1552     R1326     1
    C1552     R1463     -1
    C1552     R1465     -1
    C1552     R1466     -1
    C1552     R1599     -1
    C1552     R1658     1
    C1552     R1659     1
    C1552     R1660     1
    C1552     R1661     1
    C1552     R1728     -2
    C1552     R1729     -2
    C1552     R1730     -2
    C1552     R1731     -2
    C1552     R1732     -2
    C1552     R1784     1
    C1552     R1785     1
    C1552     R1786     1
    C1552     R1787     1
    C1552     R1788     1
    C1552     R1854     1
    C1552     R1855     1
    C1552     R1856     1
    C1552     R1857     1
    C1552     R1858     1
    C1552     R1910     -2
    C1552     R1911     -2
    C1552     R1912     -1
    C1552     R1913     -2
    C1552     R1914     -1
    C1552     R1990     1
    C1552     R1991     1
    C1552     R1992     1
    C1552     R2198     1
    C1552     R2199     1
    C1552     R2200     1
    C1552     R2273     1
    C1552     R2274     1
    C1552     R2275     1
    C1552     R2276     1
    C1552     R2333     -1
    C1552     R2334     -1
    C1552     R2335     -1
    C1552     R2336     -1
    C1552     R2408     -1
    C1552     R2409     -1
    C1552     R2410     -1
    C1552     R2411     -1
    C1552     R2468     1
    C1552     R2469     1
    C1552     R2470     1
    C1552     R2471     1
    C1552     R2538     1
    C1552     R2539     1
    C1552     R2540     1
    C1552     R2541     1
    C1552     R2542     1
    C1552     R2594     -2
    C1552     R2595     -2
    C1552     R2596     -1
    C1552     R2597     -2
    C1552     R2598     -1
    C1552     R2664     -2
    C1552     R2665     -1
    C1552     R2666     -2
    C1552     R2667     -1
    C1552     R2668     -2
    C1552     R2720     1
    C1552     R2721     1
    C1552     R2722     1
    C1552     R2723     1
    C1552     R2724     1
    C1554     R0841     1
    C1554     R0958     1
    C1554     R1030     1
    C1554     R1102     1
    C1554     R1246     1
    C1554     R1247     1
    C1554     R1248     1
    C1554     R1326     1
    C1554     R1327     1
    C1554     R1328     1
    C1554     R1465     -1
    C1554     R1466     -1
    C1554     R1468     -1
    C1554     R1528     1
    C1554     R1602     -1
    C1554     R1660     1
    C1554     R1661     1
    C1554     R1662     1
    C1554     R1730     -2
    C1554     R1731     -2
    C1554     R1732     -2
    C1554     R1733     -2
    C1554     R1786     1
    C1554     R1787     1
    C1554     R1788     1
    C1554     R1789     1
    C1554     R1856     1
    C1554     R1857     1
    C1554     R1858     1
    C1554     R1859     1
    C1554     R1912     -1
    C1554     R1913     -2
    C1554     R1914     -1
    C1554     R1915     -2
    C1554     R1992     1
    C1554     R1993     1
    C1554     R1994     1
    C1554     R2200     1
    C1554     R2201     1
    C1554     R2202     1
    C1554     R2275     1
    C1554     R2276     1
    C1554     R2277     1
    C1554     R2278     1
    C1554     R2335     -1
    C1554     R2336     -1
    C1554     R2337     -1
    C1554     R2338     -1
    C1554     R2410     -1
    C1554     R2411     -1
    C1554     R2412     -1
    C1554     R2413     -1
    C1554     R2470     1
    C1554     R2471     1
    C1554     R2472     1
    C1554     R2473     1
    C1554     R2540     1
    C1554     R2541     1
    C1554     R2542     1
    C1554     R2543     1
    C1554     R2596     -1
    C1554     R2597     -2
    C1554     R2598     -1
    C1554     R2599     -2
    C1554     R2666     -2
    C1554     R2667     -1
    C1554     R2668     -2
    C1554     R2669     -1
    C1554     R2722     1
    C1554     R2723     1
    C1554     R2724     1
    C1554     R2725     1
    C1556     R0841     1
    C1556     R0960     1
    C1556     R1032     1
    C1556     R1102     1
    C1556     R1248     1
    C1556     R1249     1
    C1556     R1328     1
    C1556     R1329     1
    C1556     R1468     -1
    C1556     R1528     1
    C1556     R1602     -1
    C1556     R1662     1
    C1556     R1732     -2
    C1556     R1733     -2
    C1556     R1788     1
    C1556     R1789     1
    C1556     R1858     1
    C1556     R1859     1
    C1556     R1914     -1
    C1556     R1915     -2
    C1556     R1994     1
    C1556     R1995     1
    C1556     R2202     1
    C1556     R2203     1
    C1556     R2277     1
    C1556     R2278     1
    C1556     R2337     -1
    C1556     R2338     -1
    C1556     R2412     -1
    C1556     R2413     -1
    C1556     R2472     1
    C1556     R2473     1
    C1556     R2542     1
    C1556     R2543     1
    C1556     R2598     -1
    C1556     R2599     -2
    C1556     R2668     -2
    C1556     R2669     -1
    C1556     R2724     1
    C1556     R2725     1
    C1567     R0971     1
    C1567     R1025     1
    C1567     R1241     1
    C1567     R1242     1
    C1567     R1243     1
    C1567     R1337     1
    C1567     R1338     1
    C1567     R1339     1
    C1567     R1476     -1
    C1567     R1477     -1
    C1567     R1478     -1
    C1567     R1522     1
    C1567     R1610     -1
    C1567     R1655     1
    C1567     R1656     1
    C1567     R1658     1
    C1567     R1739     -1
    C1567     R1740     -2
    C1567     R1741     -2
    C1567     R1742     -2
    C1567     R1743     -2
    C1567     R1782     1
    C1567     R1865     1
    C1567     R1866     1
    C1567     R1867     1
    C1567     R1868     1
    C1567     R1869     1
    C1567     R1908     -1
    C1567     R1909     -3
    C1567     R1910     -3
    C1567     R1911     -3
    C1567     R2051     1
    C1567     R2052     1
    C1567     R2053     1
    C1567     R2147     1
    C1567     R2148     1
    C1567     R2149     1
    C1567     R2285     -1
    C1567     R2286     -1
    C1567     R2287     -1
    C1567     R2288     -1
    C1567     R2330     1
    C1567     R2331     1
    C1567     R2332     1
    C1567     R2333     1
    C1567     R2420     1
    C1567     R2421     1
    C1567     R2422     1
    C1567     R2423     1
    C1567     R2466     -1
    C1567     R2467     -1
    C1567     R2468     -1
    C1567     R2549     -1
    C1567     R2550     -2
    C1567     R2551     -2
    C1567     R2552     -2
    C1567     R2553     -2
    C1567     R2592     1
    C1567     R2675     1
    C1567     R2676     1
    C1567     R2677     1
    C1567     R2678     1
    C1567     R2679     1
    C1567     R2718     -1
    C1567     R2719     -3
    C1567     R2720     -3
    C1567     R2721     -3
    C1567     R2794     -1
    C1569     R0973     1
    C1569     R1027     1
    C1569     R1243     1
    C1569     R1244     1
    C1569     R1245     1
    C1569     R1339     1
    C1569     R1340     1
    C1569     R1341     1
    C1569     R1477     -1
    C1569     R1478     -1
    C1569     R1479     -1
    C1569     R1480     -1
    C1569     R1522     1
    C1569     R1658     1
    C1569     R1659     1
    C1569     R1660     1
    C1569     R1741     -2
    C1569     R1742     -2
    C1569     R1743     -2
    C1569     R1744     -2
    C1569     R1745     -2
    C1569     R1783     1
    C1569     R1784     1
    C1569     R1785     1
    C1569     R1786     1
    C1569     R1787     1
    C1569     R1867     1
    C1569     R1868     1
    C1569     R1869     1
    C1569     R1870     1
    C1569     R1871     1
    C1569     R1909     -2
    C1569     R1910     -2
    C1569     R1911     -2
    C1569     R1912     -1
    C1569     R1913     -2
    C1569     R2053     1
    C1569     R2054     1
    C1569     R2055     1
    C1569     R2149     1
    C1569     R2150     1
    C1569     R2151     1
    C1569     R2287     -1
    C1569     R2288     -1
    C1569     R2289     -1
    C1569     R2290     -1
    C1569     R2332     1
    C1569     R2333     1
    C1569     R2334     1
    C1569     R2335     1
    C1569     R2422     1
    C1569     R2423     1
    C1569     R2424     1
    C1569     R2425     1
    C1569     R2467     -1
    C1569     R2468     -1
    C1569     R2469     -1
    C1569     R2470     -1
    C1569     R2551     -2
    C1569     R2552     -2
    C1569     R2553     -2
    C1569     R2554     -2
    C1569     R2555     -2
    C1569     R2593     1
    C1569     R2594     1
    C1569     R2595     1
    C1569     R2596     1
    C1569     R2597     1
    C1569     R2677     1
    C1569     R2678     1
    C1569     R2679     1
    C1569     R2680     1
    C1569     R2681     1
    C1569     R2719     -2
    C1569     R2720     -2
    C1569     R2721     -2
    C1569     R2722     -1
    C1569     R2723     -2
    C1569     R2794     -1
    C1571     R0975     1
    C1571     R1029     1
    C1571     R1245     1
    C1571     R1246     1
    C1571     R1247     1
    C1571     R1341     1
    C1571     R1342     1
    C1571     R1343     1
    C1571     R1479     -1
    C1571     R1480     -1
    C1571     R1616     -1
    C1571     R1617     -1
    C1571     R1659     1
    C1571     R1660     1
    C1571     R1661     1
    C1571     R1662     1
    C1571     R1743     -2
    C1571     R1744     -2
    C1571     R1745     -2
    C1571     R1746     -2
    C1571     R1747     -2
    C1571     R1785     1
    C1571     R1786     1
    C1571     R1787     1
    C1571     R1788     1
    C1571     R1789     1
    C1571     R1869     1
    C1571     R1870     1
    C1571     R1871     1
    C1571     R1872     1
    C1571     R1873     1
    C1571     R1911     -2
    C1571     R1912     -1
    C1571     R1913     -2
    C1571     R1914     -1
    C1571     R1915     -2
    C1571     R2055     1
    C1571     R2056     1
    C1571     R2057     1
    C1571     R2151     1
    C1571     R2152     1
    C1571     R2153     1
    C1571     R2289     -1
    C1571     R2290     -1
    C1571     R2291     -1
    C1571     R2292     -1
    C1571     R2334     1
    C1571     R2335     1
    C1571     R2336     1
    C1571     R2337     1
    C1571     R2424     1
    C1571     R2425     1
    C1571     R2426     1
    C1571     R2427     1
    C1571     R2469     -1
    C1571     R2470     -1
    C1571     R2471     -1
    C1571     R2472     -1
    C1571     R2553     -2
    C1571     R2554     -2
    C1571     R2555     -2
    C1571     R2556     -2
    C1571     R2557     -2
    C1571     R2595     1
    C1571     R2596     1
    C1571     R2597     1
    C1571     R2598     1
    C1571     R2599     1
    C1571     R2679     1
    C1571     R2680     1
    C1571     R2681     1
    C1571     R2682     1
    C1571     R2683     1
    C1571     R2721     -2
    C1571     R2722     -1
    C1571     R2723     -2
    C1571     R2724     -1
    C1571     R2725     -2
    C1571     R2794     -1
    C1573     R0977     1
    C1573     R1031     1
    C1573     R1247     1
    C1573     R1248     1
    C1573     R1249     1
    C1573     R1343     1
    C1573     R1344     1
    C1573     R1345     1
    C1573     R1483     -1
    C1573     R1528     1
    C1573     R1616     -1
    C1573     R1617     -1
    C1573     R1661     1
    C1573     R1662     1
    C1573     R1745     -2
    C1573     R1746     -2
    C1573     R1747     -2
    C1573     R1787     1
    C1573     R1788     1
    C1573     R1789     1
    C1573     R1871     1
    C1573     R1872     1
    C1573     R1873     1
    C1573     R1913     -2
    C1573     R1914     -1
    C1573     R1915     -2
    C1573     R2057     1
    C1573     R2058     1
    C1573     R2059     1
    C1573     R2153     1
    C1573     R2154     1
    C1573     R2155     1
    C1573     R2291     -1
    C1573     R2292     -1
    C1573     R2293     -1
    C1573     R2336     1
    C1573     R2337     1
    C1573     R2338     1
    C1573     R2426     1
    C1573     R2427     1
    C1573     R2428     1
    C1573     R2471     -1
    C1573     R2472     -1
    C1573     R2473     -1
    C1573     R2555     -2
    C1573     R2556     -2
    C1573     R2557     -2
    C1573     R2597     1
    C1573     R2598     1
    C1573     R2599     1
    C1573     R2681     1
    C1573     R2682     1
    C1573     R2683     1
    C1573     R2723     -2
    C1573     R2724     -1
    C1573     R2725     -2
    C1573     R2794     -1
    C1575     R0979     1
    C1575     R1033     1
    C1575     R1249     1
    C1575     R1345     1
    C1575     R1483     -1
    C1575     R1528     1
    C1575     R1747     -2
    C1575     R1789     1
    C1575     R1873     1
    C1575     R1915     -2
    C1575     R2059     1
    C1575     R2155     1
    C1575     R2293     -1
    C1575     R2338     1
    C1575     R2428     1
    C1575     R2473     -1
    C1575     R2557     -2
    C1575     R2599     1
    C1575     R2683     1
    C1575     R2725     -2
    C1575     R2794     -1
    C1603     R1007     1
    C1603     R1025     1
    C1603     R1105     1
    C1603     R1241     1
    C1603     R1242     1
    C1603     R1243     1
    C1603     R1369     1
    C1603     R1370     1
    C1603     R1371     1
    C1603     R1507     -1
    C1603     R1508     -1
    C1603     R1522     1
    C1603     R1640     -1
    C1603     R1641     -1
    C1603     R1655     1
    C1603     R1656     1
    C1603     R1658     1
    C1603     R1767     -2
    C1603     R1768     -2
    C1603     R1769     -2
    C1603     R1770     -2
    C1603     R1771     -2
    C1603     R1782     1
    C1603     R1894     1
    C1603     R1895     1
    C1603     R1896     1
    C1603     R1897     1
    C1603     R1908     -1
    C1603     R1909     -3
    C1603     R1910     -3
    C1603     R1911     -3
    C1603     R2051     1
    C1603     R2052     1
    C1603     R2053     1
    C1603     R2179     1
    C1603     R2180     1
    C1603     R2181     1
    C1603     R2315     -1
    C1603     R2316     -1
    C1603     R2317     -1
    C1603     R2318     -1
    C1603     R2330     1
    C1603     R2331     1
    C1603     R2332     1
    C1603     R2333     1
    C1603     R2450     1
    C1603     R2451     1
    C1603     R2452     1
    C1603     R2453     1
    C1603     R2466     -1
    C1603     R2467     -1
    C1603     R2468     -1
    C1603     R2577     -2
    C1603     R2578     -2
    C1603     R2579     -2
    C1603     R2580     -2
    C1603     R2581     -2
    C1603     R2592     1
    C1603     R2704     1
    C1603     R2705     1
    C1603     R2706     1
    C1603     R2707     1
    C1603     R2718     -1
    C1603     R2719     -3
    C1603     R2720     -3
    C1603     R2721     -3
    C1605     R1009     1
    C1605     R1027     1
    C1605     R1105     1
    C1605     R1243     1
    C1605     R1244     1
    C1605     R1245     1
    C1605     R1371     1
    C1605     R1372     1
    C1605     R1373     1
    C1605     R1507     -1
    C1605     R1508     -1
    C1605     R1522     1
    C1605     R1644     -1
    C1605     R1645     -1
    C1605     R1658     1
    C1605     R1659     1
    C1605     R1660     1
    C1605     R1769     -2
    C1605     R1770     -2
    C1605     R1771     -2
    C1605     R1772     -2
    C1605     R1773     -2
    C1605     R1783     1
    C1605     R1784     1
    C1605     R1785     1
    C1605     R1786     1
    C1605     R1787     1
    C1605     R1895     1
    C1605     R1896     1
    C1605     R1897     1
    C1605     R1898     1
    C1605     R1899     1
    C1605     R1909     -2
    C1605     R1910     -2
    C1605     R1911     -2
    C1605     R1912     -1
    C1605     R1913     -2
    C1605     R2053     1
    C1605     R2054     1
    C1605     R2055     1
    C1605     R2181     1
    C1605     R2182     1
    C1605     R2183     1
    C1605     R2317     -1
    C1605     R2318     -1
    C1605     R2319     -1
    C1605     R2320     -1
    C1605     R2332     1
    C1605     R2333     1
    C1605     R2334     1
    C1605     R2335     1
    C1605     R2452     1
    C1605     R2453     1
    C1605     R2454     1
    C1605     R2455     1
    C1605     R2467     -1
    C1605     R2468     -1
    C1605     R2469     -1
    C1605     R2470     -1
    C1605     R2579     -2
    C1605     R2580     -2
    C1605     R2581     -2
    C1605     R2582     -2
    C1605     R2583     -2
    C1605     R2593     1
    C1605     R2594     1
    C1605     R2595     1
    C1605     R2596     1
    C1605     R2597     1
    C1605     R2705     1
    C1605     R2706     1
    C1605     R2707     1
    C1605     R2708     1
    C1605     R2709     1
    C1605     R2719     -2
    C1605     R2720     -2
    C1605     R2721     -2
    C1605     R2722     -1
    C1605     R2723     -2
    C1607     R1011     1
    C1607     R1029     1
    C1607     R1105     1
    C1607     R1245     1
    C1607     R1246     1
    C1607     R1247     1
    C1607     R1373     1
    C1607     R1374     1
    C1607     R1375     1
    C1607     R1512     -1
    C1607     R1644     -1
    C1607     R1645     -1
    C1607     R1646     -1
    C1607     R1659     1
    C1607     R1660     1
    C1607     R1661     1
    C1607     R1662     1
    C1607     R1771     -2
    C1607     R1772     -2
    C1607     R1773     -2
    C1607     R1774     -2
    C1607     R1775     -2
    C1607     R1785     1
    C1607     R1786     1
    C1607     R1787     1
    C1607     R1788     1
    C1607     R1789     1
    C1607     R1897     1
    C1607     R1898     1
    C1607     R1899     1
    C1607     R1900     1
    C1607     R1901     1
    C1607     R1911     -2
    C1607     R1912     -1
    C1607     R1913     -2
    C1607     R1914     -1
    C1607     R1915     -2
    C1607     R2055     1
    C1607     R2056     1
    C1607     R2057     1
    C1607     R2183     1
    C1607     R2184     1
    C1607     R2185     1
    C1607     R2319     -1
    C1607     R2320     -1
    C1607     R2321     -1
    C1607     R2322     -1
    C1607     R2334     1
    C1607     R2335     1
    C1607     R2336     1
    C1607     R2337     1
    C1607     R2454     1
    C1607     R2455     1
    C1607     R2456     1
    C1607     R2457     1
    C1607     R2469     -1
    C1607     R2470     -1
    C1607     R2471     -1
    C1607     R2472     -1
    C1607     R2581     -2
    C1607     R2582     -2
    C1607     R2583     -2
    C1607     R2584     -2
    C1607     R2585     -2
    C1607     R2595     1
    C1607     R2596     1
    C1607     R2597     1
    C1607     R2598     1
    C1607     R2599     1
    C1607     R2707     1
    C1607     R2708     1
    C1607     R2709     1
    C1607     R2710     1
    C1607     R2711     1
    C1607     R2721     -2
    C1607     R2722     -1
    C1607     R2723     -2
    C1607     R2724     -1
    C1607     R2725     -2
    C1609     R1013     1
    C1609     R1031     1
    C1609     R1105     1
    C1609     R1247     1
    C1609     R1248     1
    C1609     R1249     1
    C1609     R1375     1
    C1609     R1376     1
    C1609     R1377     1
    C1609     R1512     -1
    C1609     R1528     1
    C1609     R1646     -1
    C1609     R1648     -1
    C1609     R1661     1
    C1609     R1662     1
    C1609     R1773     -2
    C1609     R1774     -2
    C1609     R1775     -2
    C1609     R1787     1
    C1609     R1788     1
    C1609     R1789     1
    C1609     R1899     1
    C1609     R1900     1
    C1609     R1901     1
    C1609     R1913     -2
    C1609     R1914     -1
    C1609     R1915     -2
    C1609     R2057     1
    C1609     R2058     1
    C1609     R2059     1
    C1609     R2185     1
    C1609     R2186     1
    C1609     R2187     1
    C1609     R2321     -1
    C1609     R2322     -1
    C1609     R2323     -1
    C1609     R2336     1
    C1609     R2337     1
    C1609     R2338     1
    C1609     R2456     1
    C1609     R2457     1
    C1609     R2458     1
    C1609     R2471     -1
    C1609     R2472     -1
    C1609     R2473     -1
    C1609     R2583     -2
    C1609     R2584     -2
    C1609     R2585     -2
    C1609     R2597     1
    C1609     R2598     1
    C1609     R2599     1
    C1609     R2709     1
    C1609     R2710     1
    C1609     R2711     1
    C1609     R2723     -2
    C1609     R2724     -1
    C1609     R2725     -2
    C1611     R1015     1
    C1611     R1033     1
    C1611     R1105     1
    C1611     R1249     1
    C1611     R1377     1
    C1611     R1528     1
    C1611     R1648     -1
    C1611     R1775     -2
    C1611     R1789     1
    C1611     R1901     1
    C1611     R1915     -2
    C1611     R2059     1
    C1611     R2187     1
    C1611     R2323     -1
    C1611     R2338     1
    C1611     R2458     1
    C1611     R2473     -1
    C1611     R2585     -2
    C1611     R2599     1
    C1611     R2711     1
    C1611     R2725     -2
    C1622     R0871     1
    C1622     R1026     1
    C1622     R2932     1
    C1623     R0871     1
    C1623     R1027     1
    C1623     R2932     1
    C1624     R0871     1
    C1624     R1028     1
    C1625     R0871     1
    C1625     R1029     1
    C1626     R0871     1
    C1626     R1030     1
    C1627     R0871     1
    C1627     R1031     1
    C1628     R0871     1
    C1628     R1032     1
    C1629     R0871     1
    C1629     R1033     1
    MARKER    'MARKER'                 'INTEND'
RHS
    RHS1      OBJ       -4992
    RHS1      R0782     1
    RHS1      R0783     1
    RHS1      R0784     1
    RHS1      R0785     1
    RHS1      R0786     1
    RHS1      R0787     1
    RHS1      R0791     1
    RHS1      R0795     1
    RHS1      R0796     1
    RHS1      R0797     1
    RHS1      R0801     1
    RHS1      R0804     1
    RHS1      R0805     1
    RHS1      R0806     1
    RHS1      R0807     1
    RHS1      R0810     1
    RHS1      R0811     1
    RHS1      R0814     1
    RHS1      R0815     1
    RHS1      R0818     1
    RHS1      R0819     1
    RHS1      R0820     1
    RHS1      R0821     1
    RHS1      R0825     1
    RHS1      R0828     1
    RHS1      R0829     1
    RHS1      R0830     1
    RHS1      R0831     1
    RHS1      R0835     1
    RHS1      R0838     1
    RHS1      R0839     1
    RHS1      R0841     1
    RHS1      R0842     1
    RHS1      R0843     1
    RHS1      R0844     1
    RHS1      R0845     1
    RHS1      R0855     1
    RHS1      R0857     1
    RHS1      R0859     1
    RHS1      R0860     1
    RHS1      R0861     1
    RHS1      R0863     1
    RHS1      R0864     1
    RHS1      R0865     1
    RHS1      R0867     1
    RHS1      R0869     1
    RHS1      R0871     1
    RHS1      R0877     1
    RHS1      R0878     1
    RHS1      R0879     1
    RHS1      R0880     1
    RHS1      R0881     1
    RHS1      R0882     1
    RHS1      R0883     1
    RHS1      R0884     1
    RHS1      R0885     1
    RHS1      R0886     1
    RHS1      R0887     1
    RHS1      R0888     1
    RHS1      R0889     1
    RHS1      R0895     1
    RHS1      R0896     1
    RHS1      R0897     1
    RHS1      R0898     1
    RHS1      R0899     1
    RHS1      R0900     1
    RHS1      R0901     1
    RHS1      R0902     1
    RHS1      R0903     1
    RHS1      R0904     1
    RHS1      R0905     1
    RHS1      R0906     1
    RHS1      R0907     1
    RHS1      R0913     1
    RHS1      R0914     1
    RHS1      R0915     1
    RHS1      R0916     1
    RHS1      R0917     1
    RHS1      R0918     1
    RHS1      R0919     1
    RHS1      R0920     1
    RHS1      R0921     1
    RHS1      R0922     1
    RHS1      R0923     1
    RHS1      R0924     1
    RHS1      R0925     1
    RHS1      R0931     1
    RHS1      R0932     1
    RHS1      R0933     1
    RHS1      R0934     1
    RHS1      R0935     1
    RHS1      R0936     1
    RHS1      R0937     1
    RHS1      R0938     1
    RHS1      R0939     1
    RHS1      R0940     1
    RHS1      R0941     1
    RHS1      R0942     1
    RHS1      R0943     1
    RHS1      R0950     1
    RHS1      R0952     1
    RHS1      R0953     1
    RHS1      R0954     1
    RHS1      R0955     1
    RHS1      R0956     1
    RHS1      R0957     1
    RHS1      R0958     1
    RHS1      R0959     1
    RHS1      R0960     1
    RHS1      R0961     1
    RHS1      R0967     1
    RHS1      R0968     1
    RHS1      R0969     1
    RHS1      R0970     1
    RHS1      R0971     1
    RHS1      R0972     1
    RHS1      R0973     1
    RHS1      R0974     1
    RHS1      R0975     1
    RHS1      R0976     1
    RHS1      R0977     1
    RHS1      R0978     1
    RHS1      R0979     1
    RHS1      R0985     1
    RHS1      R0986     1
    RHS1      R0987     1
    RHS1      R0988     1
    RHS1      R0989     1
    RHS1      R0990     1
    RHS1      R0991     1
    RHS1      R0992     1
    RHS1      R0993     1
    RHS1      R0994     1
    RHS1      R0995     1
    RHS1      R0996     1
    RHS1      R0997     1
    RHS1      R1003     1
    RHS1      R1004     1
    RHS1      R1005     1
    RHS1      R1006     1
    RHS1      R1007     1
    RHS1      R1008     1
    RHS1      R1009     1
    RHS1      R1010     1
    RHS1      R1011     1
    RHS1      R1012     1
    RHS1      R1013     1
    RHS1      R1014     1
    RHS1      R1015     1
    RHS1      R1021     1
    RHS1      R1023     1
    RHS1      R1025     1
    RHS1      R1026     1
    RHS1      R1027     1
    RHS1      R1028     1
    RHS1      R1029     1
    RHS1      R1030     1
    RHS1      R1031     1
    RHS1      R1032     1
    RHS1      R1033     1
    RHS1      R1034     1
    RHS1      R1035     1
    RHS1      R1036     1
    RHS1      R1041     1
    RHS1      R1042     1
    RHS1      R1043     1
    RHS1      R1045     1
    RHS1      R1046     1
    RHS1      R1047     1
    RHS1      R1049     1
    RHS1      R1050     1
    RHS1      R1053     1
    RHS1      R1054     1
    RHS1      R1055     1
    RHS1      R1056     1
    RHS1      R1058     1
    RHS1      R1063     1
    RHS1      R1064     1
    RHS1      R1068     1
    RHS1      R1071     1
    RHS1      R1072     1
    RHS1      R1073     1
    RHS1      R1075     1
    RHS1      R1079     1
    RHS1      R1080     1
    RHS1      R1083     1
    RHS1      R1084     1
    RHS1      R1085     1
    RHS1      R1087     1
    RHS1      R1089     1
    RHS1      R1091     1
    RHS1      R1092     1
    RHS1      R1093     1
    RHS1      R1094     1
    RHS1      R1095     1
    RHS1      R1098     1
    RHS1      R1099     1
    RHS1      R1101     1
    RHS1      R1102     1
    RHS1      R1105     1
    RHS1      R1110     1
    RHS1      R1113     2
    RHS1      R1114     2
    RHS1      R1115     2
    RHS1      R1116     2
    RHS1      R1117     2
    RHS1      R1118     2
    RHS1      R1119     2
    RHS1      R1120     2
    RHS1      R1121     2
    RHS1      R1126     1
    RHS1      R1127     2
    RHS1      R1128     2
    RHS1      R1129     2
    RHS1      R1130     2
    RHS1      R1131     2
    RHS1      R1132     2
    RHS1      R1133     2
    RHS1      R1134     2
    RHS1      R1135     2
    RHS1      R1136     2
    RHS1      R1137     2
    RHS1      R1142     1
    RHS1      R1143     2
    RHS1      R1144     2
    RHS1      R1145     2
    RHS1      R1146     2
    RHS1      R1147     2
    RHS1      R1148     2
    RHS1      R1149     2
    RHS1      R1150     2
    RHS1      R1151     2
    RHS1      R1152     2
    RHS1      R1153     2
    RHS1      R1160     2
    RHS1      R1161     2
    RHS1      R1162     2
    RHS1      R1163     2
    RHS1      R1164     2
    RHS1      R1165     2
    RHS1      R1166     2
    RHS1      R1167     2
    RHS1      R1168     2
    RHS1      R1169     2
    RHS1      R1176     2
    RHS1      R1177     2
    RHS1      R1178     2
    RHS1      R1179     2
    RHS1      R1180     2
    RHS1      R1181     2
    RHS1      R1182     2
    RHS1      R1183     2
    RHS1      R1184     2
    RHS1      R1185     2
    RHS1      R1190     1
    RHS1      R1193     2
    RHS1      R1194     2
    RHS1      R1195     2
    RHS1      R1196     2
    RHS1      R1197     2
    RHS1      R1198     2
    RHS1      R1199     2
    RHS1      R1200     2
    RHS1      R1201     2
    RHS1      R1207     2
    RHS1      R1208     2
    RHS1      R1209     2
    RHS1      R1210     2
    RHS1      R1211     2
    RHS1      R1212     2
    RHS1      R1213     2
    RHS1      R1214     2
    RHS1      R1215     2
    RHS1      R1216     2
    RHS1      R1217     2
    RHS1      R1223     1
    RHS1      R1225     2
    RHS1      R1226     2
    RHS1      R1227     2
    RHS1      R1228     2
    RHS1      R1229     2
    RHS1      R1230     2
    RHS1      R1231     2
    RHS1      R1232     2
    RHS1      R1233     2
    RHS1      R1241     2
    RHS1      R1242     2
    RHS1      R1243     2
    RHS1      R1244     2
    RHS1      R1245     2
    RHS1      R1246     2
    RHS1      R1247     2
    RHS1      R1248     2
    RHS1      R1249     2
    RHS1      R1255     2
    RHS1      R1256     2
    RHS1      R1257     2
    RHS1      R1258     2
    RHS1      R1259     2
    RHS1      R1260     2
    RHS1      R1261     2
    RHS1      R1262     2
    RHS1      R1263     2
    RHS1      R1264     2
    RHS1      R1265     2
    RHS1      R1271     2
    RHS1      R1272     2
    RHS1      R1273     2
    RHS1      R1274     2
    RHS1      R1275     2
    RHS1      R1276     2
    RHS1      R1277     2
    RHS1      R1278     2
    RHS1      R1279     2
    RHS1      R1280     2
    RHS1      R1281     2
    RHS1      R1287     2
    RHS1      R1288     2
    RHS1      R1289     2
    RHS1      R1290     2
    RHS1      R1291     2
    RHS1      R1292     2
    RHS1      R1293     2
    RHS1      R1294     2
    RHS1      R1295     2
    RHS1      R1296     2
    RHS1      R1297     2
    RHS1      R1302     1
    RHS1      R1305     2
    RHS1      R1306     2
    RHS1      R1307     2
    RHS1      R1308     2
    RHS1      R1309     2
    RHS1      R1310     2
    RHS1      R1311     2
    RHS1      R1312     2
    RHS1      R1313     2
    RHS1      R1318     1
    RHS1      R1321     2
    RHS1      R1322     2
    RHS1      R1323     2
    RHS1      R1324     2
    RHS1      R1325     2
    RHS1      R1326     2
    RHS1      R1327     2
    RHS1      R1328     2
    RHS1      R1329     2
    RHS1      R1335     2
    RHS1      R1336     2
    RHS1      R1337     2
    RHS1      R1338     2
    RHS1      R1339     2
    RHS1      R1340     2
    RHS1      R1341     2
    RHS1      R1342     2
    RHS1      R1343     2
    RHS1      R1344     2
    RHS1      R1345     2
    RHS1      R1351     2
    RHS1      R1352     2
    RHS1      R1353     2
    RHS1      R1354     2
    RHS1      R1355     2
    RHS1      R1356     2
    RHS1      R1357     2
    RHS1      R1358     2
    RHS1      R1359     2
    RHS1      R1360     2
    RHS1      R1361     2
    RHS1      R1368     2
    RHS1      R1369     2
    RHS1      R1370     2
    RHS1      R1371     2
    RHS1      R1372     2
    RHS1      R1373     2
    RHS1      R1374     2
    RHS1      R1375     2
    RHS1      R1376     2
    RHS1      R1377     2
    RHS1      R1382     3
    RHS1      R1385     2
    RHS1      R1386     2
    RHS1      R1387     2
    RHS1      R1388     2
    RHS1      R1389     2
    RHS1      R1390     2
    RHS1      R1391     2
    RHS1      R1392     2
    RHS1      R1393     2
    RHS1      R1398     1
    RHS1      R1399     2
    RHS1      R1405     2
    RHS1      R1406     2
    RHS1      R1408     2
    RHS1      R1413     1
    RHS1      R1415     2
    RHS1      R1416     2
    RHS1      R1418     2
    RHS1      R1419     2
    RHS1      R1420     2
    RHS1      R1421     2
    RHS1      R1422     2
    RHS1      R1423     2
    RHS1      R1429     1
    RHS1      R1431     2
    RHS1      R1432     2
    RHS1      R1433     2
    RHS1      R1434     2
    RHS1      R1435     2
    RHS1      R1444     2
    RHS1      R1446     2
    RHS1      R1447     2
    RHS1      R1448     2
    RHS1      R1449     2
    RHS1      R1450     2
    RHS1      R1452     2
    RHS1      R1463     2
    RHS1      R1465     2
    RHS1      R1466     2
    RHS1      R1468     2
    RHS1      R1473     1
    RHS1      R1476     2
    RHS1      R1477     2
    RHS1      R1478     2
    RHS1      R1479     2
    RHS1      R1480     2
    RHS1      R1483     2
    RHS1      R1488     2
    RHS1      R1489     2
    RHS1      R1490     2
    RHS1      R1491     2
    RHS1      R1492     2
    RHS1      R1493     2
    RHS1      R1494     2
    RHS1      R1495     2
    RHS1      R1496     2
    RHS1      R1497     2
    RHS1      R1498     2
    RHS1      R1504     -1
    RHS1      R1507     2
    RHS1      R1508     2
    RHS1      R1512     2
    RHS1      R1522     2
    RHS1      R1528     2
    RHS1      R1535     2
    RHS1      R1536     2
    RHS1      R1537     2
    RHS1      R1538     2
    RHS1      R1539     2
    RHS1      R1542     2
    RHS1      R1547     1
    RHS1      R1549     2
    RHS1      R1552     2
    RHS1      R1563     3
    RHS1      R1565     2
    RHS1      R1571     2
    RHS1      R1572     2
    RHS1      R1573     2
    RHS1      R1580     2
    RHS1      R1586     2
    RHS1      R1588     2
    RHS1      R1594     2
    RHS1      R1595     2
    RHS1      R1596     2
    RHS1      R1597     2
    RHS1      R1599     2
    RHS1      R1602     2
    RHS1      R1610     2
    RHS1      R1616     2
    RHS1      R1617     2
    RHS1      R1640     2
    RHS1      R1641     2
    RHS1      R1644     2
    RHS1      R1645     2
    RHS1      R1646     2
    RHS1      R1648     2
    RHS1      R1654     2
    RHS1      R1655     2
    RHS1      R1656     2
    RHS1      R1658     2
    RHS1      R1659     2
    RHS1      R1660     2
    RHS1      R1661     2
    RHS1      R1662     2
    RHS1      R1668     -1
    RHS1      R1669     -2
    RHS1      R1670     -1
    RHS1      R1672     1
    RHS1      R1673     2
    RHS1      R1674     2
    RHS1      R1675     2
    RHS1      R1676     2
    RHS1      R1677     2
    RHS1      R1681     -1
    RHS1      R1682     -1
    RHS1      R1683     -2
    RHS1      R1684     -1
    RHS1      R1686     1
    RHS1      R1687     2
    RHS1      R1688     2
    RHS1      R1689     2
    RHS1      R1690     2
    RHS1      R1691     2
    RHS1      R1696     -1
    RHS1      R1697     -2
    RHS1      R1698     -1
    RHS1      R1700     1
    RHS1      R1701     2
    RHS1      R1702     2
    RHS1      R1703     2
    RHS1      R1704     2
    RHS1      R1705     2
    RHS1      R1711     -1
    RHS1      R1712     2
    RHS1      R1713     2
    RHS1      R1714     2
    RHS1      R1715     2
    RHS1      R1716     2
    RHS1      R1717     2
    RHS1      R1718     2
    RHS1      R1719     2
    RHS1      R1725     -1
    RHS1      R1727     1
    RHS1      R1728     1
    RHS1      R1729     2
    RHS1      R1730     2
    RHS1      R1731     2
    RHS1      R1732     2
    RHS1      R1733     2
    RHS1      R1737     -1
    RHS1      R1738     -1
    RHS1      R1739     -1
    RHS1      R1740     2
    RHS1      R1741     2
    RHS1      R1742     2
    RHS1      R1743     2
    RHS1      R1744     2
    RHS1      R1745     2
    RHS1      R1746     2
    RHS1      R1747     2
    RHS1      R1752     -1
    RHS1      R1753     -2
    RHS1      R1754     -1
    RHS1      R1756     1
    RHS1      R1757     2
    RHS1      R1758     2
    RHS1      R1759     2
    RHS1      R1760     2
    RHS1      R1761     2
    RHS1      R1765     1
    RHS1      R1767     -2
    RHS1      R1768     -1
    RHS1      R1770     1
    RHS1      R1771     2
    RHS1      R1772     2
    RHS1      R1773     2
    RHS1      R1774     2
    RHS1      R1775     2
    RHS1      R1781     -1
    RHS1      R1782     2
    RHS1      R1784     1
    RHS1      R1785     1
    RHS1      R1786     2
    RHS1      R1787     2
    RHS1      R1788     2
    RHS1      R1789     2
    RHS1      R1795     -2
    RHS1      R1796     -1
    RHS1      R1798     1
    RHS1      R1799     2
    RHS1      R1800     2
    RHS1      R1801     2
    RHS1      R1802     2
    RHS1      R1803     2
    RHS1      R1809     -2
    RHS1      R1810     -1
    RHS1      R1812     1
    RHS1      R1813     2
    RHS1      R1814     2
    RHS1      R1815     2
    RHS1      R1816     2
    RHS1      R1817     2
    RHS1      R1823     -2
    RHS1      R1824     -1
    RHS1      R1826     1
    RHS1      R1827     2
    RHS1      R1828     2
    RHS1      R1829     2
    RHS1      R1830     2
    RHS1      R1831     2
    RHS1      R1836     -1
    RHS1      R1837     -1
    RHS1      R1838     2
    RHS1      R1839     2
    RHS1      R1840     2
    RHS1      R1841     2
    RHS1      R1842     2
    RHS1      R1843     2
    RHS1      R1844     2
    RHS1      R1845     2
    RHS1      R1850     -1
    RHS1      R1851     -1
    RHS1      R1853     1
    RHS1      R1854     1
    RHS1      R1855     2
    RHS1      R1856     2
    RHS1      R1857     2
    RHS1      R1858     2
    RHS1      R1859     2
    RHS1      R1865     -1
    RHS1      R1866     2
    RHS1      R1867     2
    RHS1      R1868     2
    RHS1      R1869     2
    RHS1      R1870     2
    RHS1      R1871     2
    RHS1      R1872     2
    RHS1      R1873     2
    RHS1      R1877     -1
    RHS1      R1878     -1
    RHS1      R1879     -2
    RHS1      R1880     -1
    RHS1      R1882     1
    RHS1      R1883     2
    RHS1      R1884     2
    RHS1      R1885     2
    RHS1      R1886     2
    RHS1      R1887     2
    RHS1      R1894     -1
    RHS1      R1896     1
    RHS1      R1897     2
    RHS1      R1898     2
    RHS1      R1899     2
    RHS1      R1900     2
    RHS1      R1901     2
    RHS1      R1906     -1
    RHS1      R1908     2
    RHS1      R1910     1
    RHS1      R1911     1
    RHS1      R1912     2
    RHS1      R1913     2
    RHS1      R1914     2
    RHS1      R1915     2
    RHS1      R1920     1
    RHS1      R1923     2
    RHS1      R1924     2
    RHS1      R1925     2
    RHS1      R1926     2
    RHS1      R1927     2
    RHS1      R1928     2
    RHS1      R1929     2
    RHS1      R1930     2
    RHS1      R1931     2
    RHS1      R1936     1
    RHS1      R1939     2
    RHS1      R1940     2
    RHS1      R1941     2
    RHS1      R1942     2
    RHS1      R1943     2
    RHS1      R1944     2
    RHS1      R1945     2
    RHS1      R1946     2
    RHS1      R1947     2
    RHS1      R1952     1
    RHS1      R1953     2
    RHS1      R1954     2
    RHS1      R1955     2
    RHS1      R1956     2
    RHS1      R1957     2
    RHS1      R1958     2
    RHS1      R1959     2
    RHS1      R1960     2
    RHS1      R1961     2
    RHS1      R1962     2
    RHS1      R1963     2
    RHS1      R1970     2
    RHS1      R1971     2
    RHS1      R1972     2
    RHS1      R1973     2
    RHS1      R1974     2
    RHS1      R1975     2
    RHS1      R1976     2
    RHS1      R1977     2
    RHS1      R1978     2
    RHS1      R1979     2
    RHS1      R1986     2
    RHS1      R1987     2
    RHS1      R1988     2
    RHS1      R1989     2
    RHS1      R1990     2
    RHS1      R1991     2
    RHS1      R1992     2
    RHS1      R1993     2
    RHS1      R1994     2
    RHS1      R1995     2
    RHS1      R2000     1
    RHS1      R2003     2
    RHS1      R2004     2
    RHS1      R2005     2
    RHS1      R2006     2
    RHS1      R2007     2
    RHS1      R2008     2
    RHS1      R2009     2
    RHS1      R2010     2
    RHS1      R2011     2
    RHS1      R2017     2
    RHS1      R2018     2
    RHS1      R2019     2
    RHS1      R2020     2
    RHS1      R2021     2
    RHS1      R2022     2
    RHS1      R2023     2
    RHS1      R2024     2
    RHS1      R2025     2
    RHS1      R2026     2
    RHS1      R2027     2
    RHS1      R2033     1
    RHS1      R2034     2
    RHS1      R2035     2
    RHS1      R2036     2
    RHS1      R2037     2
    RHS1      R2038     2
    RHS1      R2039     2
    RHS1      R2040     2
    RHS1      R2041     2
    RHS1      R2042     2
    RHS1      R2043     2
    RHS1      R2051     2
    RHS1      R2052     2
    RHS1      R2053     2
    RHS1      R2054     2
    RHS1      R2055     2
    RHS1      R2056     2
    RHS1      R2057     2
    RHS1      R2058     2
    RHS1      R2059     2
    RHS1      R2065     2
    RHS1      R2066     2
    RHS1      R2067     2
    RHS1      R2068     2
    RHS1      R2069     2
    RHS1      R2070     2
    RHS1      R2071     2
    RHS1      R2072     2
    RHS1      R2073     2
    RHS1      R2074     2
    RHS1      R2075     2
    RHS1      R2081     2
    RHS1      R2082     2
    RHS1      R2083     2
    RHS1      R2084     2
    RHS1      R2085     2
    RHS1      R2086     2
    RHS1      R2087     2
    RHS1      R2088     2
    RHS1      R2089     2
    RHS1      R2090     2
    RHS1      R2091     2
    RHS1      R2097     2
    RHS1      R2098     2
    RHS1      R2099     2
    RHS1      R2100     2
    RHS1      R2101     2
    RHS1      R2102     2
    RHS1      R2103     2
    RHS1      R2104     2
    RHS1      R2105     2
    RHS1      R2106     2
    RHS1      R2107     2
    RHS1      R2112     1
    RHS1      R2115     2
    RHS1      R2116     2
    RHS1      R2117     2
    RHS1      R2118     2
    RHS1      R2119     2
    RHS1      R2120     2
    RHS1      R2121     2
    RHS1      R2122     2
    RHS1      R2123     2
    RHS1      R2131     2
    RHS1      R2132     2
    RHS1      R2133     2
    RHS1      R2134     2
    RHS1      R2135     2
    RHS1      R2136     2
    RHS1      R2137     2
    RHS1      R2138     2
    RHS1      R2139     2
    RHS1      R2146     2
    RHS1      R2147     2
    RHS1      R2148     2
    RHS1      R2149     2
    RHS1      R2150     2
    RHS1      R2151     2
    RHS1      R2152     2
    RHS1      R2153     2
    RHS1      R2154     2
    RHS1      R2155     2
    RHS1      R2161     2
    RHS1      R2162     2
    RHS1      R2163     2
    RHS1      R2164     2
    RHS1      R2165     2
    RHS1      R2166     2
    RHS1      R2167     2
    RHS1      R2168     2
    RHS1      R2169     2
    RHS1      R2170     2
    RHS1      R2171     2
    RHS1      R2179     2
    RHS1      R2180     2
    RHS1      R2181     2
    RHS1      R2182     2
    RHS1      R2183     2
    RHS1      R2184     2
    RHS1      R2185     2
    RHS1      R2186     2
    RHS1      R2187     2
    RHS1      R2192     3
    RHS1      R2195     2
    RHS1      R2196     2
    RHS1      R2197     2
    RHS1      R2198     2
    RHS1      R2199     2
    RHS1      R2200     2
    RHS1      R2201     2
    RHS1      R2202     2
    RHS1      R2203     2
    RHS1      R2208     1
    RHS1      R2209     2
    RHS1      R2210     2
    RHS1      R2211     2
    RHS1      R2212     2
    RHS1      R2213     2
    RHS1      R2214     2
    RHS1      R2215     2
    RHS1      R2216     2
    RHS1      R2217     2
    RHS1      R2218     2
    RHS1      R2222     1
    RHS1      R2223     1
    RHS1      R2224     2
    RHS1      R2225     2
    RHS1      R2226     2
    RHS1      R2227     2
    RHS1      R2228     2
    RHS1      R2229     2
    RHS1      R2230     2
    RHS1      R2231     2
    RHS1      R2232     2
    RHS1      R2233     2
    RHS1      R2238     1
    RHS1      R2240     2
    RHS1      R2241     2
    RHS1      R2242     2
    RHS1      R2243     2
    RHS1      R2244     2
    RHS1      R2245     2
    RHS1      R2246     2
    RHS1      R2247     2
    RHS1      R2248     2
    RHS1      R2254     2
    RHS1      R2255     2
    RHS1      R2256     2
    RHS1      R2257     2
    RHS1      R2258     2
    RHS1      R2259     2
    RHS1      R2260     2
    RHS1      R2261     2
    RHS1      R2262     2
    RHS1      R2263     2
    RHS1      R2269     2
    RHS1      R2270     2
    RHS1      R2271     2
    RHS1      R2272     2
    RHS1      R2273     2
    RHS1      R2274     2
    RHS1      R2275     2
    RHS1      R2276     2
    RHS1      R2277     2
    RHS1      R2278     2
    RHS1      R2283     1
    RHS1      R2285     2
    RHS1      R2286     2
    RHS1      R2287     2
    RHS1      R2288     2
    RHS1      R2289     2
    RHS1      R2290     2
    RHS1      R2291     2
    RHS1      R2292     2
    RHS1      R2293     2
    RHS1      R2297     1
    RHS1      R2298     2
    RHS1      R2299     2
    RHS1      R2300     2
    RHS1      R2301     2
    RHS1      R2302     2
    RHS1      R2303     2
    RHS1      R2304     2
    RHS1      R2305     2
    RHS1      R2306     2
    RHS1      R2307     2
    RHS1      R2308     2
    RHS1      R2314     -1
    RHS1      R2315     2
    RHS1      R2316     2
    RHS1      R2317     2
    RHS1      R2318     2
    RHS1      R2319     2
    RHS1      R2320     2
    RHS1      R2321     2
    RHS1      R2322     2
    RHS1      R2323     2
    RHS1      R2329     2
    RHS1      R2330     2
    RHS1      R2331     2
    RHS1      R2332     2
    RHS1      R2333     2
    RHS1      R2334     2
    RHS1      R2335     2
    RHS1      R2336     2
    RHS1      R2337     2
    RHS1      R2338     2
    RHS1      R2344     2
    RHS1      R2345     2
    RHS1      R2346     2
    RHS1      R2347     2
    RHS1      R2348     2
    RHS1      R2349     2
    RHS1      R2350     2
    RHS1      R2351     2
    RHS1      R2352     2
    RHS1      R2353     2
    RHS1      R2359     2
    RHS1      R2360     2
    RHS1      R2361     2
    RHS1      R2362     2
    RHS1      R2363     2
    RHS1      R2364     2
    RHS1      R2365     2
    RHS1      R2366     2
    RHS1      R2367     2
    RHS1      R2368     2
    RHS1      R2374     2
    RHS1      R2375     2
    RHS1      R2376     2
    RHS1      R2377     2
    RHS1      R2378     2
    RHS1      R2379     2
    RHS1      R2380     2
    RHS1      R2381     2
    RHS1      R2382     2
    RHS1      R2383     2
    RHS1      R2388     1
    RHS1      R2390     2
    RHS1      R2391     2
    RHS1      R2392     2
    RHS1      R2393     2
    RHS1      R2394     2
    RHS1      R2395     2
    RHS1      R2396     2
    RHS1      R2397     2
    RHS1      R2398     2
    RHS1      R2403     1
    RHS1      R2405     2
    RHS1      R2406     2
    RHS1      R2407     2
    RHS1      R2408     2
    RHS1      R2409     2
    RHS1      R2410     2
    RHS1      R2411     2
    RHS1      R2412     2
    RHS1      R2413     2
    RHS1      R2419     2
    RHS1      R2420     2
    RHS1      R2421     2
    RHS1      R2422     2
    RHS1      R2423     2
    RHS1      R2424     2
    RHS1      R2425     2
    RHS1      R2426     2
    RHS1      R2427     2
    RHS1      R2428     2
    RHS1      R2433     2
    RHS1      R2434     2
    RHS1      R2435     2
    RHS1      R2436     2
    RHS1      R2437     2
    RHS1      R2438     2
    RHS1      R2439     2
    RHS1      R2440     2
    RHS1      R2441     2
    RHS1      R2442     2
    RHS1      R2443     2
    RHS1      R2448     1
    RHS1      R2450     2
    RHS1      R2451     2
    RHS1      R2452     2
    RHS1      R2453     2
    RHS1      R2454     2
    RHS1      R2455     2
    RHS1      R2456     2
    RHS1      R2457     2
    RHS1      R2458     2
    RHS1      R2463     3
    RHS1      R2465     2
    RHS1      R2466     2
    RHS1      R2467     2
    RHS1      R2468     2
    RHS1      R2469     2
    RHS1      R2470     2
    RHS1      R2471     2
    RHS1      R2472     2
    RHS1      R2473     2
    RHS1      R2476     -1
    RHS1      R2477     -2
    RHS1      R2479     -2
    RHS1      R2480     -1
    RHS1      R2482     1
    RHS1      R2483     2
    RHS1      R2484     2
    RHS1      R2485     2
    RHS1      R2486     2
    RHS1      R2487     2
    RHS1      R2491     -1
    RHS1      R2492     -1
    RHS1      R2493     -2
    RHS1      R2494     -1
    RHS1      R2496     1
    RHS1      R2497     2
    RHS1      R2498     2
    RHS1      R2499     2
    RHS1      R2500     2
    RHS1      R2501     2
    RHS1      R2505     -1
    RHS1      R2507     -2
    RHS1      R2508     -1
    RHS1      R2510     1
    RHS1      R2511     2
    RHS1      R2512     2
    RHS1      R2513     2
    RHS1      R2514     2
    RHS1      R2515     2
    RHS1      R2521     -1
    RHS1      R2522     2
    RHS1      R2523     2
    RHS1      R2524     2
    RHS1      R2525     2
    RHS1      R2526     2
    RHS1      R2527     2
    RHS1      R2528     2
    RHS1      R2529     2
    RHS1      R2535     -1
    RHS1      R2537     1
    RHS1      R2538     1
    RHS1      R2539     2
    RHS1      R2540     2
    RHS1      R2541     2
    RHS1      R2542     2
    RHS1      R2543     2
    RHS1      R2548     -1
    RHS1      R2549     -1
    RHS1      R2550     2
    RHS1      R2551     2
    RHS1      R2552     2
    RHS1      R2553     2
    RHS1      R2554     2
    RHS1      R2555     2
    RHS1      R2556     2
    RHS1      R2557     2
    RHS1      R2560     -1
    RHS1      R2561     -1
    RHS1      R2563     -2
    RHS1      R2564     -1
    RHS1      R2566     1
    RHS1      R2567     2
    RHS1      R2568     2
    RHS1      R2569     2
    RHS1      R2570     2
    RHS1      R2571     2
    RHS1      R2577     -2
    RHS1      R2578     -1
    RHS1      R2580     1
    RHS1      R2581     2
    RHS1      R2582     2
    RHS1      R2583     2
    RHS1      R2584     2
    RHS1      R2585     2
    RHS1      R2591     -1
    RHS1      R2592     2
    RHS1      R2594     1
    RHS1      R2595     1
    RHS1      R2596     2
    RHS1      R2597     2
    RHS1      R2598     2
    RHS1      R2599     2
    RHS1      R2605     -2
    RHS1      R2606     -1
    RHS1      R2608     1
    RHS1      R2609     2
    RHS1      R2610     2
    RHS1      R2611     2
    RHS1      R2612     2
    RHS1      R2613     2
    RHS1      R2619     -2
    RHS1      R2620     -1
    RHS1      R2622     1
    RHS1      R2623     2
    RHS1      R2624     2
    RHS1      R2625     2
    RHS1      R2626     2
    RHS1      R2627     2
    RHS1      R2633     -2
    RHS1      R2634     -1
    RHS1      R2636     1
    RHS1      R2637     2
    RHS1      R2638     2
    RHS1      R2639     2
    RHS1      R2640     2
    RHS1      R2641     2
    RHS1      R2646     -1
    RHS1      R2647     -1
    RHS1      R2648     2
    RHS1      R2649     2
    RHS1      R2650     2
    RHS1      R2651     2
    RHS1      R2652     2
    RHS1      R2653     2
    RHS1      R2654     2
    RHS1      R2655     2
    RHS1      R2659     -1
    RHS1      R2661     -1
    RHS1      R2663     1
    RHS1      R2664     1
    RHS1      R2665     2
    RHS1      R2666     2
    RHS1      R2667     2
    RHS1      R2668     2
    RHS1      R2669     2
    RHS1      R2675     -1
    RHS1      R2676     2
    RHS1      R2677     2
    RHS1      R2678     2
    RHS1      R2679     2
    RHS1      R2680     2
    RHS1      R2681     2
    RHS1      R2682     2
    RHS1      R2683     2
    RHS1      R2688     -1
    RHS1      R2689     -2
    RHS1      R2690     -1
    RHS1      R2692     1
    RHS1      R2693     2
    RHS1      R2694     2
    RHS1      R2695     2
    RHS1      R2696     2
    RHS1      R2697     2
    RHS1      R2704     -1
    RHS1      R2706     1
    RHS1      R2707     2
    RHS1      R2708     2
    RHS1      R2709     2
    RHS1      R2710     2
    RHS1      R2711     2
    RHS1      R2715     -2
    RHS1      R2716     -6
    RHS1      R2718     2
    RHS1      R2720     1
    RHS1      R2721     1
    RHS1      R2722     2
    RHS1      R2723     2
    RHS1      R2724     2
    RHS1      R2725     2
    RHS1      R2726     1
    RHS1      R2727     2
    RHS1      R2728     2
    RHS1      R2729     2
    RHS1      R2730     2
    RHS1      R2731     1
    RHS1      R2732     2
    RHS1      R2733     1
    RHS1      R2734     2
    RHS1      R2735     3
    RHS1      R2736     2
    RHS1      R2737     2
    RHS1      R2738     1
    RHS1      R2739     1
    RHS1      R2740     2
    RHS1      R2741     2
    RHS1      R2742     2
    RHS1      R2743     1
    RHS1      R2744     1
    RHS1      R2745     1
    RHS1      R2746     2
    RHS1      R2747     2
    RHS1      R2748     2
    RHS1      R2749     1
    RHS1      R2750     2
    RHS1      R2751     2
    RHS1      R2752     2
    RHS1      R2753     3
    RHS1      R2754     3
    RHS1      R2755     2
    RHS1      R2756     1
    RHS1      R2757     1
    RHS1      R2758     2
    RHS1      R2759     2
    RHS1      R2760     1
    RHS1      R2761     1
    RHS1      R2765     -1
    RHS1      R2767     -1
    RHS1      R2777     -1
    RHS1      R2782     -1
    RHS1      R2784     -1
    RHS1      R2794     -1
    RHS1      R2795     -1
    RHS1      R2800     1
    RHS1      R2802     1
    RHS1      R2804     1
    RHS1      R2805     1
    RHS1      R2806     1
    RHS1      R2820     1
    RHS1      R2831     1
    RHS1      R2832     1
    RHS1      R2833     1
    RHS1      R2834     1
    RHS1      R2835     1
    RHS1      R2836     1
    RHS1      R2840     1
    RHS1      R2847     1
    RHS1      R2853     1
    RHS1      R2867     1
    RHS1      R2868     1
    RHS1      R2869     1
    RHS1      R2871     1
    RHS1      R2872     1
    RHS1      R2884     1
    RHS1      R2885     1
    RHS1      R2887     1
    RHS1      R2889     1
    RHS1      R2892     1
    RHS1      R2893     1
    RHS1      R2916     1
    RHS1      R2917     1
    RHS1      R2922     1
    RHS1      R2923     1
    RHS1      R2932     1
BOUNDS
 UP BND1      C0004     1
 UP BND1      C0005     1
 UP BND1      C0006     1
 UP BND1      C0007     1
 UP BND1      C0008     1
 UP BND1      C0009     1
 UP BND1      C0010     1
 UP BND1      C0011     1
 UP BND1      C0012     1
 UP BND1      C0013     1
 UP BND1      C0014     1
 UP BND1      C0015     1
 UP BND1      C0016     1
 UP BND1      C0022     1
 UP BND1      C0023     1
 UP BND1      C0024     1
 UP BND1      C0025     1
 UP BND1      C0026     1
 UP BND1      C0027     1
 UP BND1      C0028     1
 UP BND1      C0029     1
 UP BND1      C0030     1
 UP BND1      C0031     1
 UP BND1      C0032     1
 UP BND1      C0033     1
 UP BND1      C0034     1
 UP BND1      C0040     1
 UP BND1      C0041     1
 UP BND1      C0042     1
 UP BND1      C0043     1
 UP BND1      C0044     1
 UP BND1      C0045     1
 UP BND1      C0046     1
 UP BND1      C0047     1
 UP BND1      C0048     1
 UP BND1      C0049     1
 UP BND1      C0050     1
 UP BND1      C0051     1
 UP BND1      C0052     1
 UP BND1      C0058     1
 UP BND1      C0059     1
 UP BND1      C0060     1
 UP BND1      C0061     1
 UP BND1      C0062     1
 UP BND1      C0063     1
 UP BND1      C0064     1
 UP BND1      C0065     1
 UP BND1      C0066     1
 UP BND1      C0067     1
 UP BND1      C0068     1
 UP BND1      C0069     1
 UP BND1      C0070     1
 UP BND1      C0076     1
 UP BND1      C0077     1
 UP BND1      C0078     1
 UP BND1      C0079     1
 UP BND1      C0080     1
 UP BND1      C0081     1
 UP BND1      C0082     1
 UP BND1      C0083     1
 UP BND1      C0084     1
 UP BND1      C0085     1
 UP BND1      C0086     1
 UP BND1      C0087     1
 UP BND1      C0088     1
 UP BND1      C0094     1
 UP BND1      C0095     1
 UP BND1      C0096     1
 UP BND1      C0097     1
 UP BND1      C0098     1
 UP BND1      C0099     1
 UP BND1      C0100     1
 UP BND1      C0101     1
 UP BND1      C0102     1
 UP BND1      C0103     1
 UP BND1      C0104     1
 UP BND1      C0105     1
 UP BND1      C0106     1
 UP BND1      C0112     1
 UP BND1      C0113     1
 UP BND1      C0114     1
 UP BND1      C0115     1
 UP BND1      C0116     1
 UP BND1      C0117     1
 UP BND1      C0118     1
 UP BND1      C0119     1
 UP BND1      C0120     1
 UP BND1      C0121     1
 UP BND1      C0122     1
 UP BND1      C0123     1
 UP BND1      C0124     1
 UP BND1      C0130     1
 UP BND1      C0131     1
 UP BND1      C0132     1
 UP BND1      C0133     1
 UP BND1      C0134     1
 UP BND1      C0135     1
 UP BND1      C0136     1
 UP BND1      C0137     1
 UP BND1      C0138     1
 UP BND1      C0139     1
 UP BND1      C0140     1
 UP BND1      C0141     1
 UP BND1      C0142     1
 UP BND1      C0148     1
 UP BND1      C0149     3
 UP BND1      C0150     1
 UP BND1      C0151     1
 UP BND1      C0152     1
 UP BND1      C0153     1
 UP BND1      C0154     1
 UP BND1      C0155     1
 UP BND1      C0156     1
 UP BND1      C0157     1
 UP BND1      C0158     1
 UP BND1      C0159     1
 UP BND1      C0160     1
 UP BND1      C0163     1
 UP BND1      C0164     1
 UP BND1      C0165     1
 UP BND1      C0166     1
 UP BND1      C0167     1
 UP BND1      C0168     1
 UP BND1      C0169     1
 UP BND1      C0170     1
 UP BND1      C0171     1
 BV BND1      C0178   
 BV BND1      C0180   
 BV BND1      C0182   
 BV BND1      C0184   
 BV BND1      C0186   
 BV BND1      C0188   
 BV BND1      C0196   
 BV BND1      C0198   
 BV BND1      C0200   
 BV BND1      C0202   
 BV BND1      C0204   
 BV BND1      C0206   
 BV BND1      C0213   
 BV BND1      C0214   
 BV BND1      C0215   
 BV BND1      C0216   
 BV BND1      C0217   
 BV BND1      C0219   
 BV BND1      C0220   
 BV BND1      C0221   
 BV BND1      C0222   
 BV BND1      C0223   
 BV BND1      C0224   
 BV BND1      C0225   
 BV BND1      C0290   
 BV BND1      C0292   
 BV BND1      C0294   
 BV BND1      C0296   
 BV BND1      C0303   
 BV BND1      C0305   
 BV BND1      C0307   
 BV BND1      C0309   
 BV BND1      C0311   
 BV BND1      C0313   
 BV BND1      C0315   
 BV BND1      C0325   
 BV BND1      C0326   
 BV BND1      C0327   
 BV BND1      C0328   
 BV BND1      C0329   
 BV BND1      C0330   
 BV BND1      C0331   
 BV BND1      C0332   
 BV BND1      C0333   
 BV BND1      C0340   
 BV BND1      C0342   
 BV BND1      C0344   
 BV BND1      C0346   
 BV BND1      C0348   
 BV BND1      C0350   
 BV BND1      C0362   
 BV BND1      C0364   
 BV BND1      C0366   
 BV BND1      C0368   
 BV BND1      C0397   
 BV BND1      C0399   
 BV BND1      C0401   
 BV BND1      C0403   
 BV BND1      C0405   
 BV BND1      C0411   
 BV BND1      C0412   
 BV BND1      C0413   
 BV BND1      C0414   
 BV BND1      C0415   
 BV BND1      C0416   
 BV BND1      C0417   
 BV BND1      C0418   
 BV BND1      C0419   
 BV BND1      C0420   
 BV BND1      C0421   
 BV BND1      C0422   
 BV BND1      C0423   
 BV BND1      C0429   
 BV BND1      C0430   
 BV BND1      C0431   
 BV BND1      C0432   
 BV BND1      C0433   
 BV BND1      C0434   
 BV BND1      C0435   
 BV BND1      C0436   
 BV BND1      C0437   
 BV BND1      C0438   
 BV BND1      C0439   
 BV BND1      C0440   
 BV BND1      C0441   
 BV BND1      C0465   
 BV BND1      C0467   
 BV BND1      C0469   
 BV BND1      C0471   
 BV BND1      C0473   
 BV BND1      C0475   
 BV BND1      C0477   
 BV BND1      C0487   
 BV BND1      C0488   
 BV BND1      C0489   
 BV BND1      C0490   
 BV BND1      C0491   
 BV BND1      C0492   
 BV BND1      C0493   
 BV BND1      C0494   
 BV BND1      C0495   
 BV BND1      C0502   
 BV BND1      C0504   
 BV BND1      C0506   
 BV BND1      C0508   
 BV BND1      C0510   
 BV BND1      C0512   
 BV BND1      C0555   
 BV BND1      C0557   
 BV BND1      C0559   
 BV BND1      C0561   
 BV BND1      C0563   
 BV BND1      C0565   
 BV BND1      C0567   
 BV BND1      C0578   
 BV BND1      C0580   
 BV BND1      C0582   
 BV BND1      C0584   
 BV BND1      C0592   
 BV BND1      C0594   
 BV BND1      C0596   
 BV BND1      C0598   
 BV BND1      C0600   
 BV BND1      C0602   
 BV BND1      C0611   
 BV BND1      C0613   
 BV BND1      C0615   
 BV BND1      C0617   
 BV BND1      C0619   
 BV BND1      C0621   
 BV BND1      C0631   
 BV BND1      C0633   
 BV BND1      C0635   
 BV BND1      C0637   
 BV BND1      C0639   
 BV BND1      C0649   
 BV BND1      C0650   
 BV BND1      C0651   
 BV BND1      C0652   
 BV BND1      C0653   
 BV BND1      C0654   
 BV BND1      C0655   
 BV BND1      C0656   
 BV BND1      C0657   
 BV BND1      C0663   
 BV BND1      C0665   
 BV BND1      C0666   
 BV BND1      C0667   
 BV BND1      C0668   
 BV BND1      C0669   
 BV BND1      C0670   
 BV BND1      C0671   
 BV BND1      C0672   
 BV BND1      C0673   
 BV BND1      C0674   
 BV BND1      C0675   
 BV BND1      C0685   
 BV BND1      C0687   
 BV BND1      C0689   
 BV BND1      C0691   
 BV BND1      C0693   
 BV BND1      C0703   
 BV BND1      C0705   
 BV BND1      C0707   
 BV BND1      C0709   
 BV BND1      C0711   
 BV BND1      C0722   
 BV BND1      C0724   
 BV BND1      C0726   
 BV BND1      C0728   
 BV BND1      C0753   
 BV BND1      C0754   
 BV BND1      C0755   
 BV BND1      C0756   
 BV BND1      C0757   
 BV BND1      C0758   
 BV BND1      C0759   
 BV BND1      C0760   
 BV BND1      C0761   
 BV BND1      C0762   
 BV BND1      C0763   
 BV BND1      C0764   
 BV BND1      C0765   
 BV BND1      C0772   
 BV BND1      C0773   
 BV BND1      C0774   
 BV BND1      C0775   
 BV BND1      C0776   
 BV BND1      C0777   
 BV BND1      C0778   
 BV BND1      C0779   
 BV BND1      C0780   
 BV BND1      C0781   
 BV BND1      C0782   
 BV BND1      C0783   
 BV BND1      C0807   
 BV BND1      C0808   
 BV BND1      C0809   
 BV BND1      C0810   
 BV BND1      C0811   
 BV BND1      C0812   
 BV BND1      C0813   
 BV BND1      C0814   
 BV BND1      C0815   
 BV BND1      C0816   
 BV BND1      C0817   
 BV BND1      C0818   
 BV BND1      C0819   
 BV BND1      C0829   
 BV BND1      C0831   
 BV BND1      C0833   
 BV BND1      C0835   
 BV BND1      C0837   
 BV BND1      C0861   
 BV BND1      C0863   
 BV BND1      C0865   
 BV BND1      C0867   
 BV BND1      C0869   
 BV BND1      C0871   
 BV BND1      C0873   
 BV BND1      C0901   
 BV BND1      C0903   
 BV BND1      C0905   
 BV BND1      C0907   
 BV BND1      C0909   
 BV BND1      C0920   
 BV BND1      C0922   
 BV BND1      C0924   
 BV BND1      C0926   
 BV BND1      C0934   
 BV BND1      C0936   
 BV BND1      C0938   
 BV BND1      C0940   
 BV BND1      C0942   
 BV BND1      C0944   
 BV BND1      C0952   
 BV BND1      C0954   
 BV BND1      C0956   
 BV BND1      C0958   
 BV BND1      C0960   
 BV BND1      C0962   
 BV BND1      C0973   
 BV BND1      C0974   
 BV BND1      C0975   
 BV BND1      C0976   
 BV BND1      C0977   
 BV BND1      C0978   
 BV BND1      C0979   
 BV BND1      C0980   
 BV BND1      C0981   
 BV BND1      C0992   
 BV BND1      C0994   
 BV BND1      C0996   
 BV BND1      C0998   
 BV BND1      C1005   
 BV BND1      C1006   
 BV BND1      C1007   
 BV BND1      C1008   
 BV BND1      C1009   
 BV BND1      C1010   
 BV BND1      C1011   
 BV BND1      C1012   
 BV BND1      C1013   
 BV BND1      C1014   
 BV BND1      C1015   
 BV BND1      C1016   
 BV BND1      C1017   
 BV BND1      C1045   
 BV BND1      C1047   
 BV BND1      C1049   
 BV BND1      C1051   
 BV BND1      C1053   
 BV BND1      C1077   
 BV BND1      C1079   
 BV BND1      C1081   
 BV BND1      C1083   
 BV BND1      C1085   
 BV BND1      C1087   
 BV BND1      C1089   
 BV BND1      C1096   
 BV BND1      C1097   
 BV BND1      C1098   
 BV BND1      C1099   
 BV BND1      C1100   
 BV BND1      C1101   
 BV BND1      C1102   
 BV BND1      C1103   
 BV BND1      C1104   
 BV BND1      C1105   
 BV BND1      C1106   
 BV BND1      C1107   
 BV BND1      C1131   
 BV BND1      C1132   
 BV BND1      C1133   
 BV BND1      C1134   
 BV BND1      C1135   
 BV BND1      C1136   
 BV BND1      C1137   
 BV BND1      C1138   
 BV BND1      C1139   
 BV BND1      C1140   
 BV BND1      C1141   
 BV BND1      C1142   
 BV BND1      C1143   
 BV BND1      C1153   
 BV BND1      C1155   
 BV BND1      C1157   
 BV BND1      C1159   
 BV BND1      C1161   
 BV BND1      C1167   
 BV BND1      C1168   
 BV BND1      C1169   
 BV BND1      C1170   
 BV BND1      C1171   
 BV BND1      C1172   
 BV BND1      C1173   
 BV BND1      C1174   
 BV BND1      C1175   
 BV BND1      C1176   
 BV BND1      C1177   
 BV BND1      C1178   
 BV BND1      C1179   
 BV BND1      C1186   
 BV BND1      C1188   
 BV BND1      C1190   
 BV BND1      C1192   
 BV BND1      C1194   
 BV BND1      C1196   
 BV BND1      C1203   
 BV BND1      C1204   
 BV BND1      C1205   
 BV BND1      C1206   
 BV BND1      C1207   
 BV BND1      C1208   
 BV BND1      C1209   
 BV BND1      C1210   
 BV BND1      C1211   
 BV BND1      C1212   
 BV BND1      C1213   
 BV BND1      C1214   
 BV BND1      C1215   
 BV BND1      C1239   
 BV BND1      C1241   
 BV BND1      C1243   
 BV BND1      C1245   
 BV BND1      C1247   
 BV BND1      C1249   
 BV BND1      C1251   
 BV BND1      C1280   
 BV BND1      C1282   
 BV BND1      C1284   
 BV BND1      C1286   
 BV BND1      C1297   
 BV BND1      C1298   
 BV BND1      C1299   
 BV BND1      C1300   
 BV BND1      C1301   
 BV BND1      C1302   
 BV BND1      C1303   
 BV BND1      C1304   
 BV BND1      C1305   
 BV BND1      C1333   
 BV BND1      C1335   
 BV BND1      C1337   
 BV BND1      C1339   
 BV BND1      C1341   
 BV BND1      C1347   
 BV BND1      C1349   
 BV BND1      C1353   
 BV BND1      C1355   
 BV BND1      C1357   
 BV BND1      C1359   
 BV BND1      C1365   
 BV BND1      C1366   
 BV BND1      C1367   
 BV BND1      C1368   
 BV BND1      C1370   
 BV BND1      C1371   
 BV BND1      C1372   
 BV BND1      C1373   
 BV BND1      C1374   
 BV BND1      C1375   
 BV BND1      C1376   
 BV BND1      C1377   
 BV BND1      C1384   
 BV BND1      C1386   
 BV BND1      C1388   
 BV BND1      C1390   
 BV BND1      C1392   
 BV BND1      C1394   
 BV BND1      C1401   
 BV BND1      C1402   
 BV BND1      C1403   
 BV BND1      C1404   
 BV BND1      C1406   
 BV BND1      C1407   
 BV BND1      C1408   
 BV BND1      C1409   
 BV BND1      C1410   
 BV BND1      C1411   
 BV BND1      C1412   
 BV BND1      C1413   
 BV BND1      C1423   
 BV BND1      C1425   
 BV BND1      C1427   
 BV BND1      C1429   
 BV BND1      C1431   
 BV BND1      C1459   
 BV BND1      C1460   
 BV BND1      C1461   
 BV BND1      C1462   
 BV BND1      C1463   
 BV BND1      C1464   
 BV BND1      C1465   
 BV BND1      C1466   
 BV BND1      C1467   
 BV BND1      C1473   
 BV BND1      C1475   
 BV BND1      C1477   
 BV BND1      C1479   
 BV BND1      C1481   
 BV BND1      C1483   
 BV BND1      C1485   
 BV BND1      C1491   
 BV BND1      C1493   
 BV BND1      C1495   
 BV BND1      C1497   
 BV BND1      C1499   
 BV BND1      C1501   
 BV BND1      C1503   
 BV BND1      C1532   
 BV BND1      C1534   
 BV BND1      C1536   
 BV BND1      C1538   
 BV BND1      C1546   
 BV BND1      C1548   
 BV BND1      C1550   
 BV BND1      C1552   
 BV BND1      C1554   
 BV BND1      C1556   
 BV BND1      C1567   
 BV BND1      C1569   
 BV BND1      C1571   
 BV BND1      C1573   
 BV BND1      C1575   
 BV BND1      C1603   
 BV BND1      C1605   
 BV BND1      C1607   
 BV BND1      C1609   
 BV BND1      C1611   
 BV BND1      C1622   
 BV BND1      C1623   
 BV BND1      C1624   
 BV BND1      C1625   
 BV BND1      C1626   
 BV BND1      C1627   
 BV BND1      C1628   
 BV BND1      C1629   
ENDATA
