NAME ns2081729_pre
ROWS
 N  OBJ
 L  R0001   
 L  R0002   
 L  R0003   
 L  R0004   
 L  R0005   
 L  R0006   
 L  R0007   
 L  R0008   
 L  R0009   
 L  R0010   
 L  R0011   
 L  R0012   
 L  R0013   
 L  R0014   
 L  R0015   
 L  R0016   
 L  R0017   
 L  R0018   
 L  R0019   
 L  R0020   
 L  R0021   
 L  R0022   
 L  R0023   
 L  R0024   
 L  R0025   
 L  R0026   
 L  R0027   
 L  R0028   
 L  R0029   
 L  R0030   
 L  R0091   
 L  R0092   
 L  R0093   
 L  R0094   
 L  R0095   
 L  R0096   
 L  R0097   
 L  R0098   
 L  R0099   
 L  R0100   
 L  R0101   
 L  R0102   
 L  R0103   
 L  R0104   
 L  R0105   
 L  R0106   
 L  R0107   
 L  R0108   
 L  R0109   
 L  R0110   
 L  R0111   
 L  R0112   
 L  R0113   
 L  R0114   
 L  R0115   
 L  R0116   
 L  R0117   
 L  R0118   
 L  R0119   
 L  R0120   
 L  R0121   
 L  R0122   
 L  R0123   
 L  R0124   
 L  R0125   
 L  R0126   
 L  R0127   
 L  R0128   
 L  R0129   
 L  R0130   
 L  R0131   
 L  R0132   
 L  R0133   
 L  R0134   
 L  R0135   
 L  R0136   
 L  R0137   
 L  R0138   
 L  R0139   
 L  R0140   
 L  R0141   
 L  R0142   
 L  R0143   
 L  R0144   
 L  R0145   
 L  R0146   
 L  R0147   
 L  R0148   
 L  R0149   
 L  R0150   
 L  R0151   
 L  R0152   
 L  R0153   
 L  R0154   
 L  R0155   
 L  R0156   
 L  R0157   
 L  R0158   
 L  R0159   
 L  R0160   
 L  R0161   
 L  R0162   
 L  R0163   
 L  R0164   
 L  R0165   
 L  R0166   
 L  R0167   
 L  R0168   
 L  R0169   
 L  R0170   
 L  R0171   
 L  R0172   
 L  R0173   
 L  R0174   
 L  R0175   
 L  R0176   
 L  R0177   
 L  R0178   
 L  R0179   
 L  R0180   
 L  R0181   
 L  R0182   
 L  R0183   
 L  R0184   
 L  R0185   
 L  R0186   
 L  R0187   
 L  R0188   
 L  R0189   
 L  R0190   
 L  R0191   
 L  R0192   
 L  R0193   
 L  R0194   
 L  R0195   
 L  R0196   
 L  R0197   
 L  R0198   
 L  R0199   
 L  R0200   
 L  R0201   
 L  R0202   
 L  R0203   
 L  R0204   
 L  R0205   
 L  R0206   
 L  R0207   
 L  R0208   
 L  R0209   
 L  R0210   
 L  R0211   
 L  R0212   
 L  R0213   
 L  R0214   
 L  R0215   
 L  R0216   
 L  R0217   
 L  R0218   
 L  R0219   
 L  R0220   
 L  R0221   
 L  R0222   
 L  R0223   
 L  R0224   
 L  R0225   
 L  R0226   
 L  R0227   
 L  R0228   
 L  R0229   
 L  R0230   
 L  R0231   
 L  R0232   
 L  R0233   
 L  R0234   
 L  R0235   
 L  R0236   
 L  R0237   
 L  R0238   
 L  R0239   
 L  R0240   
 L  R0241   
 L  R0242   
 L  R0243   
 L  R0244   
 L  R0245   
 L  R0246   
 L  R0247   
 L  R0248   
 L  R0249   
 L  R0250   
 L  R0251   
 L  R0252   
 L  R0253   
 L  R0254   
 L  R0255   
 L  R0256   
 L  R0257   
 L  R0258   
 L  R0259   
 L  R0260   
 L  R0261   
 L  R0262   
 L  R0263   
 L  R0264   
 L  R0265   
 L  R0266   
 L  R0267   
 L  R0268   
 L  R0269   
 L  R0270   
 L  R0271   
 L  R0272   
 L  R0273   
 L  R0274   
 L  R0275   
 L  R0276   
 L  R0277   
 L  R0278   
 L  R0279   
 L  R0280   
 L  R0281   
 L  R0282   
 L  R0283   
 L  R0284   
 L  R0285   
 L  R0286   
 L  R0287   
 L  R0288   
 L  R0289   
 L  R0290   
 L  R0291   
 L  R0292   
 L  R0293   
 L  R0294   
 L  R0295   
 L  R0296   
 L  R0297   
 L  R0298   
 L  R0299   
 L  R0300   
 L  R0301   
 L  R0302   
 L  R0303   
 L  R0304   
 L  R0305   
 L  R0306   
 L  R0307   
 L  R0308   
 L  R0309   
 L  R0310   
 L  R0311   
 L  R0312   
 L  R0313   
 L  R0314   
 L  R0315   
 L  R0316   
 L  R0317   
 L  R0318   
 L  R0319   
 L  R0320   
 L  R0321   
 L  R0322   
 L  R0323   
 L  R0324   
 L  R0325   
 L  R0326   
 L  R0327   
 L  R0328   
 L  R0329   
 L  R0330   
 L  R0331   
 L  R0332   
 L  R0333   
 L  R0334   
 L  R0335   
 L  R0336   
 L  R0337   
 L  R0338   
 L  R0339   
 L  R0340   
 L  R0341   
 L  R0342   
 L  R0343   
 L  R0344   
 L  R0345   
 L  R0346   
 L  R0347   
 L  R0348   
 L  R0349   
 L  R0350   
 L  R0351   
 L  R0352   
 L  R0353   
 L  R0354   
 L  R0355   
 L  R0356   
 L  R0357   
 L  R0358   
 L  R0359   
 L  R0360   
 L  R0361   
 L  R0362   
 L  R0363   
 L  R0364   
 L  R0365   
 L  R0366   
 L  R0367   
 L  R0368   
 L  R0369   
 L  R0370   
 L  R0371   
 L  R0372   
 L  R0373   
 L  R0374   
 L  R0375   
 L  R0376   
 L  R0377   
 L  R0378   
 L  R0379   
 L  R0380   
 L  R0381   
 L  R0382   
 L  R0383   
 L  R0384   
 L  R0385   
 L  R0386   
 L  R0387   
 L  R0388   
 L  R0389   
 L  R0390   
 L  R0391   
 L  R0392   
 L  R0393   
 L  R0394   
 L  R0395   
 L  R0396   
 L  R0397   
 L  R0398   
 L  R0399   
 L  R0400   
 L  R0401   
 L  R0402   
 L  R0403   
 L  R0404   
 L  R0405   
 L  R0406   
 L  R0407   
 L  R0408   
 L  R0409   
 L  R0410   
 L  R0411   
 L  R0412   
 L  R0413   
 L  R0414   
 L  R0415   
 L  R0416   
 L  R0417   
 L  R0418   
 L  R0419   
 L  R0420   
 L  R0421   
 L  R0422   
 L  R0423   
 L  R0424   
 L  R0425   
 L  R0426   
 L  R0427   
 L  R0428   
 L  R0429   
 L  R0430   
 L  R0431   
 L  R0432   
 L  R0433   
 L  R0434   
 L  R0435   
 L  R0436   
 L  R0437   
 L  R0438   
 L  R0439   
 L  R0440   
 L  R0441   
 L  R0442   
 L  R0443   
 L  R0444   
 L  R0445   
 L  R0446   
 L  R0447   
 L  R0448   
 L  R0449   
 L  R0450   
 L  R0451   
 L  R0452   
 L  R0453   
 L  R0454   
 L  R0455   
 L  R0456   
 L  R0457   
 L  R0458   
 L  R0459   
 L  R0460   
 L  R0461   
 L  R0462   
 L  R0463   
 L  R0464   
 L  R0465   
 L  R0466   
 L  R0467   
 L  R0468   
 L  R0469   
 L  R0470   
 L  R0471   
 L  R0472   
 L  R0473   
 L  R0474   
 L  R0475   
 L  R0476   
 L  R0477   
 L  R0478   
 L  R0479   
 L  R0480   
 L  R0481   
 L  R0482   
 L  R0483   
 L  R0484   
 L  R0485   
 L  R0486   
 L  R0487   
 L  R0488   
 L  R0489   
 L  R0490   
 L  R0491   
 L  R0492   
 L  R0493   
 L  R0494   
 L  R0495   
 L  R0496   
 L  R0497   
 L  R0498   
 L  R0499   
 L  R0500   
 L  R0501   
 L  R0502   
 L  R0503   
 L  R0504   
 L  R0505   
 L  R0506   
 L  R0507   
 L  R0508   
 L  R0509   
 L  R0510   
 L  R0511   
 L  R0512   
 L  R0513   
 L  R0514   
 L  R0515   
 L  R0516   
 L  R0517   
 L  R0518   
 L  R0519   
 L  R0520   
 L  R0521   
 L  R0522   
 L  R0523   
 L  R0524   
 L  R0525   
 L  R0526   
 L  R0527   
 L  R0528   
 L  R0529   
 L  R0530   
 L  R0531   
 L  R0532   
 L  R0533   
 L  R0534   
 L  R0535   
 L  R0536   
 L  R0537   
 L  R0538   
 L  R0539   
 L  R0540   
 L  R0541   
 L  R0542   
 L  R0543   
 L  R0544   
 L  R0545   
 L  R0546   
 L  R0547   
 L  R0548   
 L  R0549   
 L  R0550   
 L  R0551   
 L  R0552   
 L  R0553   
 L  R0554   
 L  R0555   
 L  R0556   
 L  R0557   
 L  R0558   
 L  R0559   
 L  R0560   
 L  R0561   
 L  R0562   
 L  R0563   
 L  R0564   
 L  R0565   
 L  R0566   
 L  R0567   
 L  R0568   
 L  R0569   
 L  R0570   
 L  R0571   
 L  R0572   
 L  R0573   
 L  R0574   
 L  R0575   
 L  R0576   
 L  R0577   
 L  R0578   
 L  R0579   
 L  R0580   
 L  R0581   
 L  R0582   
 L  R0583   
 L  R0584   
 L  R0585   
 L  R0586   
 L  R0587   
 L  R0588   
 L  R0589   
 L  R0590   
 L  R0591   
 L  R0592   
 L  R0593   
 L  R0594   
 L  R0595   
 L  R0596   
 L  R0597   
 L  R0598   
 L  R0599   
 L  R0600   
 L  R0601   
 L  R0602   
 L  R0603   
 L  R0604   
 L  R0605   
 L  R0606   
 L  R0607   
 L  R0608   
 L  R0609   
 L  R0610   
 L  R0611   
 L  R0612   
 L  R0613   
 L  R0614   
 L  R0615   
 L  R0616   
 L  R0617   
 L  R0618   
 L  R0619   
 L  R0620   
 L  R0621   
 L  R0622   
 L  R0623   
 L  R0624   
 L  R0625   
 L  R0626   
 L  R0627   
 L  R0628   
 L  R0629   
 L  R0630   
 L  R0631   
 L  R0632   
 L  R0633   
 L  R0634   
 L  R0635   
 L  R0636   
 L  R0637   
 L  R0638   
 L  R0639   
 L  R0640   
 L  R0641   
 L  R0642   
 L  R0643   
 L  R0644   
 L  R0645   
 L  R0646   
 L  R0647   
 L  R0648   
 L  R0649   
 L  R0650   
 L  R0651   
 L  R0652   
 L  R0653   
 L  R0654   
 L  R0655   
 L  R0656   
 L  R0657   
 L  R0658   
 L  R0659   
 L  R0660   
 L  R0661   
 L  R0662   
 L  R0663   
 L  R0664   
 L  R0665   
 L  R0666   
 L  R0667   
 L  R0668   
 L  R0669   
 L  R0670   
 L  R0671   
 L  R0672   
 L  R0673   
 L  R0674   
 L  R0675   
 L  R0676   
 L  R0677   
 L  R0678   
 L  R0679   
 L  R0680   
 L  R0681   
 L  R0682   
 L  R0683   
 L  R0684   
 L  R0685   
 L  R0686   
 L  R0687   
 L  R0688   
 L  R0689   
 L  R0690   
 L  R0691   
 L  R0692   
 L  R0693   
 L  R0694   
 L  R0695   
 L  R0696   
 L  R0697   
 L  R0698   
 L  R0699   
 L  R0700   
 L  R0701   
 L  R0702   
 L  R0703   
 L  R0704   
 L  R0705   
 L  R0706   
 L  R0707   
 L  R0708   
 L  R0709   
 L  R0710   
 L  R0711   
 L  R0712   
 L  R0713   
 L  R0714   
 L  R0715   
 L  R0716   
 L  R0717   
 L  R0718   
 L  R0719   
 L  R0720   
 L  R0721   
 L  R0722   
 L  R0723   
 L  R0724   
 L  R0725   
 L  R0726   
 L  R0727   
 L  R0728   
 L  R0729   
 L  R0730   
 L  R0731   
 L  R0732   
 L  R0733   
 L  R0734   
 L  R0735   
 L  R0736   
 L  R0737   
 L  R0738   
 L  R0739   
 L  R0740   
 L  R0741   
 L  R0742   
 L  R0743   
 L  R0744   
 L  R0745   
 L  R0746   
 L  R0747   
 L  R0748   
 L  R0749   
 L  R0750   
 L  R0751   
 L  R0752   
 L  R0753   
 L  R0754   
 L  R0755   
 L  R0756   
 L  R0757   
 L  R0758   
 L  R0759   
 L  R0760   
 L  R0761   
 L  R0762   
 L  R0763   
 L  R0764   
 L  R0765   
 L  R0766   
 L  R0767   
 L  R0768   
 L  R0769   
 L  R0770   
 L  R0771   
 L  R0772   
 L  R0773   
 L  R0774   
 L  R0775   
 L  R0776   
 L  R0777   
 L  R0778   
 L  R0779   
 L  R0780   
 L  R0781   
 L  R0782   
 L  R0783   
 L  R0784   
 L  R0785   
 L  R0786   
 L  R0787   
 L  R0788   
 L  R0789   
 L  R0790   
 L  R0791   
 L  R0792   
 L  R0793   
 L  R0794   
 L  R0795   
 L  R0796   
 L  R0797   
 L  R0798   
 L  R0799   
 L  R0800   
 L  R0801   
 L  R0802   
 L  R0803   
 L  R0804   
 L  R0805   
 L  R0806   
 L  R0807   
 L  R0808   
 L  R0809   
 L  R0810   
 L  R0811   
 L  R0812   
 L  R0813   
 L  R0814   
 L  R0815   
 L  R0816   
 L  R0817   
 L  R0818   
 L  R0819   
 L  R0820   
 L  R0821   
 L  R0822   
 L  R0823   
 L  R0824   
 L  R0825   
 L  R0826   
 L  R0827   
 L  R0828   
 L  R0829   
 L  R0830   
 L  R0831   
 L  R0832   
 L  R0833   
 L  R0834   
 L  R0835   
 L  R0836   
 L  R0837   
 L  R0838   
 L  R0839   
 L  R0840   
 L  R0841   
 L  R0842   
 L  R0843   
 L  R0844   
 L  R0845   
 L  R0846   
 L  R0847   
 L  R0848   
 L  R0849   
 L  R0850   
 L  R0851   
 L  R0852   
 L  R0853   
 L  R0854   
 L  R0855   
 L  R0856   
 L  R0857   
 L  R0858   
 L  R0859   
 L  R0860   
 L  R0861   
 L  R0862   
 L  R0863   
 L  R0864   
 L  R0865   
 L  R0866   
 L  R0867   
 L  R0868   
 L  R0869   
 L  R0870   
 L  R0871   
 L  R0872   
 L  R0873   
 L  R0874   
 L  R0875   
 L  R0876   
 L  R0877   
 L  R0878   
 L  R0879   
 L  R0880   
 L  R0881   
 L  R0882   
 L  R0883   
 L  R0884   
 L  R0885   
 L  R0886   
 L  R0887   
 L  R0888   
 L  R0889   
 L  R0890   
 L  R0891   
 L  R0892   
 L  R0893   
 L  R0894   
 L  R0895   
 L  R0896   
 L  R0897   
 L  R0898   
 L  R0899   
 L  R0900   
 L  R0901   
 L  R0902   
 L  R0903   
 L  R0904   
 L  R0905   
 L  R0906   
 L  R0907   
 L  R0908   
 L  R0909   
 L  R0910   
 L  R0911   
 L  R0912   
 L  R0913   
 L  R0914   
 L  R0915   
 L  R0916   
 L  R0917   
 L  R0918   
 L  R0919   
 L  R0920   
 L  R0921   
 L  R0922   
 L  R0923   
 L  R0924   
 L  R0925   
 L  R0926   
 L  R0927   
 L  R0928   
 L  R0929   
 L  R0930   
 L  R0931   
 L  R0932   
 L  R0933   
 L  R0934   
 L  R0935   
 L  R0936   
 L  R0937   
 L  R0938   
 L  R0939   
 L  R0940   
 L  R0941   
 L  R0942   
 L  R0943   
 L  R0944   
 L  R0945   
 L  R0946   
 L  R0947   
 L  R0948   
 L  R0949   
 L  R0950   
 L  R0951   
 L  R0952   
 L  R0953   
 L  R0954   
 L  R0955   
 L  R0956   
 L  R0957   
 L  R0958   
 L  R0959   
 L  R0960   
 L  R0961   
 L  R0962   
 L  R0963   
 L  R0964   
 L  R0965   
 L  R0966   
 L  R0967   
 L  R0968   
 L  R0969   
 L  R0970   
 L  R0971   
 L  R0972   
 L  R0973   
 L  R0974   
 L  R0975   
 L  R0976   
 L  R0977   
 L  R0978   
 L  R0979   
 L  R0980   
 L  R0981   
 L  R0982   
 L  R0983   
 L  R0984   
 L  R0985   
 L  R0986   
 L  R0987   
 L  R0988   
 L  R0989   
 L  R0990   
 L  R0991   
 L  R0992   
 L  R0993   
 L  R0994   
 L  R0995   
 L  R0996   
 L  R0997   
 L  R0998   
 L  R0999   
 L  R1000   
 L  R1001   
 L  R1002   
 L  R1003   
 L  R1004   
 L  R1005   
 L  R1006   
 L  R1007   
 L  R1008   
 L  R1009   
 L  R1010   
 L  R1011   
 L  R1012   
 L  R1013   
 L  R1014   
 L  R1015   
 L  R1016   
 L  R1017   
 L  R1018   
 L  R1019   
 L  R1020   
 L  R1021   
 L  R1022   
 L  R1023   
 L  R1024   
 L  R1025   
 L  R1026   
 L  R1027   
 L  R1028   
 L  R1029   
 L  R1030   
 L  R1031   
 L  R1032   
 L  R1033   
 L  R1034   
 L  R1035   
 L  R1036   
 L  R1037   
 L  R1038   
 L  R1039   
 L  R1040   
 L  R1041   
 L  R1042   
 L  R1043   
 L  R1044   
 L  R1045   
 L  R1046   
 L  R1047   
 L  R1048   
 L  R1049   
 L  R1050   
 L  R1051   
 L  R1052   
 L  R1053   
 L  R1054   
 L  R1055   
 L  R1056   
 L  R1057   
 L  R1058   
 L  R1059   
 L  R1060   
 L  R1061   
 L  R1062   
 L  R1063   
 L  R1064   
 L  R1065   
 L  R1066   
 L  R1067   
 L  R1068   
 L  R1069   
 L  R1070   
 L  R1071   
 L  R1072   
 L  R1073   
 L  R1074   
 L  R1075   
 L  R1076   
 L  R1077   
 L  R1078   
 L  R1079   
 L  R1080   
 L  R1081   
 L  R1082   
 L  R1083   
 L  R1084   
 L  R1085   
 L  R1086   
 L  R1087   
 L  R1088   
 L  R1089   
 L  R1090   
 L  R1091   
 L  R1092   
 L  R1093   
 L  R1094   
 L  R1095   
 L  R1096   
 L  R1097   
 L  R1098   
 L  R1099   
 L  R1100   
 L  R1101   
 L  R1102   
 L  R1103   
 L  R1104   
 L  R1105   
 L  R1106   
 L  R1107   
 L  R1108   
 L  R1109   
 L  R1110   
 L  R1111   
 L  R1112   
 L  R1113   
 L  R1114   
 L  R1115   
 L  R1116   
 L  R1117   
 L  R1118   
 L  R1119   
 L  R1120   
 L  R1121   
 L  R1122   
 L  R1123   
 L  R1124   
 L  R1125   
 L  R1126   
 L  R1127   
 L  R1128   
 L  R1129   
 L  R1130   
 L  R1131   
 L  R1132   
 L  R1133   
 L  R1134   
 L  R1135   
 L  R1136   
 L  R1137   
 L  R1138   
 L  R1139   
 L  R1140   
 L  R1141   
 L  R1142   
 L  R1143   
 L  R1144   
 L  R1145   
 L  R1146   
 L  R1147   
 L  R1148   
 L  R1149   
 L  R1150   
 L  R1151   
 L  R1152   
 L  R1153   
 L  R1154   
 L  R1155   
 L  R1156   
 L  R1157   
 L  R1158   
 L  R1159   
 L  R1160   
 L  R1161   
 L  R1162   
 L  R1163   
 L  R1164   
 L  R1165   
 L  R1166   
 L  R1167   
 L  R1168   
 L  R1169   
 L  R1170   
 L  R1171   
 L  R1172   
 L  R1173   
 L  R1174   
 L  R1175   
 L  R1176   
 L  R1177   
 L  R1178   
 L  R1179   
 L  R1180   
 L  R1181   
 L  R1182   
 L  R1183   
 L  R1184   
 L  R1185   
 L  R1186   
 L  R1187   
 L  R1188   
 L  R1189   
 L  R1190   
COLUMNS
    C0001     OBJ       1
    C0001     R0001     -1
    C0001     R0002     -1
    C0001     R0003     -1
    C0001     R0004     -1
    C0001     R0005     -1
    C0001     R0006     -1
    C0001     R0007     -1
    C0001     R0008     -1
    C0001     R0009     -1
    C0001     R0010     -1
    C0001     R0011     -1
    C0001     R0012     -1
    C0001     R0013     -1
    C0001     R0014     -1
    C0001     R0015     -1
    C0001     R0016     -1
    C0001     R0017     -1
    C0001     R0018     -1
    C0001     R0019     -1
    C0001     R0020     -1
    C0001     R0021     -1
    C0001     R0022     -1
    C0001     R0023     -1
    C0001     R0024     -1
    C0001     R0025     -1
    C0001     R0026     -1
    C0001     R0027     -1
    C0001     R0028     -1
    C0001     R0029     -1
    C0001     R0030     -1
    C0032     R0308     -1
    C0032     R0307     -1
    C0032     R0306     -1
    C0032     R0305     -1
    C0032     R0304     -1
    C0032     R0303     -1
    C0032     R0302     -1
    C0032     R0301     -1
    C0032     R0300     -1
    C0032     R0299     -1
    C0032     R0298     -1
    C0032     R0297     -1
    C0032     R0296     -1
    C0032     R0295     -1
    C0032     R0294     -1
    C0032     R0293     -1
    C0032     R0292     -1
    C0032     R0291     -1
    C0032     R0274     -1
    C0032     R0273     -1
    C0032     R0256     -1
    C0032     R0255     -1
    C0032     R0238     -1
    C0032     R0237     -1
    C0032     R0220     -1
    C0032     R0219     -1
    C0032     R0202     -1
    C0032     R0201     -1
    C0032     R0184     -1
    C0032     R0183     -1
    C0032     R0166     -1
    C0032     R0165     -1
    C0032     R0148     -1
    C0032     R0147     -1
    C0032     R0130     -1
    C0032     R0129     -1
    C0032     R0001     1
    C0032     R0091     1
    C0032     R0111     1
    C0032     R0112     1
    C0032     R0113     1
    C0032     R0114     1
    C0032     R0115     1
    C0032     R0116     1
    C0032     R0117     1
    C0032     R0118     1
    C0032     R0119     1
    C0032     R0120     1
    C0032     R0121     1
    C0032     R0122     1
    C0032     R0123     1
    C0032     R0124     1
    C0032     R0125     1
    C0032     R0126     1
    C0032     R0127     1
    C0032     R0128     1
    C0032     R0309     1
    C0032     R0310     1
    C0032     R0327     1
    C0032     R0328     1
    C0032     R0345     1
    C0032     R0346     1
    C0032     R0363     1
    C0032     R0364     1
    C0032     R0381     1
    C0032     R0382     1
    C0032     R0399     1
    C0032     R0400     1
    C0032     R0417     1
    C0032     R0418     1
    C0032     R0435     1
    C0032     R0436     1
    C0032     R0453     1
    C0032     R0454     1
    C0033     R0326     -1
    C0033     R0325     -1
    C0033     R0324     -1
    C0033     R0323     -1
    C0033     R0322     -1
    C0033     R0321     -1
    C0033     R0320     -1
    C0033     R0319     -1
    C0033     R0318     -1
    C0033     R0317     -1
    C0033     R0316     -1
    C0033     R0315     -1
    C0033     R0314     -1
    C0033     R0313     -1
    C0033     R0312     -1
    C0033     R0311     -1
    C0033     R0310     -1
    C0033     R0309     -1
    C0033     R0276     -1
    C0033     R0275     -1
    C0033     R0258     -1
    C0033     R0257     -1
    C0033     R0240     -1
    C0033     R0239     -1
    C0033     R0222     -1
    C0033     R0221     -1
    C0033     R0204     -1
    C0033     R0203     -1
    C0033     R0186     -1
    C0033     R0185     -1
    C0033     R0168     -1
    C0033     R0167     -1
    C0033     R0150     -1
    C0033     R0149     -1
    C0033     R0112     -1
    C0033     R0111     -1
    C0033     R0002     1
    C0033     R0093     1
    C0033     R0129     1
    C0033     R0130     1
    C0033     R0131     1
    C0033     R0132     1
    C0033     R0133     1
    C0033     R0134     1
    C0033     R0135     1
    C0033     R0136     1
    C0033     R0137     1
    C0033     R0138     1
    C0033     R0139     1
    C0033     R0140     1
    C0033     R0141     1
    C0033     R0142     1
    C0033     R0143     1
    C0033     R0144     1
    C0033     R0145     1
    C0033     R0146     1
    C0033     R0291     1
    C0033     R0292     1
    C0033     R0329     1
    C0033     R0330     1
    C0033     R0347     1
    C0033     R0348     1
    C0033     R0365     1
    C0033     R0366     1
    C0033     R0383     1
    C0033     R0384     1
    C0033     R0401     1
    C0033     R0402     1
    C0033     R0419     1
    C0033     R0420     1
    C0033     R0437     1
    C0033     R0438     1
    C0033     R0455     1
    C0033     R0456     1
    C0034     R0344     -1
    C0034     R0343     -1
    C0034     R0342     -1
    C0034     R0341     -1
    C0034     R0340     -1
    C0034     R0339     -1
    C0034     R0338     -1
    C0034     R0337     -1
    C0034     R0336     -1
    C0034     R0335     -1
    C0034     R0334     -1
    C0034     R0333     -1
    C0034     R0332     -1
    C0034     R0331     -1
    C0034     R0330     -1
    C0034     R0329     -1
    C0034     R0328     -1
    C0034     R0327     -1
    C0034     R0278     -1
    C0034     R0277     -1
    C0034     R0260     -1
    C0034     R0259     -1
    C0034     R0242     -1
    C0034     R0241     -1
    C0034     R0224     -1
    C0034     R0223     -1
    C0034     R0206     -1
    C0034     R0205     -1
    C0034     R0188     -1
    C0034     R0187     -1
    C0034     R0170     -1
    C0034     R0169     -1
    C0034     R0132     -1
    C0034     R0131     -1
    C0034     R0114     -1
    C0034     R0113     -1
    C0034     R0003     1
    C0034     R0095     1
    C0034     R0147     1
    C0034     R0148     1
    C0034     R0149     1
    C0034     R0150     1
    C0034     R0151     1
    C0034     R0152     1
    C0034     R0153     1
    C0034     R0154     1
    C0034     R0155     1
    C0034     R0156     1
    C0034     R0157     1
    C0034     R0158     1
    C0034     R0159     1
    C0034     R0160     1
    C0034     R0161     1
    C0034     R0162     1
    C0034     R0163     1
    C0034     R0164     1
    C0034     R0293     1
    C0034     R0294     1
    C0034     R0311     1
    C0034     R0312     1
    C0034     R0349     1
    C0034     R0350     1
    C0034     R0367     1
    C0034     R0368     1
    C0034     R0385     1
    C0034     R0386     1
    C0034     R0403     1
    C0034     R0404     1
    C0034     R0421     1
    C0034     R0422     1
    C0034     R0439     1
    C0034     R0440     1
    C0034     R0457     1
    C0034     R0458     1
    C0035     R0362     -1
    C0035     R0361     -1
    C0035     R0360     -1
    C0035     R0359     -1
    C0035     R0358     -1
    C0035     R0357     -1
    C0035     R0356     -1
    C0035     R0355     -1
    C0035     R0354     -1
    C0035     R0353     -1
    C0035     R0352     -1
    C0035     R0351     -1
    C0035     R0350     -1
    C0035     R0349     -1
    C0035     R0348     -1
    C0035     R0347     -1
    C0035     R0346     -1
    C0035     R0345     -1
    C0035     R0280     -1
    C0035     R0279     -1
    C0035     R0262     -1
    C0035     R0261     -1
    C0035     R0244     -1
    C0035     R0243     -1
    C0035     R0226     -1
    C0035     R0225     -1
    C0035     R0208     -1
    C0035     R0207     -1
    C0035     R0190     -1
    C0035     R0189     -1
    C0035     R0152     -1
    C0035     R0151     -1
    C0035     R0134     -1
    C0035     R0133     -1
    C0035     R0116     -1
    C0035     R0115     -1
    C0035     R0004     1
    C0035     R0097     1
    C0035     R0165     1
    C0035     R0166     1
    C0035     R0167     1
    C0035     R0168     1
    C0035     R0169     1
    C0035     R0170     1
    C0035     R0171     1
    C0035     R0172     1
    C0035     R0173     1
    C0035     R0174     1
    C0035     R0175     1
    C0035     R0176     1
    C0035     R0177     1
    C0035     R0178     1
    C0035     R0179     1
    C0035     R0180     1
    C0035     R0181     1
    C0035     R0182     1
    C0035     R0295     1
    C0035     R0296     1
    C0035     R0313     1
    C0035     R0314     1
    C0035     R0331     1
    C0035     R0332     1
    C0035     R0369     1
    C0035     R0370     1
    C0035     R0387     1
    C0035     R0388     1
    C0035     R0405     1
    C0035     R0406     1
    C0035     R0423     1
    C0035     R0424     1
    C0035     R0441     1
    C0035     R0442     1
    C0035     R0459     1
    C0035     R0460     1
    C0036     R0380     -1
    C0036     R0379     -1
    C0036     R0378     -1
    C0036     R0377     -1
    C0036     R0376     -1
    C0036     R0375     -1
    C0036     R0374     -1
    C0036     R0373     -1
    C0036     R0372     -1
    C0036     R0371     -1
    C0036     R0370     -1
    C0036     R0369     -1
    C0036     R0368     -1
    C0036     R0367     -1
    C0036     R0366     -1
    C0036     R0365     -1
    C0036     R0364     -1
    C0036     R0363     -1
    C0036     R0282     -1
    C0036     R0281     -1
    C0036     R0264     -1
    C0036     R0263     -1
    C0036     R0246     -1
    C0036     R0245     -1
    C0036     R0228     -1
    C0036     R0227     -1
    C0036     R0210     -1
    C0036     R0209     -1
    C0036     R0172     -1
    C0036     R0171     -1
    C0036     R0154     -1
    C0036     R0153     -1
    C0036     R0136     -1
    C0036     R0135     -1
    C0036     R0118     -1
    C0036     R0117     -1
    C0036     R0005     1
    C0036     R0099     1
    C0036     R0183     1
    C0036     R0184     1
    C0036     R0185     1
    C0036     R0186     1
    C0036     R0187     1
    C0036     R0188     1
    C0036     R0189     1
    C0036     R0190     1
    C0036     R0191     1
    C0036     R0192     1
    C0036     R0193     1
    C0036     R0194     1
    C0036     R0195     1
    C0036     R0196     1
    C0036     R0197     1
    C0036     R0198     1
    C0036     R0199     1
    C0036     R0200     1
    C0036     R0297     1
    C0036     R0298     1
    C0036     R0315     1
    C0036     R0316     1
    C0036     R0333     1
    C0036     R0334     1
    C0036     R0351     1
    C0036     R0352     1
    C0036     R0389     1
    C0036     R0390     1
    C0036     R0407     1
    C0036     R0408     1
    C0036     R0425     1
    C0036     R0426     1
    C0036     R0443     1
    C0036     R0444     1
    C0036     R0461     1
    C0036     R0462     1
    C0037     R0398     -1
    C0037     R0397     -1
    C0037     R0396     -1
    C0037     R0395     -1
    C0037     R0394     -1
    C0037     R0393     -1
    C0037     R0392     -1
    C0037     R0391     -1
    C0037     R0390     -1
    C0037     R0389     -1
    C0037     R0388     -1
    C0037     R0387     -1
    C0037     R0386     -1
    C0037     R0385     -1
    C0037     R0384     -1
    C0037     R0383     -1
    C0037     R0382     -1
    C0037     R0381     -1
    C0037     R0284     -1
    C0037     R0283     -1
    C0037     R0266     -1
    C0037     R0265     -1
    C0037     R0248     -1
    C0037     R0247     -1
    C0037     R0230     -1
    C0037     R0229     -1
    C0037     R0192     -1
    C0037     R0191     -1
    C0037     R0174     -1
    C0037     R0173     -1
    C0037     R0156     -1
    C0037     R0155     -1
    C0037     R0138     -1
    C0037     R0137     -1
    C0037     R0120     -1
    C0037     R0119     -1
    C0037     R0006     1
    C0037     R0101     1
    C0037     R0201     1
    C0037     R0202     1
    C0037     R0203     1
    C0037     R0204     1
    C0037     R0205     1
    C0037     R0206     1
    C0037     R0207     1
    C0037     R0208     1
    C0037     R0209     1
    C0037     R0210     1
    C0037     R0211     1
    C0037     R0212     1
    C0037     R0213     1
    C0037     R0214     1
    C0037     R0215     1
    C0037     R0216     1
    C0037     R0217     1
    C0037     R0218     1
    C0037     R0299     1
    C0037     R0300     1
    C0037     R0317     1
    C0037     R0318     1
    C0037     R0335     1
    C0037     R0336     1
    C0037     R0353     1
    C0037     R0354     1
    C0037     R0371     1
    C0037     R0372     1
    C0037     R0409     1
    C0037     R0410     1
    C0037     R0427     1
    C0037     R0428     1
    C0037     R0445     1
    C0037     R0446     1
    C0037     R0463     1
    C0037     R0464     1
    C0038     R0416     -1
    C0038     R0415     -1
    C0038     R0414     -1
    C0038     R0413     -1
    C0038     R0412     -1
    C0038     R0411     -1
    C0038     R0410     -1
    C0038     R0409     -1
    C0038     R0408     -1
    C0038     R0407     -1
    C0038     R0406     -1
    C0038     R0405     -1
    C0038     R0404     -1
    C0038     R0403     -1
    C0038     R0402     -1
    C0038     R0401     -1
    C0038     R0400     -1
    C0038     R0399     -1
    C0038     R0286     -1
    C0038     R0285     -1
    C0038     R0268     -1
    C0038     R0267     -1
    C0038     R0250     -1
    C0038     R0249     -1
    C0038     R0212     -1
    C0038     R0211     -1
    C0038     R0194     -1
    C0038     R0193     -1
    C0038     R0176     -1
    C0038     R0175     -1
    C0038     R0158     -1
    C0038     R0157     -1
    C0038     R0140     -1
    C0038     R0139     -1
    C0038     R0122     -1
    C0038     R0121     -1
    C0038     R0007     1
    C0038     R0103     1
    C0038     R0219     1
    C0038     R0220     1
    C0038     R0221     1
    C0038     R0222     1
    C0038     R0223     1
    C0038     R0224     1
    C0038     R0225     1
    C0038     R0226     1
    C0038     R0227     1
    C0038     R0228     1
    C0038     R0229     1
    C0038     R0230     1
    C0038     R0231     1
    C0038     R0232     1
    C0038     R0233     1
    C0038     R0234     1
    C0038     R0235     1
    C0038     R0236     1
    C0038     R0301     1
    C0038     R0302     1
    C0038     R0319     1
    C0038     R0320     1
    C0038     R0337     1
    C0038     R0338     1
    C0038     R0355     1
    C0038     R0356     1
    C0038     R0373     1
    C0038     R0374     1
    C0038     R0391     1
    C0038     R0392     1
    C0038     R0429     1
    C0038     R0430     1
    C0038     R0447     1
    C0038     R0448     1
    C0038     R0465     1
    C0038     R0466     1
    C0039     R0434     -1
    C0039     R0433     -1
    C0039     R0432     -1
    C0039     R0431     -1
    C0039     R0430     -1
    C0039     R0429     -1
    C0039     R0428     -1
    C0039     R0427     -1
    C0039     R0426     -1
    C0039     R0425     -1
    C0039     R0424     -1
    C0039     R0423     -1
    C0039     R0422     -1
    C0039     R0421     -1
    C0039     R0420     -1
    C0039     R0419     -1
    C0039     R0418     -1
    C0039     R0417     -1
    C0039     R0288     -1
    C0039     R0287     -1
    C0039     R0270     -1
    C0039     R0269     -1
    C0039     R0232     -1
    C0039     R0231     -1
    C0039     R0214     -1
    C0039     R0213     -1
    C0039     R0196     -1
    C0039     R0195     -1
    C0039     R0178     -1
    C0039     R0177     -1
    C0039     R0160     -1
    C0039     R0159     -1
    C0039     R0142     -1
    C0039     R0141     -1
    C0039     R0124     -1
    C0039     R0123     -1
    C0039     R0008     1
    C0039     R0105     1
    C0039     R0237     1
    C0039     R0238     1
    C0039     R0239     1
    C0039     R0240     1
    C0039     R0241     1
    C0039     R0242     1
    C0039     R0243     1
    C0039     R0244     1
    C0039     R0245     1
    C0039     R0246     1
    C0039     R0247     1
    C0039     R0248     1
    C0039     R0249     1
    C0039     R0250     1
    C0039     R0251     1
    C0039     R0252     1
    C0039     R0253     1
    C0039     R0254     1
    C0039     R0303     1
    C0039     R0304     1
    C0039     R0321     1
    C0039     R0322     1
    C0039     R0339     1
    C0039     R0340     1
    C0039     R0357     1
    C0039     R0358     1
    C0039     R0375     1
    C0039     R0376     1
    C0039     R0393     1
    C0039     R0394     1
    C0039     R0411     1
    C0039     R0412     1
    C0039     R0449     1
    C0039     R0450     1
    C0039     R0467     1
    C0039     R0468     1
    C0040     R0452     -1
    C0040     R0451     -1
    C0040     R0450     -1
    C0040     R0449     -1
    C0040     R0448     -1
    C0040     R0447     -1
    C0040     R0446     -1
    C0040     R0445     -1
    C0040     R0444     -1
    C0040     R0443     -1
    C0040     R0442     -1
    C0040     R0441     -1
    C0040     R0440     -1
    C0040     R0439     -1
    C0040     R0438     -1
    C0040     R0437     -1
    C0040     R0436     -1
    C0040     R0435     -1
    C0040     R0290     -1
    C0040     R0289     -1
    C0040     R0252     -1
    C0040     R0251     -1
    C0040     R0234     -1
    C0040     R0233     -1
    C0040     R0216     -1
    C0040     R0215     -1
    C0040     R0198     -1
    C0040     R0197     -1
    C0040     R0180     -1
    C0040     R0179     -1
    C0040     R0162     -1
    C0040     R0161     -1
    C0040     R0144     -1
    C0040     R0143     -1
    C0040     R0126     -1
    C0040     R0125     -1
    C0040     R0009     1
    C0040     R0107     1
    C0040     R0255     1
    C0040     R0256     1
    C0040     R0257     1
    C0040     R0258     1
    C0040     R0259     1
    C0040     R0260     1
    C0040     R0261     1
    C0040     R0262     1
    C0040     R0263     1
    C0040     R0264     1
    C0040     R0265     1
    C0040     R0266     1
    C0040     R0267     1
    C0040     R0268     1
    C0040     R0269     1
    C0040     R0270     1
    C0040     R0271     1
    C0040     R0272     1
    C0040     R0305     1
    C0040     R0306     1
    C0040     R0323     1
    C0040     R0324     1
    C0040     R0341     1
    C0040     R0342     1
    C0040     R0359     1
    C0040     R0360     1
    C0040     R0377     1
    C0040     R0378     1
    C0040     R0395     1
    C0040     R0396     1
    C0040     R0413     1
    C0040     R0414     1
    C0040     R0431     1
    C0040     R0432     1
    C0040     R0469     1
    C0040     R0470     1
    C0041     R0470     -1
    C0041     R0469     -1
    C0041     R0468     -1
    C0041     R0467     -1
    C0041     R0466     -1
    C0041     R0465     -1
    C0041     R0464     -1
    C0041     R0463     -1
    C0041     R0462     -1
    C0041     R0461     -1
    C0041     R0460     -1
    C0041     R0459     -1
    C0041     R0458     -1
    C0041     R0457     -1
    C0041     R0456     -1
    C0041     R0455     -1
    C0041     R0454     -1
    C0041     R0453     -1
    C0041     R0272     -1
    C0041     R0271     -1
    C0041     R0254     -1
    C0041     R0253     -1
    C0041     R0236     -1
    C0041     R0235     -1
    C0041     R0218     -1
    C0041     R0217     -1
    C0041     R0200     -1
    C0041     R0199     -1
    C0041     R0182     -1
    C0041     R0181     -1
    C0041     R0164     -1
    C0041     R0163     -1
    C0041     R0146     -1
    C0041     R0145     -1
    C0041     R0128     -1
    C0041     R0127     -1
    C0041     R0010     1
    C0041     R0109     1
    C0041     R0273     1
    C0041     R0274     1
    C0041     R0275     1
    C0041     R0276     1
    C0041     R0277     1
    C0041     R0278     1
    C0041     R0279     1
    C0041     R0280     1
    C0041     R0281     1
    C0041     R0282     1
    C0041     R0283     1
    C0041     R0284     1
    C0041     R0285     1
    C0041     R0286     1
    C0041     R0287     1
    C0041     R0288     1
    C0041     R0289     1
    C0041     R0290     1
    C0041     R0307     1
    C0041     R0308     1
    C0041     R0325     1
    C0041     R0326     1
    C0041     R0343     1
    C0041     R0344     1
    C0041     R0361     1
    C0041     R0362     1
    C0041     R0379     1
    C0041     R0380     1
    C0041     R0397     1
    C0041     R0398     1
    C0041     R0415     1
    C0041     R0416     1
    C0041     R0433     1
    C0041     R0434     1
    C0041     R0451     1
    C0041     R0452     1
    C0042     R0668     -1
    C0042     R0667     -1
    C0042     R0666     -1
    C0042     R0665     -1
    C0042     R0664     -1
    C0042     R0663     -1
    C0042     R0662     -1
    C0042     R0661     -1
    C0042     R0660     -1
    C0042     R0659     -1
    C0042     R0658     -1
    C0042     R0657     -1
    C0042     R0656     -1
    C0042     R0655     -1
    C0042     R0654     -1
    C0042     R0653     -1
    C0042     R0652     -1
    C0042     R0651     -1
    C0042     R0634     -1
    C0042     R0633     -1
    C0042     R0616     -1
    C0042     R0615     -1
    C0042     R0598     -1
    C0042     R0597     -1
    C0042     R0580     -1
    C0042     R0579     -1
    C0042     R0562     -1
    C0042     R0561     -1
    C0042     R0544     -1
    C0042     R0543     -1
    C0042     R0526     -1
    C0042     R0525     -1
    C0042     R0508     -1
    C0042     R0507     -1
    C0042     R0490     -1
    C0042     R0489     -1
    C0042     R0091     -1
    C0042     R0011     1
    C0042     R0092     1
    C0042     R0471     1
    C0042     R0472     1
    C0042     R0473     1
    C0042     R0474     1
    C0042     R0475     1
    C0042     R0476     1
    C0042     R0477     1
    C0042     R0478     1
    C0042     R0479     1
    C0042     R0480     1
    C0042     R0481     1
    C0042     R0482     1
    C0042     R0483     1
    C0042     R0484     1
    C0042     R0485     1
    C0042     R0486     1
    C0042     R0487     1
    C0042     R0488     1
    C0042     R0669     1
    C0042     R0670     1
    C0042     R0687     1
    C0042     R0688     1
    C0042     R0705     1
    C0042     R0706     1
    C0042     R0723     1
    C0042     R0724     1
    C0042     R0741     1
    C0042     R0742     1
    C0042     R0759     1
    C0042     R0760     1
    C0042     R0777     1
    C0042     R0778     1
    C0042     R0795     1
    C0042     R0796     1
    C0042     R0813     1
    C0042     R0814     1
    C0043     R0686     -1
    C0043     R0685     -1
    C0043     R0684     -1
    C0043     R0683     -1
    C0043     R0682     -1
    C0043     R0681     -1
    C0043     R0680     -1
    C0043     R0679     -1
    C0043     R0678     -1
    C0043     R0677     -1
    C0043     R0676     -1
    C0043     R0675     -1
    C0043     R0674     -1
    C0043     R0673     -1
    C0043     R0672     -1
    C0043     R0671     -1
    C0043     R0670     -1
    C0043     R0669     -1
    C0043     R0636     -1
    C0043     R0635     -1
    C0043     R0618     -1
    C0043     R0617     -1
    C0043     R0600     -1
    C0043     R0599     -1
    C0043     R0582     -1
    C0043     R0581     -1
    C0043     R0564     -1
    C0043     R0563     -1
    C0043     R0546     -1
    C0043     R0545     -1
    C0043     R0528     -1
    C0043     R0527     -1
    C0043     R0510     -1
    C0043     R0509     -1
    C0043     R0472     -1
    C0043     R0471     -1
    C0043     R0093     -1
    C0043     R0012     1
    C0043     R0094     1
    C0043     R0489     1
    C0043     R0490     1
    C0043     R0491     1
    C0043     R0492     1
    C0043     R0493     1
    C0043     R0494     1
    C0043     R0495     1
    C0043     R0496     1
    C0043     R0497     1
    C0043     R0498     1
    C0043     R0499     1
    C0043     R0500     1
    C0043     R0501     1
    C0043     R0502     1
    C0043     R0503     1
    C0043     R0504     1
    C0043     R0505     1
    C0043     R0506     1
    C0043     R0651     1
    C0043     R0652     1
    C0043     R0689     1
    C0043     R0690     1
    C0043     R0707     1
    C0043     R0708     1
    C0043     R0725     1
    C0043     R0726     1
    C0043     R0743     1
    C0043     R0744     1
    C0043     R0761     1
    C0043     R0762     1
    C0043     R0779     1
    C0043     R0780     1
    C0043     R0797     1
    C0043     R0798     1
    C0043     R0815     1
    C0043     R0816     1
    C0044     R0704     -1
    C0044     R0703     -1
    C0044     R0702     -1
    C0044     R0701     -1
    C0044     R0700     -1
    C0044     R0699     -1
    C0044     R0698     -1
    C0044     R0697     -1
    C0044     R0696     -1
    C0044     R0695     -1
    C0044     R0694     -1
    C0044     R0693     -1
    C0044     R0692     -1
    C0044     R0691     -1
    C0044     R0690     -1
    C0044     R0689     -1
    C0044     R0688     -1
    C0044     R0687     -1
    C0044     R0638     -1
    C0044     R0637     -1
    C0044     R0620     -1
    C0044     R0619     -1
    C0044     R0602     -1
    C0044     R0601     -1
    C0044     R0584     -1
    C0044     R0583     -1
    C0044     R0566     -1
    C0044     R0565     -1
    C0044     R0548     -1
    C0044     R0547     -1
    C0044     R0530     -1
    C0044     R0529     -1
    C0044     R0492     -1
    C0044     R0491     -1
    C0044     R0474     -1
    C0044     R0473     -1
    C0044     R0095     -1
    C0044     R0013     1
    C0044     R0096     1
    C0044     R0507     1
    C0044     R0508     1
    C0044     R0509     1
    C0044     R0510     1
    C0044     R0511     1
    C0044     R0512     1
    C0044     R0513     1
    C0044     R0514     1
    C0044     R0515     1
    C0044     R0516     1
    C0044     R0517     1
    C0044     R0518     1
    C0044     R0519     1
    C0044     R0520     1
    C0044     R0521     1
    C0044     R0522     1
    C0044     R0523     1
    C0044     R0524     1
    C0044     R0653     1
    C0044     R0654     1
    C0044     R0671     1
    C0044     R0672     1
    C0044     R0709     1
    C0044     R0710     1
    C0044     R0727     1
    C0044     R0728     1
    C0044     R0745     1
    C0044     R0746     1
    C0044     R0763     1
    C0044     R0764     1
    C0044     R0781     1
    C0044     R0782     1
    C0044     R0799     1
    C0044     R0800     1
    C0044     R0817     1
    C0044     R0818     1
    C0045     R0722     -1
    C0045     R0721     -1
    C0045     R0720     -1
    C0045     R0719     -1
    C0045     R0718     -1
    C0045     R0717     -1
    C0045     R0716     -1
    C0045     R0715     -1
    C0045     R0714     -1
    C0045     R0713     -1
    C0045     R0712     -1
    C0045     R0711     -1
    C0045     R0710     -1
    C0045     R0709     -1
    C0045     R0708     -1
    C0045     R0707     -1
    C0045     R0706     -1
    C0045     R0705     -1
    C0045     R0640     -1
    C0045     R0639     -1
    C0045     R0622     -1
    C0045     R0621     -1
    C0045     R0604     -1
    C0045     R0603     -1
    C0045     R0586     -1
    C0045     R0585     -1
    C0045     R0568     -1
    C0045     R0567     -1
    C0045     R0550     -1
    C0045     R0549     -1
    C0045     R0512     -1
    C0045     R0511     -1
    C0045     R0494     -1
    C0045     R0493     -1
    C0045     R0476     -1
    C0045     R0475     -1
    C0045     R0097     -1
    C0045     R0014     1
    C0045     R0098     1
    C0045     R0525     1
    C0045     R0526     1
    C0045     R0527     1
    C0045     R0528     1
    C0045     R0529     1
    C0045     R0530     1
    C0045     R0531     1
    C0045     R0532     1
    C0045     R0533     1
    C0045     R0534     1
    C0045     R0535     1
    C0045     R0536     1
    C0045     R0537     1
    C0045     R0538     1
    C0045     R0539     1
    C0045     R0540     1
    C0045     R0541     1
    C0045     R0542     1
    C0045     R0655     1
    C0045     R0656     1
    C0045     R0673     1
    C0045     R0674     1
    C0045     R0691     1
    C0045     R0692     1
    C0045     R0729     1
    C0045     R0730     1
    C0045     R0747     1
    C0045     R0748     1
    C0045     R0765     1
    C0045     R0766     1
    C0045     R0783     1
    C0045     R0784     1
    C0045     R0801     1
    C0045     R0802     1
    C0045     R0819     1
    C0045     R0820     1
    C0046     R0740     -1
    C0046     R0739     -1
    C0046     R0738     -1
    C0046     R0737     -1
    C0046     R0736     -1
    C0046     R0735     -1
    C0046     R0734     -1
    C0046     R0733     -1
    C0046     R0732     -1
    C0046     R0731     -1
    C0046     R0730     -1
    C0046     R0729     -1
    C0046     R0728     -1
    C0046     R0727     -1
    C0046     R0726     -1
    C0046     R0725     -1
    C0046     R0724     -1
    C0046     R0723     -1
    C0046     R0642     -1
    C0046     R0641     -1
    C0046     R0624     -1
    C0046     R0623     -1
    C0046     R0606     -1
    C0046     R0605     -1
    C0046     R0588     -1
    C0046     R0587     -1
    C0046     R0570     -1
    C0046     R0569     -1
    C0046     R0532     -1
    C0046     R0531     -1
    C0046     R0514     -1
    C0046     R0513     -1
    C0046     R0496     -1
    C0046     R0495     -1
    C0046     R0478     -1
    C0046     R0477     -1
    C0046     R0099     -1
    C0046     R0015     1
    C0046     R0100     1
    C0046     R0543     1
    C0046     R0544     1
    C0046     R0545     1
    C0046     R0546     1
    C0046     R0547     1
    C0046     R0548     1
    C0046     R0549     1
    C0046     R0550     1
    C0046     R0551     1
    C0046     R0552     1
    C0046     R0553     1
    C0046     R0554     1
    C0046     R0555     1
    C0046     R0556     1
    C0046     R0557     1
    C0046     R0558     1
    C0046     R0559     1
    C0046     R0560     1
    C0046     R0657     1
    C0046     R0658     1
    C0046     R0675     1
    C0046     R0676     1
    C0046     R0693     1
    C0046     R0694     1
    C0046     R0711     1
    C0046     R0712     1
    C0046     R0749     1
    C0046     R0750     1
    C0046     R0767     1
    C0046     R0768     1
    C0046     R0785     1
    C0046     R0786     1
    C0046     R0803     1
    C0046     R0804     1
    C0046     R0821     1
    C0046     R0822     1
    C0047     R0758     -1
    C0047     R0757     -1
    C0047     R0756     -1
    C0047     R0755     -1
    C0047     R0754     -1
    C0047     R0753     -1
    C0047     R0752     -1
    C0047     R0751     -1
    C0047     R0750     -1
    C0047     R0749     -1
    C0047     R0748     -1
    C0047     R0747     -1
    C0047     R0746     -1
    C0047     R0745     -1
    C0047     R0744     -1
    C0047     R0743     -1
    C0047     R0742     -1
    C0047     R0741     -1
    C0047     R0644     -1
    C0047     R0643     -1
    C0047     R0626     -1
    C0047     R0625     -1
    C0047     R0608     -1
    C0047     R0607     -1
    C0047     R0590     -1
    C0047     R0589     -1
    C0047     R0552     -1
    C0047     R0551     -1
    C0047     R0534     -1
    C0047     R0533     -1
    C0047     R0516     -1
    C0047     R0515     -1
    C0047     R0498     -1
    C0047     R0497     -1
    C0047     R0480     -1
    C0047     R0479     -1
    C0047     R0101     -1
    C0047     R0016     1
    C0047     R0102     1
    C0047     R0561     1
    C0047     R0562     1
    C0047     R0563     1
    C0047     R0564     1
    C0047     R0565     1
    C0047     R0566     1
    C0047     R0567     1
    C0047     R0568     1
    C0047     R0569     1
    C0047     R0570     1
    C0047     R0571     1
    C0047     R0572     1
    C0047     R0573     1
    C0047     R0574     1
    C0047     R0575     1
    C0047     R0576     1
    C0047     R0577     1
    C0047     R0578     1
    C0047     R0659     1
    C0047     R0660     1
    C0047     R0677     1
    C0047     R0678     1
    C0047     R0695     1
    C0047     R0696     1
    C0047     R0713     1
    C0047     R0714     1
    C0047     R0731     1
    C0047     R0732     1
    C0047     R0769     1
    C0047     R0770     1
    C0047     R0787     1
    C0047     R0788     1
    C0047     R0805     1
    C0047     R0806     1
    C0047     R0823     1
    C0047     R0824     1
    C0048     R0776     -1
    C0048     R0775     -1
    C0048     R0774     -1
    C0048     R0773     -1
    C0048     R0772     -1
    C0048     R0771     -1
    C0048     R0770     -1
    C0048     R0769     -1
    C0048     R0768     -1
    C0048     R0767     -1
    C0048     R0766     -1
    C0048     R0765     -1
    C0048     R0764     -1
    C0048     R0763     -1
    C0048     R0762     -1
    C0048     R0761     -1
    C0048     R0760     -1
    C0048     R0759     -1
    C0048     R0646     -1
    C0048     R0645     -1
    C0048     R0628     -1
    C0048     R0627     -1
    C0048     R0610     -1
    C0048     R0609     -1
    C0048     R0572     -1
    C0048     R0571     -1
    C0048     R0554     -1
    C0048     R0553     -1
    C0048     R0536     -1
    C0048     R0535     -1
    C0048     R0518     -1
    C0048     R0517     -1
    C0048     R0500     -1
    C0048     R0499     -1
    C0048     R0482     -1
    C0048     R0481     -1
    C0048     R0103     -1
    C0048     R0017     1
    C0048     R0104     1
    C0048     R0579     1
    C0048     R0580     1
    C0048     R0581     1
    C0048     R0582     1
    C0048     R0583     1
    C0048     R0584     1
    C0048     R0585     1
    C0048     R0586     1
    C0048     R0587     1
    C0048     R0588     1
    C0048     R0589     1
    C0048     R0590     1
    C0048     R0591     1
    C0048     R0592     1
    C0048     R0593     1
    C0048     R0594     1
    C0048     R0595     1
    C0048     R0596     1
    C0048     R0661     1
    C0048     R0662     1
    C0048     R0679     1
    C0048     R0680     1
    C0048     R0697     1
    C0048     R0698     1
    C0048     R0715     1
    C0048     R0716     1
    C0048     R0733     1
    C0048     R0734     1
    C0048     R0751     1
    C0048     R0752     1
    C0048     R0789     1
    C0048     R0790     1
    C0048     R0807     1
    C0048     R0808     1
    C0048     R0825     1
    C0048     R0826     1
    C0049     R0794     -1
    C0049     R0793     -1
    C0049     R0792     -1
    C0049     R0791     -1
    C0049     R0790     -1
    C0049     R0789     -1
    C0049     R0788     -1
    C0049     R0787     -1
    C0049     R0786     -1
    C0049     R0785     -1
    C0049     R0784     -1
    C0049     R0783     -1
    C0049     R0782     -1
    C0049     R0781     -1
    C0049     R0780     -1
    C0049     R0779     -1
    C0049     R0778     -1
    C0049     R0777     -1
    C0049     R0648     -1
    C0049     R0647     -1
    C0049     R0630     -1
    C0049     R0629     -1
    C0049     R0592     -1
    C0049     R0591     -1
    C0049     R0574     -1
    C0049     R0573     -1
    C0049     R0556     -1
    C0049     R0555     -1
    C0049     R0538     -1
    C0049     R0537     -1
    C0049     R0520     -1
    C0049     R0519     -1
    C0049     R0502     -1
    C0049     R0501     -1
    C0049     R0484     -1
    C0049     R0483     -1
    C0049     R0105     -1
    C0049     R0018     1
    C0049     R0106     1
    C0049     R0597     1
    C0049     R0598     1
    C0049     R0599     1
    C0049     R0600     1
    C0049     R0601     1
    C0049     R0602     1
    C0049     R0603     1
    C0049     R0604     1
    C0049     R0605     1
    C0049     R0606     1
    C0049     R0607     1
    C0049     R0608     1
    C0049     R0609     1
    C0049     R0610     1
    C0049     R0611     1
    C0049     R0612     1
    C0049     R0613     1
    C0049     R0614     1
    C0049     R0663     1
    C0049     R0664     1
    C0049     R0681     1
    C0049     R0682     1
    C0049     R0699     1
    C0049     R0700     1
    C0049     R0717     1
    C0049     R0718     1
    C0049     R0735     1
    C0049     R0736     1
    C0049     R0753     1
    C0049     R0754     1
    C0049     R0771     1
    C0049     R0772     1
    C0049     R0809     1
    C0049     R0810     1
    C0049     R0827     1
    C0049     R0828     1
    C0050     R0812     -1
    C0050     R0811     -1
    C0050     R0810     -1
    C0050     R0809     -1
    C0050     R0808     -1
    C0050     R0807     -1
    C0050     R0806     -1
    C0050     R0805     -1
    C0050     R0804     -1
    C0050     R0803     -1
    C0050     R0802     -1
    C0050     R0801     -1
    C0050     R0800     -1
    C0050     R0799     -1
    C0050     R0798     -1
    C0050     R0797     -1
    C0050     R0796     -1
    C0050     R0795     -1
    C0050     R0650     -1
    C0050     R0649     -1
    C0050     R0612     -1
    C0050     R0611     -1
    C0050     R0594     -1
    C0050     R0593     -1
    C0050     R0576     -1
    C0050     R0575     -1
    C0050     R0558     -1
    C0050     R0557     -1
    C0050     R0540     -1
    C0050     R0539     -1
    C0050     R0522     -1
    C0050     R0521     -1
    C0050     R0504     -1
    C0050     R0503     -1
    C0050     R0486     -1
    C0050     R0485     -1
    C0050     R0107     -1
    C0050     R0019     1
    C0050     R0108     1
    C0050     R0615     1
    C0050     R0616     1
    C0050     R0617     1
    C0050     R0618     1
    C0050     R0619     1
    C0050     R0620     1
    C0050     R0621     1
    C0050     R0622     1
    C0050     R0623     1
    C0050     R0624     1
    C0050     R0625     1
    C0050     R0626     1
    C0050     R0627     1
    C0050     R0628     1
    C0050     R0629     1
    C0050     R0630     1
    C0050     R0631     1
    C0050     R0632     1
    C0050     R0665     1
    C0050     R0666     1
    C0050     R0683     1
    C0050     R0684     1
    C0050     R0701     1
    C0050     R0702     1
    C0050     R0719     1
    C0050     R0720     1
    C0050     R0737     1
    C0050     R0738     1
    C0050     R0755     1
    C0050     R0756     1
    C0050     R0773     1
    C0050     R0774     1
    C0050     R0791     1
    C0050     R0792     1
    C0050     R0829     1
    C0050     R0830     1
    C0051     R0830     -1
    C0051     R0829     -1
    C0051     R0828     -1
    C0051     R0827     -1
    C0051     R0826     -1
    C0051     R0825     -1
    C0051     R0824     -1
    C0051     R0823     -1
    C0051     R0822     -1
    C0051     R0821     -1
    C0051     R0820     -1
    C0051     R0819     -1
    C0051     R0818     -1
    C0051     R0817     -1
    C0051     R0816     -1
    C0051     R0815     -1
    C0051     R0814     -1
    C0051     R0813     -1
    C0051     R0632     -1
    C0051     R0631     -1
    C0051     R0614     -1
    C0051     R0613     -1
    C0051     R0596     -1
    C0051     R0595     -1
    C0051     R0578     -1
    C0051     R0577     -1
    C0051     R0560     -1
    C0051     R0559     -1
    C0051     R0542     -1
    C0051     R0541     -1
    C0051     R0524     -1
    C0051     R0523     -1
    C0051     R0506     -1
    C0051     R0505     -1
    C0051     R0488     -1
    C0051     R0487     -1
    C0051     R0109     -1
    C0051     R0020     1
    C0051     R0110     1
    C0051     R0633     1
    C0051     R0634     1
    C0051     R0635     1
    C0051     R0636     1
    C0051     R0637     1
    C0051     R0638     1
    C0051     R0639     1
    C0051     R0640     1
    C0051     R0641     1
    C0051     R0642     1
    C0051     R0643     1
    C0051     R0644     1
    C0051     R0645     1
    C0051     R0646     1
    C0051     R0647     1
    C0051     R0648     1
    C0051     R0649     1
    C0051     R0650     1
    C0051     R0667     1
    C0051     R0668     1
    C0051     R0685     1
    C0051     R0686     1
    C0051     R0703     1
    C0051     R0704     1
    C0051     R0721     1
    C0051     R0722     1
    C0051     R0739     1
    C0051     R0740     1
    C0051     R0757     1
    C0051     R0758     1
    C0051     R0775     1
    C0051     R0776     1
    C0051     R0793     1
    C0051     R0794     1
    C0051     R0811     1
    C0051     R0812     1
    C0052     R1028     -1
    C0052     R1027     -1
    C0052     R1026     -1
    C0052     R1025     -1
    C0052     R1024     -1
    C0052     R1023     -1
    C0052     R1022     -1
    C0052     R1021     -1
    C0052     R1020     -1
    C0052     R1019     -1
    C0052     R1018     -1
    C0052     R1017     -1
    C0052     R1016     -1
    C0052     R1015     -1
    C0052     R1014     -1
    C0052     R1013     -1
    C0052     R1012     -1
    C0052     R1011     -1
    C0052     R0994     -1
    C0052     R0993     -1
    C0052     R0976     -1
    C0052     R0975     -1
    C0052     R0958     -1
    C0052     R0957     -1
    C0052     R0940     -1
    C0052     R0939     -1
    C0052     R0922     -1
    C0052     R0921     -1
    C0052     R0904     -1
    C0052     R0903     -1
    C0052     R0886     -1
    C0052     R0885     -1
    C0052     R0868     -1
    C0052     R0867     -1
    C0052     R0850     -1
    C0052     R0849     -1
    C0052     R0092     -1
    C0052     R0021     1
    C0052     R0831     1
    C0052     R0832     1
    C0052     R0833     1
    C0052     R0834     1
    C0052     R0835     1
    C0052     R0836     1
    C0052     R0837     1
    C0052     R0838     1
    C0052     R0839     1
    C0052     R0840     1
    C0052     R0841     1
    C0052     R0842     1
    C0052     R0843     1
    C0052     R0844     1
    C0052     R0845     1
    C0052     R0846     1
    C0052     R0847     1
    C0052     R0848     1
    C0052     R1029     1
    C0052     R1030     1
    C0052     R1047     1
    C0052     R1048     1
    C0052     R1065     1
    C0052     R1066     1
    C0052     R1083     1
    C0052     R1084     1
    C0052     R1101     1
    C0052     R1102     1
    C0052     R1119     1
    C0052     R1120     1
    C0052     R1137     1
    C0052     R1138     1
    C0052     R1155     1
    C0052     R1156     1
    C0052     R1173     1
    C0052     R1174     1
    C0053     R1046     -1
    C0053     R1045     -1
    C0053     R1044     -1
    C0053     R1043     -1
    C0053     R1042     -1
    C0053     R1041     -1
    C0053     R1040     -1
    C0053     R1039     -1
    C0053     R1038     -1
    C0053     R1037     -1
    C0053     R1036     -1
    C0053     R1035     -1
    C0053     R1034     -1
    C0053     R1033     -1
    C0053     R1032     -1
    C0053     R1031     -1
    C0053     R1030     -1
    C0053     R1029     -1
    C0053     R0996     -1
    C0053     R0995     -1
    C0053     R0978     -1
    C0053     R0977     -1
    C0053     R0960     -1
    C0053     R0959     -1
    C0053     R0942     -1
    C0053     R0941     -1
    C0053     R0924     -1
    C0053     R0923     -1
    C0053     R0906     -1
    C0053     R0905     -1
    C0053     R0888     -1
    C0053     R0887     -1
    C0053     R0870     -1
    C0053     R0869     -1
    C0053     R0832     -1
    C0053     R0831     -1
    C0053     R0094     -1
    C0053     R0022     1
    C0053     R0849     1
    C0053     R0850     1
    C0053     R0851     1
    C0053     R0852     1
    C0053     R0853     1
    C0053     R0854     1
    C0053     R0855     1
    C0053     R0856     1
    C0053     R0857     1
    C0053     R0858     1
    C0053     R0859     1
    C0053     R0860     1
    C0053     R0861     1
    C0053     R0862     1
    C0053     R0863     1
    C0053     R0864     1
    C0053     R0865     1
    C0053     R0866     1
    C0053     R1011     1
    C0053     R1012     1
    C0053     R1049     1
    C0053     R1050     1
    C0053     R1067     1
    C0053     R1068     1
    C0053     R1085     1
    C0053     R1086     1
    C0053     R1103     1
    C0053     R1104     1
    C0053     R1121     1
    C0053     R1122     1
    C0053     R1139     1
    C0053     R1140     1
    C0053     R1157     1
    C0053     R1158     1
    C0053     R1175     1
    C0053     R1176     1
    C0054     R1064     -1
    C0054     R1063     -1
    C0054     R1062     -1
    C0054     R1061     -1
    C0054     R1060     -1
    C0054     R1059     -1
    C0054     R1058     -1
    C0054     R1057     -1
    C0054     R1056     -1
    C0054     R1055     -1
    C0054     R1054     -1
    C0054     R1053     -1
    C0054     R1052     -1
    C0054     R1051     -1
    C0054     R1050     -1
    C0054     R1049     -1
    C0054     R1048     -1
    C0054     R1047     -1
    C0054     R0998     -1
    C0054     R0997     -1
    C0054     R0980     -1
    C0054     R0979     -1
    C0054     R0962     -1
    C0054     R0961     -1
    C0054     R0944     -1
    C0054     R0943     -1
    C0054     R0926     -1
    C0054     R0925     -1
    C0054     R0908     -1
    C0054     R0907     -1
    C0054     R0890     -1
    C0054     R0889     -1
    C0054     R0852     -1
    C0054     R0851     -1
    C0054     R0834     -1
    C0054     R0833     -1
    C0054     R0096     -1
    C0054     R0023     1
    C0054     R0867     1
    C0054     R0868     1
    C0054     R0869     1
    C0054     R0870     1
    C0054     R0871     1
    C0054     R0872     1
    C0054     R0873     1
    C0054     R0874     1
    C0054     R0875     1
    C0054     R0876     1
    C0054     R0877     1
    C0054     R0878     1
    C0054     R0879     1
    C0054     R0880     1
    C0054     R0881     1
    C0054     R0882     1
    C0054     R0883     1
    C0054     R0884     1
    C0054     R1013     1
    C0054     R1014     1
    C0054     R1031     1
    C0054     R1032     1
    C0054     R1069     1
    C0054     R1070     1
    C0054     R1087     1
    C0054     R1088     1
    C0054     R1105     1
    C0054     R1106     1
    C0054     R1123     1
    C0054     R1124     1
    C0054     R1141     1
    C0054     R1142     1
    C0054     R1159     1
    C0054     R1160     1
    C0054     R1177     1
    C0054     R1178     1
    C0055     R1082     -1
    C0055     R1081     -1
    C0055     R1080     -1
    C0055     R1079     -1
    C0055     R1078     -1
    C0055     R1077     -1
    C0055     R1076     -1
    C0055     R1075     -1
    C0055     R1074     -1
    C0055     R1073     -1
    C0055     R1072     -1
    C0055     R1071     -1
    C0055     R1070     -1
    C0055     R1069     -1
    C0055     R1068     -1
    C0055     R1067     -1
    C0055     R1066     -1
    C0055     R1065     -1
    C0055     R1000     -1
    C0055     R0999     -1
    C0055     R0982     -1
    C0055     R0981     -1
    C0055     R0964     -1
    C0055     R0963     -1
    C0055     R0946     -1
    C0055     R0945     -1
    C0055     R0928     -1
    C0055     R0927     -1
    C0055     R0910     -1
    C0055     R0909     -1
    C0055     R0872     -1
    C0055     R0871     -1
    C0055     R0854     -1
    C0055     R0853     -1
    C0055     R0836     -1
    C0055     R0835     -1
    C0055     R0098     -1
    C0055     R0024     1
    C0055     R0885     1
    C0055     R0886     1
    C0055     R0887     1
    C0055     R0888     1
    C0055     R0889     1
    C0055     R0890     1
    C0055     R0891     1
    C0055     R0892     1
    C0055     R0893     1
    C0055     R0894     1
    C0055     R0895     1
    C0055     R0896     1
    C0055     R0897     1
    C0055     R0898     1
    C0055     R0899     1
    C0055     R0900     1
    C0055     R0901     1
    C0055     R0902     1
    C0055     R1015     1
    C0055     R1016     1
    C0055     R1033     1
    C0055     R1034     1
    C0055     R1051     1
    C0055     R1052     1
    C0055     R1089     1
    C0055     R1090     1
    C0055     R1107     1
    C0055     R1108     1
    C0055     R1125     1
    C0055     R1126     1
    C0055     R1143     1
    C0055     R1144     1
    C0055     R1161     1
    C0055     R1162     1
    C0055     R1179     1
    C0055     R1180     1
    C0056     R1100     -1
    C0056     R1099     -1
    C0056     R1098     -1
    C0056     R1097     -1
    C0056     R1096     -1
    C0056     R1095     -1
    C0056     R1094     -1
    C0056     R1093     -1
    C0056     R1092     -1
    C0056     R1091     -1
    C0056     R1090     -1
    C0056     R1089     -1
    C0056     R1088     -1
    C0056     R1087     -1
    C0056     R1086     -1
    C0056     R1085     -1
    C0056     R1084     -1
    C0056     R1083     -1
    C0056     R1002     -1
    C0056     R1001     -1
    C0056     R0984     -1
    C0056     R0983     -1
    C0056     R0966     -1
    C0056     R0965     -1
    C0056     R0948     -1
    C0056     R0947     -1
    C0056     R0930     -1
    C0056     R0929     -1
    C0056     R0892     -1
    C0056     R0891     -1
    C0056     R0874     -1
    C0056     R0873     -1
    C0056     R0856     -1
    C0056     R0855     -1
    C0056     R0838     -1
    C0056     R0837     -1
    C0056     R0100     -1
    C0056     R0025     1
    C0056     R0903     1
    C0056     R0904     1
    C0056     R0905     1
    C0056     R0906     1
    C0056     R0907     1
    C0056     R0908     1
    C0056     R0909     1
    C0056     R0910     1
    C0056     R0911     1
    C0056     R0912     1
    C0056     R0913     1
    C0056     R0914     1
    C0056     R0915     1
    C0056     R0916     1
    C0056     R0917     1
    C0056     R0918     1
    C0056     R0919     1
    C0056     R0920     1
    C0056     R1017     1
    C0056     R1018     1
    C0056     R1035     1
    C0056     R1036     1
    C0056     R1053     1
    C0056     R1054     1
    C0056     R1071     1
    C0056     R1072     1
    C0056     R1109     1
    C0056     R1110     1
    C0056     R1127     1
    C0056     R1128     1
    C0056     R1145     1
    C0056     R1146     1
    C0056     R1163     1
    C0056     R1164     1
    C0056     R1181     1
    C0056     R1182     1
    C0057     R1118     -1
    C0057     R1117     -1
    C0057     R1116     -1
    C0057     R1115     -1
    C0057     R1114     -1
    C0057     R1113     -1
    C0057     R1112     -1
    C0057     R1111     -1
    C0057     R1110     -1
    C0057     R1109     -1
    C0057     R1108     -1
    C0057     R1107     -1
    C0057     R1106     -1
    C0057     R1105     -1
    C0057     R1104     -1
    C0057     R1103     -1
    C0057     R1102     -1
    C0057     R1101     -1
    C0057     R1004     -1
    C0057     R1003     -1
    C0057     R0986     -1
    C0057     R0985     -1
    C0057     R0968     -1
    C0057     R0967     -1
    C0057     R0950     -1
    C0057     R0949     -1
    C0057     R0912     -1
    C0057     R0911     -1
    C0057     R0894     -1
    C0057     R0893     -1
    C0057     R0876     -1
    C0057     R0875     -1
    C0057     R0858     -1
    C0057     R0857     -1
    C0057     R0840     -1
    C0057     R0839     -1
    C0057     R0102     -1
    C0057     R0026     1
    C0057     R0921     1
    C0057     R0922     1
    C0057     R0923     1
    C0057     R0924     1
    C0057     R0925     1
    C0057     R0926     1
    C0057     R0927     1
    C0057     R0928     1
    C0057     R0929     1
    C0057     R0930     1
    C0057     R0931     1
    C0057     R0932     1
    C0057     R0933     1
    C0057     R0934     1
    C0057     R0935     1
    C0057     R0936     1
    C0057     R0937     1
    C0057     R0938     1
    C0057     R1019     1
    C0057     R1020     1
    C0057     R1037     1
    C0057     R1038     1
    C0057     R1055     1
    C0057     R1056     1
    C0057     R1073     1
    C0057     R1074     1
    C0057     R1091     1
    C0057     R1092     1
    C0057     R1129     1
    C0057     R1130     1
    C0057     R1147     1
    C0057     R1148     1
    C0057     R1165     1
    C0057     R1166     1
    C0057     R1183     1
    C0057     R1184     1
    C0058     R1136     -1
    C0058     R1135     -1
    C0058     R1134     -1
    C0058     R1133     -1
    C0058     R1132     -1
    C0058     R1131     -1
    C0058     R1130     -1
    C0058     R1129     -1
    C0058     R1128     -1
    C0058     R1127     -1
    C0058     R1126     -1
    C0058     R1125     -1
    C0058     R1124     -1
    C0058     R1123     -1
    C0058     R1122     -1
    C0058     R1121     -1
    C0058     R1120     -1
    C0058     R1119     -1
    C0058     R1006     -1
    C0058     R1005     -1
    C0058     R0988     -1
    C0058     R0987     -1
    C0058     R0970     -1
    C0058     R0969     -1
    C0058     R0932     -1
    C0058     R0931     -1
    C0058     R0914     -1
    C0058     R0913     -1
    C0058     R0896     -1
    C0058     R0895     -1
    C0058     R0878     -1
    C0058     R0877     -1
    C0058     R0860     -1
    C0058     R0859     -1
    C0058     R0842     -1
    C0058     R0841     -1
    C0058     R0104     -1
    C0058     R0027     1
    C0058     R0939     1
    C0058     R0940     1
    C0058     R0941     1
    C0058     R0942     1
    C0058     R0943     1
    C0058     R0944     1
    C0058     R0945     1
    C0058     R0946     1
    C0058     R0947     1
    C0058     R0948     1
    C0058     R0949     1
    C0058     R0950     1
    C0058     R0951     1
    C0058     R0952     1
    C0058     R0953     1
    C0058     R0954     1
    C0058     R0955     1
    C0058     R0956     1
    C0058     R1021     1
    C0058     R1022     1
    C0058     R1039     1
    C0058     R1040     1
    C0058     R1057     1
    C0058     R1058     1
    C0058     R1075     1
    C0058     R1076     1
    C0058     R1093     1
    C0058     R1094     1
    C0058     R1111     1
    C0058     R1112     1
    C0058     R1149     1
    C0058     R1150     1
    C0058     R1167     1
    C0058     R1168     1
    C0058     R1185     1
    C0058     R1186     1
    C0059     R1154     -1
    C0059     R1153     -1
    C0059     R1152     -1
    C0059     R1151     -1
    C0059     R1150     -1
    C0059     R1149     -1
    C0059     R1148     -1
    C0059     R1147     -1
    C0059     R1146     -1
    C0059     R1145     -1
    C0059     R1144     -1
    C0059     R1143     -1
    C0059     R1142     -1
    C0059     R1141     -1
    C0059     R1140     -1
    C0059     R1139     -1
    C0059     R1138     -1
    C0059     R1137     -1
    C0059     R1008     -1
    C0059     R1007     -1
    C0059     R0990     -1
    C0059     R0989     -1
    C0059     R0952     -1
    C0059     R0951     -1
    C0059     R0934     -1
    C0059     R0933     -1
    C0059     R0916     -1
    C0059     R0915     -1
    C0059     R0898     -1
    C0059     R0897     -1
    C0059     R0880     -1
    C0059     R0879     -1
    C0059     R0862     -1
    C0059     R0861     -1
    C0059     R0844     -1
    C0059     R0843     -1
    C0059     R0106     -1
    C0059     R0028     1
    C0059     R0957     1
    C0059     R0958     1
    C0059     R0959     1
    C0059     R0960     1
    C0059     R0961     1
    C0059     R0962     1
    C0059     R0963     1
    C0059     R0964     1
    C0059     R0965     1
    C0059     R0966     1
    C0059     R0967     1
    C0059     R0968     1
    C0059     R0969     1
    C0059     R0970     1
    C0059     R0971     1
    C0059     R0972     1
    C0059     R0973     1
    C0059     R0974     1
    C0059     R1023     1
    C0059     R1024     1
    C0059     R1041     1
    C0059     R1042     1
    C0059     R1059     1
    C0059     R1060     1
    C0059     R1077     1
    C0059     R1078     1
    C0059     R1095     1
    C0059     R1096     1
    C0059     R1113     1
    C0059     R1114     1
    C0059     R1131     1
    C0059     R1132     1
    C0059     R1169     1
    C0059     R1170     1
    C0059     R1187     1
    C0059     R1188     1
    C0060     R1172     -1
    C0060     R1171     -1
    C0060     R1170     -1
    C0060     R1169     -1
    C0060     R1168     -1
    C0060     R1167     -1
    C0060     R1166     -1
    C0060     R1165     -1
    C0060     R1164     -1
    C0060     R1163     -1
    C0060     R1162     -1
    C0060     R1161     -1
    C0060     R1160     -1
    C0060     R1159     -1
    C0060     R1158     -1
    C0060     R1157     -1
    C0060     R1156     -1
    C0060     R1155     -1
    C0060     R1010     -1
    C0060     R1009     -1
    C0060     R0972     -1
    C0060     R0971     -1
    C0060     R0954     -1
    C0060     R0953     -1
    C0060     R0936     -1
    C0060     R0935     -1
    C0060     R0918     -1
    C0060     R0917     -1
    C0060     R0900     -1
    C0060     R0899     -1
    C0060     R0882     -1
    C0060     R0881     -1
    C0060     R0864     -1
    C0060     R0863     -1
    C0060     R0846     -1
    C0060     R0845     -1
    C0060     R0108     -1
    C0060     R0029     1
    C0060     R0975     1
    C0060     R0976     1
    C0060     R0977     1
    C0060     R0978     1
    C0060     R0979     1
    C0060     R0980     1
    C0060     R0981     1
    C0060     R0982     1
    C0060     R0983     1
    C0060     R0984     1
    C0060     R0985     1
    C0060     R0986     1
    C0060     R0987     1
    C0060     R0988     1
    C0060     R0989     1
    C0060     R0990     1
    C0060     R0991     1
    C0060     R0992     1
    C0060     R1025     1
    C0060     R1026     1
    C0060     R1043     1
    C0060     R1044     1
    C0060     R1061     1
    C0060     R1062     1
    C0060     R1079     1
    C0060     R1080     1
    C0060     R1097     1
    C0060     R1098     1
    C0060     R1115     1
    C0060     R1116     1
    C0060     R1133     1
    C0060     R1134     1
    C0060     R1151     1
    C0060     R1152     1
    C0060     R1189     1
    C0060     R1190     1
    C0061     R1190     -1
    C0061     R1189     -1
    C0061     R1188     -1
    C0061     R1187     -1
    C0061     R1186     -1
    C0061     R1185     -1
    C0061     R1184     -1
    C0061     R1183     -1
    C0061     R1182     -1
    C0061     R1181     -1
    C0061     R1180     -1
    C0061     R1179     -1
    C0061     R1178     -1
    C0061     R1177     -1
    C0061     R1176     -1
    C0061     R1175     -1
    C0061     R1174     -1
    C0061     R1173     -1
    C0061     R0992     -1
    C0061     R0991     -1
    C0061     R0974     -1
    C0061     R0973     -1
    C0061     R0956     -1
    C0061     R0955     -1
    C0061     R0938     -1
    C0061     R0937     -1
    C0061     R0920     -1
    C0061     R0919     -1
    C0061     R0902     -1
    C0061     R0901     -1
    C0061     R0884     -1
    C0061     R0883     -1
    C0061     R0866     -1
    C0061     R0865     -1
    C0061     R0848     -1
    C0061     R0847     -1
    C0061     R0110     -1
    C0061     R0030     1
    C0061     R0993     1
    C0061     R0994     1
    C0061     R0995     1
    C0061     R0996     1
    C0061     R0997     1
    C0061     R0998     1
    C0061     R0999     1
    C0061     R1000     1
    C0061     R1001     1
    C0061     R1002     1
    C0061     R1003     1
    C0061     R1004     1
    C0061     R1005     1
    C0061     R1006     1
    C0061     R1007     1
    C0061     R1008     1
    C0061     R1009     1
    C0061     R1010     1
    C0061     R1027     1
    C0061     R1028     1
    C0061     R1045     1
    C0061     R1046     1
    C0061     R1063     1
    C0061     R1064     1
    C0061     R1081     1
    C0061     R1082     1
    C0061     R1099     1
    C0061     R1100     1
    C0061     R1117     1
    C0061     R1118     1
    C0061     R1135     1
    C0061     R1136     1
    C0061     R1153     1
    C0061     R1154     1
    C0061     R1171     1
    C0061     R1172     1
    MARKER    'MARKER'                 'INTORG'
    C0062     R0454     -100
    C0062     R0436     -100
    C0062     R0418     -100
    C0062     R0400     -100
    C0062     R0382     -100
    C0062     R0364     -100
    C0062     R0346     -100
    C0062     R0328     -100
    C0062     R0310     -100
    C0062     R0308     -100
    C0062     R0306     -100
    C0062     R0304     -100
    C0062     R0302     -100
    C0062     R0300     -100
    C0062     R0298     -100
    C0062     R0296     -100
    C0062     R0294     -100
    C0062     R0292     -100
    C0062     R0274     -100
    C0062     R0256     -100
    C0062     R0238     -100
    C0062     R0220     -100
    C0062     R0202     -100
    C0062     R0184     -100
    C0062     R0166     -100
    C0062     R0148     -100
    C0062     R0130     -100
    C0062     R0128     -100
    C0062     R0126     -100
    C0062     R0124     -100
    C0062     R0122     -100
    C0062     R0120     -100
    C0062     R0118     -100
    C0062     R0116     -100
    C0062     R0114     -100
    C0062     R0112     -100
    C0062     R0111     100
    C0062     R0113     100
    C0062     R0115     100
    C0062     R0117     100
    C0062     R0119     100
    C0062     R0121     100
    C0062     R0123     100
    C0062     R0125     100
    C0062     R0127     100
    C0062     R0129     100
    C0062     R0147     100
    C0062     R0165     100
    C0062     R0183     100
    C0062     R0201     100
    C0062     R0219     100
    C0062     R0237     100
    C0062     R0255     100
    C0062     R0273     100
    C0062     R0291     100
    C0062     R0293     100
    C0062     R0295     100
    C0062     R0297     100
    C0062     R0299     100
    C0062     R0301     100
    C0062     R0303     100
    C0062     R0305     100
    C0062     R0307     100
    C0062     R0309     100
    C0062     R0327     100
    C0062     R0345     100
    C0062     R0363     100
    C0062     R0381     100
    C0062     R0399     100
    C0062     R0417     100
    C0062     R0435     100
    C0062     R0453     100
    C0063     R0456     -100
    C0063     R0438     -100
    C0063     R0420     -100
    C0063     R0402     -100
    C0063     R0384     -100
    C0063     R0366     -100
    C0063     R0348     -100
    C0063     R0330     -100
    C0063     R0326     -100
    C0063     R0324     -100
    C0063     R0322     -100
    C0063     R0320     -100
    C0063     R0318     -100
    C0063     R0316     -100
    C0063     R0314     -100
    C0063     R0312     -100
    C0063     R0310     -100
    C0063     R0292     -100
    C0063     R0276     -100
    C0063     R0258     -100
    C0063     R0240     -100
    C0063     R0222     -100
    C0063     R0204     -100
    C0063     R0186     -100
    C0063     R0168     -100
    C0063     R0150     -100
    C0063     R0146     -100
    C0063     R0144     -100
    C0063     R0142     -100
    C0063     R0140     -100
    C0063     R0138     -100
    C0063     R0136     -100
    C0063     R0134     -100
    C0063     R0132     -100
    C0063     R0130     -100
    C0063     R0112     -100
    C0063     R0111     100
    C0063     R0129     100
    C0063     R0131     100
    C0063     R0133     100
    C0063     R0135     100
    C0063     R0137     100
    C0063     R0139     100
    C0063     R0141     100
    C0063     R0143     100
    C0063     R0145     100
    C0063     R0149     100
    C0063     R0167     100
    C0063     R0185     100
    C0063     R0203     100
    C0063     R0221     100
    C0063     R0239     100
    C0063     R0257     100
    C0063     R0275     100
    C0063     R0291     100
    C0063     R0309     100
    C0063     R0311     100
    C0063     R0313     100
    C0063     R0315     100
    C0063     R0317     100
    C0063     R0319     100
    C0063     R0321     100
    C0063     R0323     100
    C0063     R0325     100
    C0063     R0329     100
    C0063     R0347     100
    C0063     R0365     100
    C0063     R0383     100
    C0063     R0401     100
    C0063     R0419     100
    C0063     R0437     100
    C0063     R0455     100
    C0064     R0458     -100
    C0064     R0440     -100
    C0064     R0422     -100
    C0064     R0404     -100
    C0064     R0386     -100
    C0064     R0368     -100
    C0064     R0350     -100
    C0064     R0344     -100
    C0064     R0342     -100
    C0064     R0340     -100
    C0064     R0338     -100
    C0064     R0336     -100
    C0064     R0334     -100
    C0064     R0332     -100
    C0064     R0330     -100
    C0064     R0328     -100
    C0064     R0312     -100
    C0064     R0294     -100
    C0064     R0278     -100
    C0064     R0260     -100
    C0064     R0242     -100
    C0064     R0224     -100
    C0064     R0206     -100
    C0064     R0188     -100
    C0064     R0170     -100
    C0064     R0164     -100
    C0064     R0162     -100
    C0064     R0160     -100
    C0064     R0158     -100
    C0064     R0156     -100
    C0064     R0154     -100
    C0064     R0152     -100
    C0064     R0150     -100
    C0064     R0148     -100
    C0064     R0132     -100
    C0064     R0114     -100
    C0064     R0113     100
    C0064     R0131     100
    C0064     R0147     100
    C0064     R0149     100
    C0064     R0151     100
    C0064     R0153     100
    C0064     R0155     100
    C0064     R0157     100
    C0064     R0159     100
    C0064     R0161     100
    C0064     R0163     100
    C0064     R0169     100
    C0064     R0187     100
    C0064     R0205     100
    C0064     R0223     100
    C0064     R0241     100
    C0064     R0259     100
    C0064     R0277     100
    C0064     R0293     100
    C0064     R0311     100
    C0064     R0327     100
    C0064     R0329     100
    C0064     R0331     100
    C0064     R0333     100
    C0064     R0335     100
    C0064     R0337     100
    C0064     R0339     100
    C0064     R0341     100
    C0064     R0343     100
    C0064     R0349     100
    C0064     R0367     100
    C0064     R0385     100
    C0064     R0403     100
    C0064     R0421     100
    C0064     R0439     100
    C0064     R0457     100
    C0065     R0460     -100
    C0065     R0442     -100
    C0065     R0424     -100
    C0065     R0406     -100
    C0065     R0388     -100
    C0065     R0370     -100
    C0065     R0362     -100
    C0065     R0360     -100
    C0065     R0358     -100
    C0065     R0356     -100
    C0065     R0354     -100
    C0065     R0352     -100
    C0065     R0350     -100
    C0065     R0348     -100
    C0065     R0346     -100
    C0065     R0332     -100
    C0065     R0314     -100
    C0065     R0296     -100
    C0065     R0280     -100
    C0065     R0262     -100
    C0065     R0244     -100
    C0065     R0226     -100
    C0065     R0208     -100
    C0065     R0190     -100
    C0065     R0182     -100
    C0065     R0180     -100
    C0065     R0178     -100
    C0065     R0176     -100
    C0065     R0174     -100
    C0065     R0172     -100
    C0065     R0170     -100
    C0065     R0168     -100
    C0065     R0166     -100
    C0065     R0152     -100
    C0065     R0134     -100
    C0065     R0116     -100
    C0065     R0115     100
    C0065     R0133     100
    C0065     R0151     100
    C0065     R0165     100
    C0065     R0167     100
    C0065     R0169     100
    C0065     R0171     100
    C0065     R0173     100
    C0065     R0175     100
    C0065     R0177     100
    C0065     R0179     100
    C0065     R0181     100
    C0065     R0189     100
    C0065     R0207     100
    C0065     R0225     100
    C0065     R0243     100
    C0065     R0261     100
    C0065     R0279     100
    C0065     R0295     100
    C0065     R0313     100
    C0065     R0331     100
    C0065     R0345     100
    C0065     R0347     100
    C0065     R0349     100
    C0065     R0351     100
    C0065     R0353     100
    C0065     R0355     100
    C0065     R0357     100
    C0065     R0359     100
    C0065     R0361     100
    C0065     R0369     100
    C0065     R0387     100
    C0065     R0405     100
    C0065     R0423     100
    C0065     R0441     100
    C0065     R0459     100
    C0066     R0462     -100
    C0066     R0444     -100
    C0066     R0426     -100
    C0066     R0408     -100
    C0066     R0390     -100
    C0066     R0380     -100
    C0066     R0378     -100
    C0066     R0376     -100
    C0066     R0374     -100
    C0066     R0372     -100
    C0066     R0370     -100
    C0066     R0368     -100
    C0066     R0366     -100
    C0066     R0364     -100
    C0066     R0352     -100
    C0066     R0334     -100
    C0066     R0316     -100
    C0066     R0298     -100
    C0066     R0282     -100
    C0066     R0264     -100
    C0066     R0246     -100
    C0066     R0228     -100
    C0066     R0210     -100
    C0066     R0200     -100
    C0066     R0198     -100
    C0066     R0196     -100
    C0066     R0194     -100
    C0066     R0192     -100
    C0066     R0190     -100
    C0066     R0188     -100
    C0066     R0186     -100
    C0066     R0184     -100
    C0066     R0172     -100
    C0066     R0154     -100
    C0066     R0136     -100
    C0066     R0118     -100
    C0066     R0117     100
    C0066     R0135     100
    C0066     R0153     100
    C0066     R0171     100
    C0066     R0183     100
    C0066     R0185     100
    C0066     R0187     100
    C0066     R0189     100
    C0066     R0191     100
    C0066     R0193     100
    C0066     R0195     100
    C0066     R0197     100
    C0066     R0199     100
    C0066     R0209     100
    C0066     R0227     100
    C0066     R0245     100
    C0066     R0263     100
    C0066     R0281     100
    C0066     R0297     100
    C0066     R0315     100
    C0066     R0333     100
    C0066     R0351     100
    C0066     R0363     100
    C0066     R0365     100
    C0066     R0367     100
    C0066     R0369     100
    C0066     R0371     100
    C0066     R0373     100
    C0066     R0375     100
    C0066     R0377     100
    C0066     R0379     100
    C0066     R0389     100
    C0066     R0407     100
    C0066     R0425     100
    C0066     R0443     100
    C0066     R0461     100
    C0067     R0464     -100
    C0067     R0446     -100
    C0067     R0428     -100
    C0067     R0410     -100
    C0067     R0398     -100
    C0067     R0396     -100
    C0067     R0394     -100
    C0067     R0392     -100
    C0067     R0390     -100
    C0067     R0388     -100
    C0067     R0386     -100
    C0067     R0384     -100
    C0067     R0382     -100
    C0067     R0372     -100
    C0067     R0354     -100
    C0067     R0336     -100
    C0067     R0318     -100
    C0067     R0300     -100
    C0067     R0284     -100
    C0067     R0266     -100
    C0067     R0248     -100
    C0067     R0230     -100
    C0067     R0218     -100
    C0067     R0216     -100
    C0067     R0214     -100
    C0067     R0212     -100
    C0067     R0210     -100
    C0067     R0208     -100
    C0067     R0206     -100
    C0067     R0204     -100
    C0067     R0202     -100
    C0067     R0192     -100
    C0067     R0174     -100
    C0067     R0156     -100
    C0067     R0138     -100
    C0067     R0120     -100
    C0067     R0119     100
    C0067     R0137     100
    C0067     R0155     100
    C0067     R0173     100
    C0067     R0191     100
    C0067     R0201     100
    C0067     R0203     100
    C0067     R0205     100
    C0067     R0207     100
    C0067     R0209     100
    C0067     R0211     100
    C0067     R0213     100
    C0067     R0215     100
    C0067     R0217     100
    C0067     R0229     100
    C0067     R0247     100
    C0067     R0265     100
    C0067     R0283     100
    C0067     R0299     100
    C0067     R0317     100
    C0067     R0335     100
    C0067     R0353     100
    C0067     R0371     100
    C0067     R0381     100
    C0067     R0383     100
    C0067     R0385     100
    C0067     R0387     100
    C0067     R0389     100
    C0067     R0391     100
    C0067     R0393     100
    C0067     R0395     100
    C0067     R0397     100
    C0067     R0409     100
    C0067     R0427     100
    C0067     R0445     100
    C0067     R0463     100
    C0068     R0466     -100
    C0068     R0448     -100
    C0068     R0430     -100
    C0068     R0416     -100
    C0068     R0414     -100
    C0068     R0412     -100
    C0068     R0410     -100
    C0068     R0408     -100
    C0068     R0406     -100
    C0068     R0404     -100
    C0068     R0402     -100
    C0068     R0400     -100
    C0068     R0392     -100
    C0068     R0374     -100
    C0068     R0356     -100
    C0068     R0338     -100
    C0068     R0320     -100
    C0068     R0302     -100
    C0068     R0286     -100
    C0068     R0268     -100
    C0068     R0250     -100
    C0068     R0236     -100
    C0068     R0234     -100
    C0068     R0232     -100
    C0068     R0230     -100
    C0068     R0228     -100
    C0068     R0226     -100
    C0068     R0224     -100
    C0068     R0222     -100
    C0068     R0220     -100
    C0068     R0212     -100
    C0068     R0194     -100
    C0068     R0176     -100
    C0068     R0158     -100
    C0068     R0140     -100
    C0068     R0122     -100
    C0068     R0121     100
    C0068     R0139     100
    C0068     R0157     100
    C0068     R0175     100
    C0068     R0193     100
    C0068     R0211     100
    C0068     R0219     100
    C0068     R0221     100
    C0068     R0223     100
    C0068     R0225     100
    C0068     R0227     100
    C0068     R0229     100
    C0068     R0231     100
    C0068     R0233     100
    C0068     R0235     100
    C0068     R0249     100
    C0068     R0267     100
    C0068     R0285     100
    C0068     R0301     100
    C0068     R0319     100
    C0068     R0337     100
    C0068     R0355     100
    C0068     R0373     100
    C0068     R0391     100
    C0068     R0399     100
    C0068     R0401     100
    C0068     R0403     100
    C0068     R0405     100
    C0068     R0407     100
    C0068     R0409     100
    C0068     R0411     100
    C0068     R0413     100
    C0068     R0415     100
    C0068     R0429     100
    C0068     R0447     100
    C0068     R0465     100
    C0069     R0468     -100
    C0069     R0450     -100
    C0069     R0434     -100
    C0069     R0432     -100
    C0069     R0430     -100
    C0069     R0428     -100
    C0069     R0426     -100
    C0069     R0424     -100
    C0069     R0422     -100
    C0069     R0420     -100
    C0069     R0418     -100
    C0069     R0412     -100
    C0069     R0394     -100
    C0069     R0376     -100
    C0069     R0358     -100
    C0069     R0340     -100
    C0069     R0322     -100
    C0069     R0304     -100
    C0069     R0288     -100
    C0069     R0270     -100
    C0069     R0254     -100
    C0069     R0252     -100
    C0069     R0250     -100
    C0069     R0248     -100
    C0069     R0246     -100
    C0069     R0244     -100
    C0069     R0242     -100
    C0069     R0240     -100
    C0069     R0238     -100
    C0069     R0232     -100
    C0069     R0214     -100
    C0069     R0196     -100
    C0069     R0178     -100
    C0069     R0160     -100
    C0069     R0142     -100
    C0069     R0124     -100
    C0069     R0123     100
    C0069     R0141     100
    C0069     R0159     100
    C0069     R0177     100
    C0069     R0195     100
    C0069     R0213     100
    C0069     R0231     100
    C0069     R0237     100
    C0069     R0239     100
    C0069     R0241     100
    C0069     R0243     100
    C0069     R0245     100
    C0069     R0247     100
    C0069     R0249     100
    C0069     R0251     100
    C0069     R0253     100
    C0069     R0269     100
    C0069     R0287     100
    C0069     R0303     100
    C0069     R0321     100
    C0069     R0339     100
    C0069     R0357     100
    C0069     R0375     100
    C0069     R0393     100
    C0069     R0411     100
    C0069     R0417     100
    C0069     R0419     100
    C0069     R0421     100
    C0069     R0423     100
    C0069     R0425     100
    C0069     R0427     100
    C0069     R0429     100
    C0069     R0431     100
    C0069     R0433     100
    C0069     R0449     100
    C0069     R0467     100
    C0070     R0470     -100
    C0070     R0452     -100
    C0070     R0450     -100
    C0070     R0448     -100
    C0070     R0446     -100
    C0070     R0444     -100
    C0070     R0442     -100
    C0070     R0440     -100
    C0070     R0438     -100
    C0070     R0436     -100
    C0070     R0432     -100
    C0070     R0414     -100
    C0070     R0396     -100
    C0070     R0378     -100
    C0070     R0360     -100
    C0070     R0342     -100
    C0070     R0324     -100
    C0070     R0306     -100
    C0070     R0290     -100
    C0070     R0272     -100
    C0070     R0270     -100
    C0070     R0268     -100
    C0070     R0266     -100
    C0070     R0264     -100
    C0070     R0262     -100
    C0070     R0260     -100
    C0070     R0258     -100
    C0070     R0256     -100
    C0070     R0252     -100
    C0070     R0234     -100
    C0070     R0216     -100
    C0070     R0198     -100
    C0070     R0180     -100
    C0070     R0162     -100
    C0070     R0144     -100
    C0070     R0126     -100
    C0070     R0125     100
    C0070     R0143     100
    C0070     R0161     100
    C0070     R0179     100
    C0070     R0197     100
    C0070     R0215     100
    C0070     R0233     100
    C0070     R0251     100
    C0070     R0255     100
    C0070     R0257     100
    C0070     R0259     100
    C0070     R0261     100
    C0070     R0263     100
    C0070     R0265     100
    C0070     R0267     100
    C0070     R0269     100
    C0070     R0271     100
    C0070     R0289     100
    C0070     R0305     100
    C0070     R0323     100
    C0070     R0341     100
    C0070     R0359     100
    C0070     R0377     100
    C0070     R0395     100
    C0070     R0413     100
    C0070     R0431     100
    C0070     R0435     100
    C0070     R0437     100
    C0070     R0439     100
    C0070     R0441     100
    C0070     R0443     100
    C0070     R0445     100
    C0070     R0447     100
    C0070     R0449     100
    C0070     R0451     100
    C0070     R0469     100
    C0071     R0470     -100
    C0071     R0468     -100
    C0071     R0466     -100
    C0071     R0464     -100
    C0071     R0462     -100
    C0071     R0460     -100
    C0071     R0458     -100
    C0071     R0456     -100
    C0071     R0454     -100
    C0071     R0452     -100
    C0071     R0434     -100
    C0071     R0416     -100
    C0071     R0398     -100
    C0071     R0380     -100
    C0071     R0362     -100
    C0071     R0344     -100
    C0071     R0326     -100
    C0071     R0308     -100
    C0071     R0290     -100
    C0071     R0288     -100
    C0071     R0286     -100
    C0071     R0284     -100
    C0071     R0282     -100
    C0071     R0280     -100
    C0071     R0278     -100
    C0071     R0276     -100
    C0071     R0274     -100
    C0071     R0272     -100
    C0071     R0254     -100
    C0071     R0236     -100
    C0071     R0218     -100
    C0071     R0200     -100
    C0071     R0182     -100
    C0071     R0164     -100
    C0071     R0146     -100
    C0071     R0128     -100
    C0071     R0127     100
    C0071     R0145     100
    C0071     R0163     100
    C0071     R0181     100
    C0071     R0199     100
    C0071     R0217     100
    C0071     R0235     100
    C0071     R0253     100
    C0071     R0271     100
    C0071     R0273     100
    C0071     R0275     100
    C0071     R0277     100
    C0071     R0279     100
    C0071     R0281     100
    C0071     R0283     100
    C0071     R0285     100
    C0071     R0287     100
    C0071     R0289     100
    C0071     R0307     100
    C0071     R0325     100
    C0071     R0343     100
    C0071     R0361     100
    C0071     R0379     100
    C0071     R0397     100
    C0071     R0415     100
    C0071     R0433     100
    C0071     R0451     100
    C0071     R0453     100
    C0071     R0455     100
    C0071     R0457     100
    C0071     R0459     100
    C0071     R0461     100
    C0071     R0463     100
    C0071     R0465     100
    C0071     R0467     100
    C0071     R0469     100
    C0082     R0814     -100
    C0082     R0796     -100
    C0082     R0778     -100
    C0082     R0760     -100
    C0082     R0742     -100
    C0082     R0724     -100
    C0082     R0706     -100
    C0082     R0688     -100
    C0082     R0670     -100
    C0082     R0668     -100
    C0082     R0666     -100
    C0082     R0664     -100
    C0082     R0662     -100
    C0082     R0660     -100
    C0082     R0658     -100
    C0082     R0656     -100
    C0082     R0654     -100
    C0082     R0652     -100
    C0082     R0634     -100
    C0082     R0616     -100
    C0082     R0598     -100
    C0082     R0580     -100
    C0082     R0562     -100
    C0082     R0544     -100
    C0082     R0526     -100
    C0082     R0508     -100
    C0082     R0490     -100
    C0082     R0488     -100
    C0082     R0486     -100
    C0082     R0484     -100
    C0082     R0482     -100
    C0082     R0480     -100
    C0082     R0478     -100
    C0082     R0476     -100
    C0082     R0474     -100
    C0082     R0472     -100
    C0082     R0471     100
    C0082     R0473     100
    C0082     R0475     100
    C0082     R0477     100
    C0082     R0479     100
    C0082     R0481     100
    C0082     R0483     100
    C0082     R0485     100
    C0082     R0487     100
    C0082     R0489     100
    C0082     R0507     100
    C0082     R0525     100
    C0082     R0543     100
    C0082     R0561     100
    C0082     R0579     100
    C0082     R0597     100
    C0082     R0615     100
    C0082     R0633     100
    C0082     R0651     100
    C0082     R0653     100
    C0082     R0655     100
    C0082     R0657     100
    C0082     R0659     100
    C0082     R0661     100
    C0082     R0663     100
    C0082     R0665     100
    C0082     R0667     100
    C0082     R0669     100
    C0082     R0687     100
    C0082     R0705     100
    C0082     R0723     100
    C0082     R0741     100
    C0082     R0759     100
    C0082     R0777     100
    C0082     R0795     100
    C0082     R0813     100
    C0083     R0816     -100
    C0083     R0798     -100
    C0083     R0780     -100
    C0083     R0762     -100
    C0083     R0744     -100
    C0083     R0726     -100
    C0083     R0708     -100
    C0083     R0690     -100
    C0083     R0686     -100
    C0083     R0684     -100
    C0083     R0682     -100
    C0083     R0680     -100
    C0083     R0678     -100
    C0083     R0676     -100
    C0083     R0674     -100
    C0083     R0672     -100
    C0083     R0670     -100
    C0083     R0652     -100
    C0083     R0636     -100
    C0083     R0618     -100
    C0083     R0600     -100
    C0083     R0582     -100
    C0083     R0564     -100
    C0083     R0546     -100
    C0083     R0528     -100
    C0083     R0510     -100
    C0083     R0506     -100
    C0083     R0504     -100
    C0083     R0502     -100
    C0083     R0500     -100
    C0083     R0498     -100
    C0083     R0496     -100
    C0083     R0494     -100
    C0083     R0492     -100
    C0083     R0490     -100
    C0083     R0472     -100
    C0083     R0471     100
    C0083     R0489     100
    C0083     R0491     100
    C0083     R0493     100
    C0083     R0495     100
    C0083     R0497     100
    C0083     R0499     100
    C0083     R0501     100
    C0083     R0503     100
    C0083     R0505     100
    C0083     R0509     100
    C0083     R0527     100
    C0083     R0545     100
    C0083     R0563     100
    C0083     R0581     100
    C0083     R0599     100
    C0083     R0617     100
    C0083     R0635     100
    C0083     R0651     100
    C0083     R0669     100
    C0083     R0671     100
    C0083     R0673     100
    C0083     R0675     100
    C0083     R0677     100
    C0083     R0679     100
    C0083     R0681     100
    C0083     R0683     100
    C0083     R0685     100
    C0083     R0689     100
    C0083     R0707     100
    C0083     R0725     100
    C0083     R0743     100
    C0083     R0761     100
    C0083     R0779     100
    C0083     R0797     100
    C0083     R0815     100
    C0084     R0818     -100
    C0084     R0800     -100
    C0084     R0782     -100
    C0084     R0764     -100
    C0084     R0746     -100
    C0084     R0728     -100
    C0084     R0710     -100
    C0084     R0704     -100
    C0084     R0702     -100
    C0084     R0700     -100
    C0084     R0698     -100
    C0084     R0696     -100
    C0084     R0694     -100
    C0084     R0692     -100
    C0084     R0690     -100
    C0084     R0688     -100
    C0084     R0672     -100
    C0084     R0654     -100
    C0084     R0638     -100
    C0084     R0620     -100
    C0084     R0602     -100
    C0084     R0584     -100
    C0084     R0566     -100
    C0084     R0548     -100
    C0084     R0530     -100
    C0084     R0524     -100
    C0084     R0522     -100
    C0084     R0520     -100
    C0084     R0518     -100
    C0084     R0516     -100
    C0084     R0514     -100
    C0084     R0512     -100
    C0084     R0510     -100
    C0084     R0508     -100
    C0084     R0492     -100
    C0084     R0474     -100
    C0084     R0473     100
    C0084     R0491     100
    C0084     R0507     100
    C0084     R0509     100
    C0084     R0511     100
    C0084     R0513     100
    C0084     R0515     100
    C0084     R0517     100
    C0084     R0519     100
    C0084     R0521     100
    C0084     R0523     100
    C0084     R0529     100
    C0084     R0547     100
    C0084     R0565     100
    C0084     R0583     100
    C0084     R0601     100
    C0084     R0619     100
    C0084     R0637     100
    C0084     R0653     100
    C0084     R0671     100
    C0084     R0687     100
    C0084     R0689     100
    C0084     R0691     100
    C0084     R0693     100
    C0084     R0695     100
    C0084     R0697     100
    C0084     R0699     100
    C0084     R0701     100
    C0084     R0703     100
    C0084     R0709     100
    C0084     R0727     100
    C0084     R0745     100
    C0084     R0763     100
    C0084     R0781     100
    C0084     R0799     100
    C0084     R0817     100
    C0085     R0820     -100
    C0085     R0802     -100
    C0085     R0784     -100
    C0085     R0766     -100
    C0085     R0748     -100
    C0085     R0730     -100
    C0085     R0722     -100
    C0085     R0720     -100
    C0085     R0718     -100
    C0085     R0716     -100
    C0085     R0714     -100
    C0085     R0712     -100
    C0085     R0710     -100
    C0085     R0708     -100
    C0085     R0706     -100
    C0085     R0692     -100
    C0085     R0674     -100
    C0085     R0656     -100
    C0085     R0640     -100
    C0085     R0622     -100
    C0085     R0604     -100
    C0085     R0586     -100
    C0085     R0568     -100
    C0085     R0550     -100
    C0085     R0542     -100
    C0085     R0540     -100
    C0085     R0538     -100
    C0085     R0536     -100
    C0085     R0534     -100
    C0085     R0532     -100
    C0085     R0530     -100
    C0085     R0528     -100
    C0085     R0526     -100
    C0085     R0512     -100
    C0085     R0494     -100
    C0085     R0476     -100
    C0085     R0475     100
    C0085     R0493     100
    C0085     R0511     100
    C0085     R0525     100
    C0085     R0527     100
    C0085     R0529     100
    C0085     R0531     100
    C0085     R0533     100
    C0085     R0535     100
    C0085     R0537     100
    C0085     R0539     100
    C0085     R0541     100
    C0085     R0549     100
    C0085     R0567     100
    C0085     R0585     100
    C0085     R0603     100
    C0085     R0621     100
    C0085     R0639     100
    C0085     R0655     100
    C0085     R0673     100
    C0085     R0691     100
    C0085     R0705     100
    C0085     R0707     100
    C0085     R0709     100
    C0085     R0711     100
    C0085     R0713     100
    C0085     R0715     100
    C0085     R0717     100
    C0085     R0719     100
    C0085     R0721     100
    C0085     R0729     100
    C0085     R0747     100
    C0085     R0765     100
    C0085     R0783     100
    C0085     R0801     100
    C0085     R0819     100
    C0086     R0822     -100
    C0086     R0804     -100
    C0086     R0786     -100
    C0086     R0768     -100
    C0086     R0750     -100
    C0086     R0740     -100
    C0086     R0738     -100
    C0086     R0736     -100
    C0086     R0734     -100
    C0086     R0732     -100
    C0086     R0730     -100
    C0086     R0728     -100
    C0086     R0726     -100
    C0086     R0724     -100
    C0086     R0712     -100
    C0086     R0694     -100
    C0086     R0676     -100
    C0086     R0658     -100
    C0086     R0642     -100
    C0086     R0624     -100
    C0086     R0606     -100
    C0086     R0588     -100
    C0086     R0570     -100
    C0086     R0560     -100
    C0086     R0558     -100
    C0086     R0556     -100
    C0086     R0554     -100
    C0086     R0552     -100
    C0086     R0550     -100
    C0086     R0548     -100
    C0086     R0546     -100
    C0086     R0544     -100
    C0086     R0532     -100
    C0086     R0514     -100
    C0086     R0496     -100
    C0086     R0478     -100
    C0086     R0477     100
    C0086     R0495     100
    C0086     R0513     100
    C0086     R0531     100
    C0086     R0543     100
    C0086     R0545     100
    C0086     R0547     100
    C0086     R0549     100
    C0086     R0551     100
    C0086     R0553     100
    C0086     R0555     100
    C0086     R0557     100
    C0086     R0559     100
    C0086     R0569     100
    C0086     R0587     100
    C0086     R0605     100
    C0086     R0623     100
    C0086     R0641     100
    C0086     R0657     100
    C0086     R0675     100
    C0086     R0693     100
    C0086     R0711     100
    C0086     R0723     100
    C0086     R0725     100
    C0086     R0727     100
    C0086     R0729     100
    C0086     R0731     100
    C0086     R0733     100
    C0086     R0735     100
    C0086     R0737     100
    C0086     R0739     100
    C0086     R0749     100
    C0086     R0767     100
    C0086     R0785     100
    C0086     R0803     100
    C0086     R0821     100
    C0087     R0824     -100
    C0087     R0806     -100
    C0087     R0788     -100
    C0087     R0770     -100
    C0087     R0758     -100
    C0087     R0756     -100
    C0087     R0754     -100
    C0087     R0752     -100
    C0087     R0750     -100
    C0087     R0748     -100
    C0087     R0746     -100
    C0087     R0744     -100
    C0087     R0742     -100
    C0087     R0732     -100
    C0087     R0714     -100
    C0087     R0696     -100
    C0087     R0678     -100
    C0087     R0660     -100
    C0087     R0644     -100
    C0087     R0626     -100
    C0087     R0608     -100
    C0087     R0590     -100
    C0087     R0578     -100
    C0087     R0576     -100
    C0087     R0574     -100
    C0087     R0572     -100
    C0087     R0570     -100
    C0087     R0568     -100
    C0087     R0566     -100
    C0087     R0564     -100
    C0087     R0562     -100
    C0087     R0552     -100
    C0087     R0534     -100
    C0087     R0516     -100
    C0087     R0498     -100
    C0087     R0480     -100
    C0087     R0479     100
    C0087     R0497     100
    C0087     R0515     100
    C0087     R0533     100
    C0087     R0551     100
    C0087     R0561     100
    C0087     R0563     100
    C0087     R0565     100
    C0087     R0567     100
    C0087     R0569     100
    C0087     R0571     100
    C0087     R0573     100
    C0087     R0575     100
    C0087     R0577     100
    C0087     R0589     100
    C0087     R0607     100
    C0087     R0625     100
    C0087     R0643     100
    C0087     R0659     100
    C0087     R0677     100
    C0087     R0695     100
    C0087     R0713     100
    C0087     R0731     100
    C0087     R0741     100
    C0087     R0743     100
    C0087     R0745     100
    C0087     R0747     100
    C0087     R0749     100
    C0087     R0751     100
    C0087     R0753     100
    C0087     R0755     100
    C0087     R0757     100
    C0087     R0769     100
    C0087     R0787     100
    C0087     R0805     100
    C0087     R0823     100
    C0088     R0826     -100
    C0088     R0808     -100
    C0088     R0790     -100
    C0088     R0776     -100
    C0088     R0774     -100
    C0088     R0772     -100
    C0088     R0770     -100
    C0088     R0768     -100
    C0088     R0766     -100
    C0088     R0764     -100
    C0088     R0762     -100
    C0088     R0760     -100
    C0088     R0752     -100
    C0088     R0734     -100
    C0088     R0716     -100
    C0088     R0698     -100
    C0088     R0680     -100
    C0088     R0662     -100
    C0088     R0646     -100
    C0088     R0628     -100
    C0088     R0610     -100
    C0088     R0596     -100
    C0088     R0594     -100
    C0088     R0592     -100
    C0088     R0590     -100
    C0088     R0588     -100
    C0088     R0586     -100
    C0088     R0584     -100
    C0088     R0582     -100
    C0088     R0580     -100
    C0088     R0572     -100
    C0088     R0554     -100
    C0088     R0536     -100
    C0088     R0518     -100
    C0088     R0500     -100
    C0088     R0482     -100
    C0088     R0481     100
    C0088     R0499     100
    C0088     R0517     100
    C0088     R0535     100
    C0088     R0553     100
    C0088     R0571     100
    C0088     R0579     100
    C0088     R0581     100
    C0088     R0583     100
    C0088     R0585     100
    C0088     R0587     100
    C0088     R0589     100
    C0088     R0591     100
    C0088     R0593     100
    C0088     R0595     100
    C0088     R0609     100
    C0088     R0627     100
    C0088     R0645     100
    C0088     R0661     100
    C0088     R0679     100
    C0088     R0697     100
    C0088     R0715     100
    C0088     R0733     100
    C0088     R0751     100
    C0088     R0759     100
    C0088     R0761     100
    C0088     R0763     100
    C0088     R0765     100
    C0088     R0767     100
    C0088     R0769     100
    C0088     R0771     100
    C0088     R0773     100
    C0088     R0775     100
    C0088     R0789     100
    C0088     R0807     100
    C0088     R0825     100
    C0089     R0828     -100
    C0089     R0810     -100
    C0089     R0794     -100
    C0089     R0792     -100
    C0089     R0790     -100
    C0089     R0788     -100
    C0089     R0786     -100
    C0089     R0784     -100
    C0089     R0782     -100
    C0089     R0780     -100
    C0089     R0778     -100
    C0089     R0772     -100
    C0089     R0754     -100
    C0089     R0736     -100
    C0089     R0718     -100
    C0089     R0700     -100
    C0089     R0682     -100
    C0089     R0664     -100
    C0089     R0648     -100
    C0089     R0630     -100
    C0089     R0614     -100
    C0089     R0612     -100
    C0089     R0610     -100
    C0089     R0608     -100
    C0089     R0606     -100
    C0089     R0604     -100
    C0089     R0602     -100
    C0089     R0600     -100
    C0089     R0598     -100
    C0089     R0592     -100
    C0089     R0574     -100
    C0089     R0556     -100
    C0089     R0538     -100
    C0089     R0520     -100
    C0089     R0502     -100
    C0089     R0484     -100
    C0089     R0483     100
    C0089     R0501     100
    C0089     R0519     100
    C0089     R0537     100
    C0089     R0555     100
    C0089     R0573     100
    C0089     R0591     100
    C0089     R0597     100
    C0089     R0599     100
    C0089     R0601     100
    C0089     R0603     100
    C0089     R0605     100
    C0089     R0607     100
    C0089     R0609     100
    C0089     R0611     100
    C0089     R0613     100
    C0089     R0629     100
    C0089     R0647     100
    C0089     R0663     100
    C0089     R0681     100
    C0089     R0699     100
    C0089     R0717     100
    C0089     R0735     100
    C0089     R0753     100
    C0089     R0771     100
    C0089     R0777     100
    C0089     R0779     100
    C0089     R0781     100
    C0089     R0783     100
    C0089     R0785     100
    C0089     R0787     100
    C0089     R0789     100
    C0089     R0791     100
    C0089     R0793     100
    C0089     R0809     100
    C0089     R0827     100
    C0090     R0830     -100
    C0090     R0812     -100
    C0090     R0810     -100
    C0090     R0808     -100
    C0090     R0806     -100
    C0090     R0804     -100
    C0090     R0802     -100
    C0090     R0800     -100
    C0090     R0798     -100
    C0090     R0796     -100
    C0090     R0792     -100
    C0090     R0774     -100
    C0090     R0756     -100
    C0090     R0738     -100
    C0090     R0720     -100
    C0090     R0702     -100
    C0090     R0684     -100
    C0090     R0666     -100
    C0090     R0650     -100
    C0090     R0632     -100
    C0090     R0630     -100
    C0090     R0628     -100
    C0090     R0626     -100
    C0090     R0624     -100
    C0090     R0622     -100
    C0090     R0620     -100
    C0090     R0618     -100
    C0090     R0616     -100
    C0090     R0612     -100
    C0090     R0594     -100
    C0090     R0576     -100
    C0090     R0558     -100
    C0090     R0540     -100
    C0090     R0522     -100
    C0090     R0504     -100
    C0090     R0486     -100
    C0090     R0485     100
    C0090     R0503     100
    C0090     R0521     100
    C0090     R0539     100
    C0090     R0557     100
    C0090     R0575     100
    C0090     R0593     100
    C0090     R0611     100
    C0090     R0615     100
    C0090     R0617     100
    C0090     R0619     100
    C0090     R0621     100
    C0090     R0623     100
    C0090     R0625     100
    C0090     R0627     100
    C0090     R0629     100
    C0090     R0631     100
    C0090     R0649     100
    C0090     R0665     100
    C0090     R0683     100
    C0090     R0701     100
    C0090     R0719     100
    C0090     R0737     100
    C0090     R0755     100
    C0090     R0773     100
    C0090     R0791     100
    C0090     R0795     100
    C0090     R0797     100
    C0090     R0799     100
    C0090     R0801     100
    C0090     R0803     100
    C0090     R0805     100
    C0090     R0807     100
    C0090     R0809     100
    C0090     R0811     100
    C0090     R0829     100
    C0091     R0830     -100
    C0091     R0828     -100
    C0091     R0826     -100
    C0091     R0824     -100
    C0091     R0822     -100
    C0091     R0820     -100
    C0091     R0818     -100
    C0091     R0816     -100
    C0091     R0814     -100
    C0091     R0812     -100
    C0091     R0794     -100
    C0091     R0776     -100
    C0091     R0758     -100
    C0091     R0740     -100
    C0091     R0722     -100
    C0091     R0704     -100
    C0091     R0686     -100
    C0091     R0668     -100
    C0091     R0650     -100
    C0091     R0648     -100
    C0091     R0646     -100
    C0091     R0644     -100
    C0091     R0642     -100
    C0091     R0640     -100
    C0091     R0638     -100
    C0091     R0636     -100
    C0091     R0634     -100
    C0091     R0632     -100
    C0091     R0614     -100
    C0091     R0596     -100
    C0091     R0578     -100
    C0091     R0560     -100
    C0091     R0542     -100
    C0091     R0524     -100
    C0091     R0506     -100
    C0091     R0488     -100
    C0091     R0487     100
    C0091     R0505     100
    C0091     R0523     100
    C0091     R0541     100
    C0091     R0559     100
    C0091     R0577     100
    C0091     R0595     100
    C0091     R0613     100
    C0091     R0631     100
    C0091     R0633     100
    C0091     R0635     100
    C0091     R0637     100
    C0091     R0639     100
    C0091     R0641     100
    C0091     R0643     100
    C0091     R0645     100
    C0091     R0647     100
    C0091     R0649     100
    C0091     R0667     100
    C0091     R0685     100
    C0091     R0703     100
    C0091     R0721     100
    C0091     R0739     100
    C0091     R0757     100
    C0091     R0775     100
    C0091     R0793     100
    C0091     R0811     100
    C0091     R0813     100
    C0091     R0815     100
    C0091     R0817     100
    C0091     R0819     100
    C0091     R0821     100
    C0091     R0823     100
    C0091     R0825     100
    C0091     R0827     100
    C0091     R0829     100
    C0102     R1174     -100
    C0102     R1156     -100
    C0102     R1138     -100
    C0102     R1120     -100
    C0102     R1102     -100
    C0102     R1084     -100
    C0102     R1066     -100
    C0102     R1048     -100
    C0102     R1030     -100
    C0102     R1028     -100
    C0102     R1026     -100
    C0102     R1024     -100
    C0102     R1022     -100
    C0102     R1020     -100
    C0102     R1018     -100
    C0102     R1016     -100
    C0102     R1014     -100
    C0102     R1012     -100
    C0102     R0994     -100
    C0102     R0976     -100
    C0102     R0958     -100
    C0102     R0940     -100
    C0102     R0922     -100
    C0102     R0904     -100
    C0102     R0886     -100
    C0102     R0868     -100
    C0102     R0850     -100
    C0102     R0848     -100
    C0102     R0846     -100
    C0102     R0844     -100
    C0102     R0842     -100
    C0102     R0840     -100
    C0102     R0838     -100
    C0102     R0836     -100
    C0102     R0834     -100
    C0102     R0832     -100
    C0102     R0831     100
    C0102     R0833     100
    C0102     R0835     100
    C0102     R0837     100
    C0102     R0839     100
    C0102     R0841     100
    C0102     R0843     100
    C0102     R0845     100
    C0102     R0847     100
    C0102     R0849     100
    C0102     R0867     100
    C0102     R0885     100
    C0102     R0903     100
    C0102     R0921     100
    C0102     R0939     100
    C0102     R0957     100
    C0102     R0975     100
    C0102     R0993     100
    C0102     R1011     100
    C0102     R1013     100
    C0102     R1015     100
    C0102     R1017     100
    C0102     R1019     100
    C0102     R1021     100
    C0102     R1023     100
    C0102     R1025     100
    C0102     R1027     100
    C0102     R1029     100
    C0102     R1047     100
    C0102     R1065     100
    C0102     R1083     100
    C0102     R1101     100
    C0102     R1119     100
    C0102     R1137     100
    C0102     R1155     100
    C0102     R1173     100
    C0103     R1176     -100
    C0103     R1158     -100
    C0103     R1140     -100
    C0103     R1122     -100
    C0103     R1104     -100
    C0103     R1086     -100
    C0103     R1068     -100
    C0103     R1050     -100
    C0103     R1046     -100
    C0103     R1044     -100
    C0103     R1042     -100
    C0103     R1040     -100
    C0103     R1038     -100
    C0103     R1036     -100
    C0103     R1034     -100
    C0103     R1032     -100
    C0103     R1030     -100
    C0103     R1012     -100
    C0103     R0996     -100
    C0103     R0978     -100
    C0103     R0960     -100
    C0103     R0942     -100
    C0103     R0924     -100
    C0103     R0906     -100
    C0103     R0888     -100
    C0103     R0870     -100
    C0103     R0866     -100
    C0103     R0864     -100
    C0103     R0862     -100
    C0103     R0860     -100
    C0103     R0858     -100
    C0103     R0856     -100
    C0103     R0854     -100
    C0103     R0852     -100
    C0103     R0850     -100
    C0103     R0832     -100
    C0103     R0831     100
    C0103     R0849     100
    C0103     R0851     100
    C0103     R0853     100
    C0103     R0855     100
    C0103     R0857     100
    C0103     R0859     100
    C0103     R0861     100
    C0103     R0863     100
    C0103     R0865     100
    C0103     R0869     100
    C0103     R0887     100
    C0103     R0905     100
    C0103     R0923     100
    C0103     R0941     100
    C0103     R0959     100
    C0103     R0977     100
    C0103     R0995     100
    C0103     R1011     100
    C0103     R1029     100
    C0103     R1031     100
    C0103     R1033     100
    C0103     R1035     100
    C0103     R1037     100
    C0103     R1039     100
    C0103     R1041     100
    C0103     R1043     100
    C0103     R1045     100
    C0103     R1049     100
    C0103     R1067     100
    C0103     R1085     100
    C0103     R1103     100
    C0103     R1121     100
    C0103     R1139     100
    C0103     R1157     100
    C0103     R1175     100
    C0104     R1178     -100
    C0104     R1160     -100
    C0104     R1142     -100
    C0104     R1124     -100
    C0104     R1106     -100
    C0104     R1088     -100
    C0104     R1070     -100
    C0104     R1064     -100
    C0104     R1062     -100
    C0104     R1060     -100
    C0104     R1058     -100
    C0104     R1056     -100
    C0104     R1054     -100
    C0104     R1052     -100
    C0104     R1050     -100
    C0104     R1048     -100
    C0104     R1032     -100
    C0104     R1014     -100
    C0104     R0998     -100
    C0104     R0980     -100
    C0104     R0962     -100
    C0104     R0944     -100
    C0104     R0926     -100
    C0104     R0908     -100
    C0104     R0890     -100
    C0104     R0884     -100
    C0104     R0882     -100
    C0104     R0880     -100
    C0104     R0878     -100
    C0104     R0876     -100
    C0104     R0874     -100
    C0104     R0872     -100
    C0104     R0870     -100
    C0104     R0868     -100
    C0104     R0852     -100
    C0104     R0834     -100
    C0104     R0833     100
    C0104     R0851     100
    C0104     R0867     100
    C0104     R0869     100
    C0104     R0871     100
    C0104     R0873     100
    C0104     R0875     100
    C0104     R0877     100
    C0104     R0879     100
    C0104     R0881     100
    C0104     R0883     100
    C0104     R0889     100
    C0104     R0907     100
    C0104     R0925     100
    C0104     R0943     100
    C0104     R0961     100
    C0104     R0979     100
    C0104     R0997     100
    C0104     R1013     100
    C0104     R1031     100
    C0104     R1047     100
    C0104     R1049     100
    C0104     R1051     100
    C0104     R1053     100
    C0104     R1055     100
    C0104     R1057     100
    C0104     R1059     100
    C0104     R1061     100
    C0104     R1063     100
    C0104     R1069     100
    C0104     R1087     100
    C0104     R1105     100
    C0104     R1123     100
    C0104     R1141     100
    C0104     R1159     100
    C0104     R1177     100
    C0105     R1180     -100
    C0105     R1162     -100
    C0105     R1144     -100
    C0105     R1126     -100
    C0105     R1108     -100
    C0105     R1090     -100
    C0105     R1082     -100
    C0105     R1080     -100
    C0105     R1078     -100
    C0105     R1076     -100
    C0105     R1074     -100
    C0105     R1072     -100
    C0105     R1070     -100
    C0105     R1068     -100
    C0105     R1066     -100
    C0105     R1052     -100
    C0105     R1034     -100
    C0105     R1016     -100
    C0105     R1000     -100
    C0105     R0982     -100
    C0105     R0964     -100
    C0105     R0946     -100
    C0105     R0928     -100
    C0105     R0910     -100
    C0105     R0902     -100
    C0105     R0900     -100
    C0105     R0898     -100
    C0105     R0896     -100
    C0105     R0894     -100
    C0105     R0892     -100
    C0105     R0890     -100
    C0105     R0888     -100
    C0105     R0886     -100
    C0105     R0872     -100
    C0105     R0854     -100
    C0105     R0836     -100
    C0105     R0835     100
    C0105     R0853     100
    C0105     R0871     100
    C0105     R0885     100
    C0105     R0887     100
    C0105     R0889     100
    C0105     R0891     100
    C0105     R0893     100
    C0105     R0895     100
    C0105     R0897     100
    C0105     R0899     100
    C0105     R0901     100
    C0105     R0909     100
    C0105     R0927     100
    C0105     R0945     100
    C0105     R0963     100
    C0105     R0981     100
    C0105     R0999     100
    C0105     R1015     100
    C0105     R1033     100
    C0105     R1051     100
    C0105     R1065     100
    C0105     R1067     100
    C0105     R1069     100
    C0105     R1071     100
    C0105     R1073     100
    C0105     R1075     100
    C0105     R1077     100
    C0105     R1079     100
    C0105     R1081     100
    C0105     R1089     100
    C0105     R1107     100
    C0105     R1125     100
    C0105     R1143     100
    C0105     R1161     100
    C0105     R1179     100
    C0106     R1182     -100
    C0106     R1164     -100
    C0106     R1146     -100
    C0106     R1128     -100
    C0106     R1110     -100
    C0106     R1100     -100
    C0106     R1098     -100
    C0106     R1096     -100
    C0106     R1094     -100
    C0106     R1092     -100
    C0106     R1090     -100
    C0106     R1088     -100
    C0106     R1086     -100
    C0106     R1084     -100
    C0106     R1072     -100
    C0106     R1054     -100
    C0106     R1036     -100
    C0106     R1018     -100
    C0106     R1002     -100
    C0106     R0984     -100
    C0106     R0966     -100
    C0106     R0948     -100
    C0106     R0930     -100
    C0106     R0920     -100
    C0106     R0918     -100
    C0106     R0916     -100
    C0106     R0914     -100
    C0106     R0912     -100
    C0106     R0910     -100
    C0106     R0908     -100
    C0106     R0906     -100
    C0106     R0904     -100
    C0106     R0892     -100
    C0106     R0874     -100
    C0106     R0856     -100
    C0106     R0838     -100
    C0106     R0837     100
    C0106     R0855     100
    C0106     R0873     100
    C0106     R0891     100
    C0106     R0903     100
    C0106     R0905     100
    C0106     R0907     100
    C0106     R0909     100
    C0106     R0911     100
    C0106     R0913     100
    C0106     R0915     100
    C0106     R0917     100
    C0106     R0919     100
    C0106     R0929     100
    C0106     R0947     100
    C0106     R0965     100
    C0106     R0983     100
    C0106     R1001     100
    C0106     R1017     100
    C0106     R1035     100
    C0106     R1053     100
    C0106     R1071     100
    C0106     R1083     100
    C0106     R1085     100
    C0106     R1087     100
    C0106     R1089     100
    C0106     R1091     100
    C0106     R1093     100
    C0106     R1095     100
    C0106     R1097     100
    C0106     R1099     100
    C0106     R1109     100
    C0106     R1127     100
    C0106     R1145     100
    C0106     R1163     100
    C0106     R1181     100
    C0107     R1184     -100
    C0107     R1166     -100
    C0107     R1148     -100
    C0107     R1130     -100
    C0107     R1118     -100
    C0107     R1116     -100
    C0107     R1114     -100
    C0107     R1112     -100
    C0107     R1110     -100
    C0107     R1108     -100
    C0107     R1106     -100
    C0107     R1104     -100
    C0107     R1102     -100
    C0107     R1092     -100
    C0107     R1074     -100
    C0107     R1056     -100
    C0107     R1038     -100
    C0107     R1020     -100
    C0107     R1004     -100
    C0107     R0986     -100
    C0107     R0968     -100
    C0107     R0950     -100
    C0107     R0938     -100
    C0107     R0936     -100
    C0107     R0934     -100
    C0107     R0932     -100
    C0107     R0930     -100
    C0107     R0928     -100
    C0107     R0926     -100
    C0107     R0924     -100
    C0107     R0922     -100
    C0107     R0912     -100
    C0107     R0894     -100
    C0107     R0876     -100
    C0107     R0858     -100
    C0107     R0840     -100
    C0107     R0839     100
    C0107     R0857     100
    C0107     R0875     100
    C0107     R0893     100
    C0107     R0911     100
    C0107     R0921     100
    C0107     R0923     100
    C0107     R0925     100
    C0107     R0927     100
    C0107     R0929     100
    C0107     R0931     100
    C0107     R0933     100
    C0107     R0935     100
    C0107     R0937     100
    C0107     R0949     100
    C0107     R0967     100
    C0107     R0985     100
    C0107     R1003     100
    C0107     R1019     100
    C0107     R1037     100
    C0107     R1055     100
    C0107     R1073     100
    C0107     R1091     100
    C0107     R1101     100
    C0107     R1103     100
    C0107     R1105     100
    C0107     R1107     100
    C0107     R1109     100
    C0107     R1111     100
    C0107     R1113     100
    C0107     R1115     100
    C0107     R1117     100
    C0107     R1129     100
    C0107     R1147     100
    C0107     R1165     100
    C0107     R1183     100
    C0108     R1186     -100
    C0108     R1168     -100
    C0108     R1150     -100
    C0108     R1136     -100
    C0108     R1134     -100
    C0108     R1132     -100
    C0108     R1130     -100
    C0108     R1128     -100
    C0108     R1126     -100
    C0108     R1124     -100
    C0108     R1122     -100
    C0108     R1120     -100
    C0108     R1112     -100
    C0108     R1094     -100
    C0108     R1076     -100
    C0108     R1058     -100
    C0108     R1040     -100
    C0108     R1022     -100
    C0108     R1006     -100
    C0108     R0988     -100
    C0108     R0970     -100
    C0108     R0956     -100
    C0108     R0954     -100
    C0108     R0952     -100
    C0108     R0950     -100
    C0108     R0948     -100
    C0108     R0946     -100
    C0108     R0944     -100
    C0108     R0942     -100
    C0108     R0940     -100
    C0108     R0932     -100
    C0108     R0914     -100
    C0108     R0896     -100
    C0108     R0878     -100
    C0108     R0860     -100
    C0108     R0842     -100
    C0108     R0841     100
    C0108     R0859     100
    C0108     R0877     100
    C0108     R0895     100
    C0108     R0913     100
    C0108     R0931     100
    C0108     R0939     100
    C0108     R0941     100
    C0108     R0943     100
    C0108     R0945     100
    C0108     R0947     100
    C0108     R0949     100
    C0108     R0951     100
    C0108     R0953     100
    C0108     R0955     100
    C0108     R0969     100
    C0108     R0987     100
    C0108     R1005     100
    C0108     R1021     100
    C0108     R1039     100
    C0108     R1057     100
    C0108     R1075     100
    C0108     R1093     100
    C0108     R1111     100
    C0108     R1119     100
    C0108     R1121     100
    C0108     R1123     100
    C0108     R1125     100
    C0108     R1127     100
    C0108     R1129     100
    C0108     R1131     100
    C0108     R1133     100
    C0108     R1135     100
    C0108     R1149     100
    C0108     R1167     100
    C0108     R1185     100
    C0109     R1188     -100
    C0109     R1170     -100
    C0109     R1154     -100
    C0109     R1152     -100
    C0109     R1150     -100
    C0109     R1148     -100
    C0109     R1146     -100
    C0109     R1144     -100
    C0109     R1142     -100
    C0109     R1140     -100
    C0109     R1138     -100
    C0109     R1132     -100
    C0109     R1114     -100
    C0109     R1096     -100
    C0109     R1078     -100
    C0109     R1060     -100
    C0109     R1042     -100
    C0109     R1024     -100
    C0109     R1008     -100
    C0109     R0990     -100
    C0109     R0974     -100
    C0109     R0972     -100
    C0109     R0970     -100
    C0109     R0968     -100
    C0109     R0966     -100
    C0109     R0964     -100
    C0109     R0962     -100
    C0109     R0960     -100
    C0109     R0958     -100
    C0109     R0952     -100
    C0109     R0934     -100
    C0109     R0916     -100
    C0109     R0898     -100
    C0109     R0880     -100
    C0109     R0862     -100
    C0109     R0844     -100
    C0109     R0843     100
    C0109     R0861     100
    C0109     R0879     100
    C0109     R0897     100
    C0109     R0915     100
    C0109     R0933     100
    C0109     R0951     100
    C0109     R0957     100
    C0109     R0959     100
    C0109     R0961     100
    C0109     R0963     100
    C0109     R0965     100
    C0109     R0967     100
    C0109     R0969     100
    C0109     R0971     100
    C0109     R0973     100
    C0109     R0989     100
    C0109     R1007     100
    C0109     R1023     100
    C0109     R1041     100
    C0109     R1059     100
    C0109     R1077     100
    C0109     R1095     100
    C0109     R1113     100
    C0109     R1131     100
    C0109     R1137     100
    C0109     R1139     100
    C0109     R1141     100
    C0109     R1143     100
    C0109     R1145     100
    C0109     R1147     100
    C0109     R1149     100
    C0109     R1151     100
    C0109     R1153     100
    C0109     R1169     100
    C0109     R1187     100
    C0110     R1190     -100
    C0110     R1172     -100
    C0110     R1170     -100
    C0110     R1168     -100
    C0110     R1166     -100
    C0110     R1164     -100
    C0110     R1162     -100
    C0110     R1160     -100
    C0110     R1158     -100
    C0110     R1156     -100
    C0110     R1152     -100
    C0110     R1134     -100
    C0110     R1116     -100
    C0110     R1098     -100
    C0110     R1080     -100
    C0110     R1062     -100
    C0110     R1044     -100
    C0110     R1026     -100
    C0110     R1010     -100
    C0110     R0992     -100
    C0110     R0990     -100
    C0110     R0988     -100
    C0110     R0986     -100
    C0110     R0984     -100
    C0110     R0982     -100
    C0110     R0980     -100
    C0110     R0978     -100
    C0110     R0976     -100
    C0110     R0972     -100
    C0110     R0954     -100
    C0110     R0936     -100
    C0110     R0918     -100
    C0110     R0900     -100
    C0110     R0882     -100
    C0110     R0864     -100
    C0110     R0846     -100
    C0110     R0845     100
    C0110     R0863     100
    C0110     R0881     100
    C0110     R0899     100
    C0110     R0917     100
    C0110     R0935     100
    C0110     R0953     100
    C0110     R0971     100
    C0110     R0975     100
    C0110     R0977     100
    C0110     R0979     100
    C0110     R0981     100
    C0110     R0983     100
    C0110     R0985     100
    C0110     R0987     100
    C0110     R0989     100
    C0110     R0991     100
    C0110     R1009     100
    C0110     R1025     100
    C0110     R1043     100
    C0110     R1061     100
    C0110     R1079     100
    C0110     R1097     100
    C0110     R1115     100
    C0110     R1133     100
    C0110     R1151     100
    C0110     R1155     100
    C0110     R1157     100
    C0110     R1159     100
    C0110     R1161     100
    C0110     R1163     100
    C0110     R1165     100
    C0110     R1167     100
    C0110     R1169     100
    C0110     R1171     100
    C0110     R1189     100
    C0111     R1190     -100
    C0111     R1188     -100
    C0111     R1186     -100
    C0111     R1184     -100
    C0111     R1182     -100
    C0111     R1180     -100
    C0111     R1178     -100
    C0111     R1176     -100
    C0111     R1174     -100
    C0111     R1172     -100
    C0111     R1154     -100
    C0111     R1136     -100
    C0111     R1118     -100
    C0111     R1100     -100
    C0111     R1082     -100
    C0111     R1064     -100
    C0111     R1046     -100
    C0111     R1028     -100
    C0111     R1010     -100
    C0111     R1008     -100
    C0111     R1006     -100
    C0111     R1004     -100
    C0111     R1002     -100
    C0111     R1000     -100
    C0111     R0998     -100
    C0111     R0996     -100
    C0111     R0994     -100
    C0111     R0992     -100
    C0111     R0974     -100
    C0111     R0956     -100
    C0111     R0938     -100
    C0111     R0920     -100
    C0111     R0902     -100
    C0111     R0884     -100
    C0111     R0866     -100
    C0111     R0848     -100
    C0111     R0847     100
    C0111     R0865     100
    C0111     R0883     100
    C0111     R0901     100
    C0111     R0919     100
    C0111     R0937     100
    C0111     R0955     100
    C0111     R0973     100
    C0111     R0991     100
    C0111     R0993     100
    C0111     R0995     100
    C0111     R0997     100
    C0111     R0999     100
    C0111     R1001     100
    C0111     R1003     100
    C0111     R1005     100
    C0111     R1007     100
    C0111     R1009     100
    C0111     R1027     100
    C0111     R1045     100
    C0111     R1063     100
    C0111     R1081     100
    C0111     R1099     100
    C0111     R1117     100
    C0111     R1135     100
    C0111     R1153     100
    C0111     R1171     100
    C0111     R1173     100
    C0111     R1175     100
    C0111     R1177     100
    C0111     R1179     100
    C0111     R1181     100
    C0111     R1183     100
    C0111     R1185     100
    C0111     R1187     100
    C0111     R1189     100
    C0122     R0111     100
    C0122     R0291     -100
    C0123     R0113     100
    C0123     R0293     -100
    C0124     R0115     100
    C0124     R0295     -100
    C0125     R0117     100
    C0125     R0297     -100
    C0126     R0119     100
    C0126     R0299     -100
    C0127     R0121     100
    C0127     R0301     -100
    C0128     R0123     100
    C0128     R0303     -100
    C0129     R0125     100
    C0129     R0305     -100
    C0130     R0127     100
    C0130     R0307     -100
    C0131     R0129     100
    C0131     R0309     -100
    C0132     R0131     100
    C0132     R0311     -100
    C0133     R0133     100
    C0133     R0313     -100
    C0134     R0135     100
    C0134     R0315     -100
    C0135     R0137     100
    C0135     R0317     -100
    C0136     R0139     100
    C0136     R0319     -100
    C0137     R0141     100
    C0137     R0321     -100
    C0138     R0143     100
    C0138     R0323     -100
    C0139     R0145     100
    C0139     R0325     -100
    C0140     R0147     100
    C0140     R0327     -100
    C0141     R0149     100
    C0141     R0329     -100
    C0142     R0151     100
    C0142     R0331     -100
    C0143     R0153     100
    C0143     R0333     -100
    C0144     R0155     100
    C0144     R0335     -100
    C0145     R0157     100
    C0145     R0337     -100
    C0146     R0159     100
    C0146     R0339     -100
    C0147     R0161     100
    C0147     R0341     -100
    C0148     R0163     100
    C0148     R0343     -100
    C0149     R0165     100
    C0149     R0345     -100
    C0150     R0167     100
    C0150     R0347     -100
    C0151     R0169     100
    C0151     R0349     -100
    C0152     R0171     100
    C0152     R0351     -100
    C0153     R0173     100
    C0153     R0353     -100
    C0154     R0175     100
    C0154     R0355     -100
    C0155     R0177     100
    C0155     R0357     -100
    C0156     R0179     100
    C0156     R0359     -100
    C0157     R0181     100
    C0157     R0361     -100
    C0158     R0183     100
    C0158     R0363     -100
    C0159     R0185     100
    C0159     R0365     -100
    C0160     R0187     100
    C0160     R0367     -100
    C0161     R0189     100
    C0161     R0369     -100
    C0162     R0191     100
    C0162     R0371     -100
    C0163     R0193     100
    C0163     R0373     -100
    C0164     R0195     100
    C0164     R0375     -100
    C0165     R0197     100
    C0165     R0377     -100
    C0166     R0199     100
    C0166     R0379     -100
    C0167     R0201     100
    C0167     R0381     -100
    C0168     R0203     100
    C0168     R0383     -100
    C0169     R0205     100
    C0169     R0385     -100
    C0170     R0207     100
    C0170     R0387     -100
    C0171     R0209     100
    C0171     R0389     -100
    C0172     R0211     100
    C0172     R0391     -100
    C0173     R0213     100
    C0173     R0393     -100
    C0174     R0215     100
    C0174     R0395     -100
    C0175     R0217     100
    C0175     R0397     -100
    C0176     R0219     100
    C0176     R0399     -100
    C0177     R0221     100
    C0177     R0401     -100
    C0178     R0223     100
    C0178     R0403     -100
    C0179     R0225     100
    C0179     R0405     -100
    C0180     R0227     100
    C0180     R0407     -100
    C0181     R0229     100
    C0181     R0409     -100
    C0182     R0231     100
    C0182     R0411     -100
    C0183     R0233     100
    C0183     R0413     -100
    C0184     R0235     100
    C0184     R0415     -100
    C0185     R0237     100
    C0185     R0417     -100
    C0186     R0239     100
    C0186     R0419     -100
    C0187     R0241     100
    C0187     R0421     -100
    C0188     R0243     100
    C0188     R0423     -100
    C0189     R0245     100
    C0189     R0425     -100
    C0190     R0247     100
    C0190     R0427     -100
    C0191     R0249     100
    C0191     R0429     -100
    C0192     R0251     100
    C0192     R0431     -100
    C0193     R0253     100
    C0193     R0433     -100
    C0194     R0255     100
    C0194     R0435     -100
    C0195     R0257     100
    C0195     R0437     -100
    C0196     R0259     100
    C0196     R0439     -100
    C0197     R0261     100
    C0197     R0441     -100
    C0198     R0263     100
    C0198     R0443     -100
    C0199     R0265     100
    C0199     R0445     -100
    C0200     R0267     100
    C0200     R0447     -100
    C0201     R0269     100
    C0201     R0449     -100
    C0202     R0271     100
    C0202     R0451     -100
    C0203     R0273     100
    C0203     R0453     -100
    C0204     R0275     100
    C0204     R0455     -100
    C0205     R0277     100
    C0205     R0457     -100
    C0206     R0279     100
    C0206     R0459     -100
    C0207     R0281     100
    C0207     R0461     -100
    C0208     R0283     100
    C0208     R0463     -100
    C0209     R0285     100
    C0209     R0465     -100
    C0210     R0287     100
    C0210     R0467     -100
    C0211     R0289     100
    C0211     R0469     -100
    C0212     R0112     100
    C0212     R0292     -100
    C0213     R0114     100
    C0213     R0294     -100
    C0214     R0116     100
    C0214     R0296     -100
    C0215     R0118     100
    C0215     R0298     -100
    C0216     R0120     100
    C0216     R0300     -100
    C0217     R0122     100
    C0217     R0302     -100
    C0218     R0124     100
    C0218     R0304     -100
    C0219     R0126     100
    C0219     R0306     -100
    C0220     R0128     100
    C0220     R0308     -100
    C0221     R0130     100
    C0221     R0310     -100
    C0222     R0132     100
    C0222     R0312     -100
    C0223     R0134     100
    C0223     R0314     -100
    C0224     R0136     100
    C0224     R0316     -100
    C0225     R0138     100
    C0225     R0318     -100
    C0226     R0140     100
    C0226     R0320     -100
    C0227     R0142     100
    C0227     R0322     -100
    C0228     R0144     100
    C0228     R0324     -100
    C0229     R0146     100
    C0229     R0326     -100
    C0230     R0148     100
    C0230     R0328     -100
    C0231     R0150     100
    C0231     R0330     -100
    C0232     R0152     100
    C0232     R0332     -100
    C0233     R0154     100
    C0233     R0334     -100
    C0234     R0156     100
    C0234     R0336     -100
    C0235     R0158     100
    C0235     R0338     -100
    C0236     R0160     100
    C0236     R0340     -100
    C0237     R0162     100
    C0237     R0342     -100
    C0238     R0164     100
    C0238     R0344     -100
    C0239     R0166     100
    C0239     R0346     -100
    C0240     R0168     100
    C0240     R0348     -100
    C0241     R0170     100
    C0241     R0350     -100
    C0242     R0172     100
    C0242     R0352     -100
    C0243     R0174     100
    C0243     R0354     -100
    C0244     R0176     100
    C0244     R0356     -100
    C0245     R0178     100
    C0245     R0358     -100
    C0246     R0180     100
    C0246     R0360     -100
    C0247     R0182     100
    C0247     R0362     -100
    C0248     R0184     100
    C0248     R0364     -100
    C0249     R0186     100
    C0249     R0366     -100
    C0250     R0188     100
    C0250     R0368     -100
    C0251     R0190     100
    C0251     R0370     -100
    C0252     R0192     100
    C0252     R0372     -100
    C0253     R0194     100
    C0253     R0374     -100
    C0254     R0196     100
    C0254     R0376     -100
    C0255     R0198     100
    C0255     R0378     -100
    C0256     R0200     100
    C0256     R0380     -100
    C0257     R0202     100
    C0257     R0382     -100
    C0258     R0204     100
    C0258     R0384     -100
    C0259     R0206     100
    C0259     R0386     -100
    C0260     R0208     100
    C0260     R0388     -100
    C0261     R0210     100
    C0261     R0390     -100
    C0262     R0212     100
    C0262     R0392     -100
    C0263     R0214     100
    C0263     R0394     -100
    C0264     R0216     100
    C0264     R0396     -100
    C0265     R0218     100
    C0265     R0398     -100
    C0266     R0220     100
    C0266     R0400     -100
    C0267     R0222     100
    C0267     R0402     -100
    C0268     R0224     100
    C0268     R0404     -100
    C0269     R0226     100
    C0269     R0406     -100
    C0270     R0228     100
    C0270     R0408     -100
    C0271     R0230     100
    C0271     R0410     -100
    C0272     R0232     100
    C0272     R0412     -100
    C0273     R0234     100
    C0273     R0414     -100
    C0274     R0236     100
    C0274     R0416     -100
    C0275     R0238     100
    C0275     R0418     -100
    C0276     R0240     100
    C0276     R0420     -100
    C0277     R0242     100
    C0277     R0422     -100
    C0278     R0244     100
    C0278     R0424     -100
    C0279     R0246     100
    C0279     R0426     -100
    C0280     R0248     100
    C0280     R0428     -100
    C0281     R0250     100
    C0281     R0430     -100
    C0282     R0252     100
    C0282     R0432     -100
    C0283     R0254     100
    C0283     R0434     -100
    C0284     R0256     100
    C0284     R0436     -100
    C0285     R0258     100
    C0285     R0438     -100
    C0286     R0260     100
    C0286     R0440     -100
    C0287     R0262     100
    C0287     R0442     -100
    C0288     R0264     100
    C0288     R0444     -100
    C0289     R0266     100
    C0289     R0446     -100
    C0290     R0268     100
    C0290     R0448     -100
    C0291     R0270     100
    C0291     R0450     -100
    C0292     R0272     100
    C0292     R0452     -100
    C0293     R0274     100
    C0293     R0454     -100
    C0294     R0276     100
    C0294     R0456     -100
    C0295     R0278     100
    C0295     R0458     -100
    C0296     R0280     100
    C0296     R0460     -100
    C0297     R0282     100
    C0297     R0462     -100
    C0298     R0284     100
    C0298     R0464     -100
    C0299     R0286     100
    C0299     R0466     -100
    C0300     R0288     100
    C0300     R0468     -100
    C0301     R0290     100
    C0301     R0470     -100
    C0302     R0471     100
    C0302     R0651     -100
    C0303     R0473     100
    C0303     R0653     -100
    C0304     R0475     100
    C0304     R0655     -100
    C0305     R0477     100
    C0305     R0657     -100
    C0306     R0479     100
    C0306     R0659     -100
    C0307     R0481     100
    C0307     R0661     -100
    C0308     R0483     100
    C0308     R0663     -100
    C0309     R0485     100
    C0309     R0665     -100
    C0310     R0487     100
    C0310     R0667     -100
    C0311     R0489     100
    C0311     R0669     -100
    C0312     R0491     100
    C0312     R0671     -100
    C0313     R0493     100
    C0313     R0673     -100
    C0314     R0495     100
    C0314     R0675     -100
    C0315     R0497     100
    C0315     R0677     -100
    C0316     R0499     100
    C0316     R0679     -100
    C0317     R0501     100
    C0317     R0681     -100
    C0318     R0503     100
    C0318     R0683     -100
    C0319     R0505     100
    C0319     R0685     -100
    C0320     R0507     100
    C0320     R0687     -100
    C0321     R0509     100
    C0321     R0689     -100
    C0322     R0511     100
    C0322     R0691     -100
    C0323     R0513     100
    C0323     R0693     -100
    C0324     R0515     100
    C0324     R0695     -100
    C0325     R0517     100
    C0325     R0697     -100
    C0326     R0519     100
    C0326     R0699     -100
    C0327     R0521     100
    C0327     R0701     -100
    C0328     R0523     100
    C0328     R0703     -100
    C0329     R0525     100
    C0329     R0705     -100
    C0330     R0527     100
    C0330     R0707     -100
    C0331     R0529     100
    C0331     R0709     -100
    C0332     R0531     100
    C0332     R0711     -100
    C0333     R0533     100
    C0333     R0713     -100
    C0334     R0535     100
    C0334     R0715     -100
    C0335     R0537     100
    C0335     R0717     -100
    C0336     R0539     100
    C0336     R0719     -100
    C0337     R0541     100
    C0337     R0721     -100
    C0338     R0543     100
    C0338     R0723     -100
    C0339     R0545     100
    C0339     R0725     -100
    C0340     R0547     100
    C0340     R0727     -100
    C0341     R0549     100
    C0341     R0729     -100
    C0342     R0551     100
    C0342     R0731     -100
    C0343     R0553     100
    C0343     R0733     -100
    C0344     R0555     100
    C0344     R0735     -100
    C0345     R0557     100
    C0345     R0737     -100
    C0346     R0559     100
    C0346     R0739     -100
    C0347     R0561     100
    C0347     R0741     -100
    C0348     R0563     100
    C0348     R0743     -100
    C0349     R0565     100
    C0349     R0745     -100
    C0350     R0567     100
    C0350     R0747     -100
    C0351     R0569     100
    C0351     R0749     -100
    C0352     R0571     100
    C0352     R0751     -100
    C0353     R0573     100
    C0353     R0753     -100
    C0354     R0575     100
    C0354     R0755     -100
    C0355     R0577     100
    C0355     R0757     -100
    C0356     R0579     100
    C0356     R0759     -100
    C0357     R0581     100
    C0357     R0761     -100
    C0358     R0583     100
    C0358     R0763     -100
    C0359     R0585     100
    C0359     R0765     -100
    C0360     R0587     100
    C0360     R0767     -100
    C0361     R0589     100
    C0361     R0769     -100
    C0362     R0591     100
    C0362     R0771     -100
    C0363     R0593     100
    C0363     R0773     -100
    C0364     R0595     100
    C0364     R0775     -100
    C0365     R0597     100
    C0365     R0777     -100
    C0366     R0599     100
    C0366     R0779     -100
    C0367     R0601     100
    C0367     R0781     -100
    C0368     R0603     100
    C0368     R0783     -100
    C0369     R0605     100
    C0369     R0785     -100
    C0370     R0607     100
    C0370     R0787     -100
    C0371     R0609     100
    C0371     R0789     -100
    C0372     R0611     100
    C0372     R0791     -100
    C0373     R0613     100
    C0373     R0793     -100
    C0374     R0615     100
    C0374     R0795     -100
    C0375     R0617     100
    C0375     R0797     -100
    C0376     R0619     100
    C0376     R0799     -100
    C0377     R0621     100
    C0377     R0801     -100
    C0378     R0623     100
    C0378     R0803     -100
    C0379     R0625     100
    C0379     R0805     -100
    C0380     R0627     100
    C0380     R0807     -100
    C0381     R0629     100
    C0381     R0809     -100
    C0382     R0631     100
    C0382     R0811     -100
    C0383     R0633     100
    C0383     R0813     -100
    C0384     R0635     100
    C0384     R0815     -100
    C0385     R0637     100
    C0385     R0817     -100
    C0386     R0639     100
    C0386     R0819     -100
    C0387     R0641     100
    C0387     R0821     -100
    C0388     R0643     100
    C0388     R0823     -100
    C0389     R0645     100
    C0389     R0825     -100
    C0390     R0647     100
    C0390     R0827     -100
    C0391     R0649     100
    C0391     R0829     -100
    C0392     R0472     100
    C0392     R0652     -100
    C0393     R0474     100
    C0393     R0654     -100
    C0394     R0476     100
    C0394     R0656     -100
    C0395     R0478     100
    C0395     R0658     -100
    C0396     R0480     100
    C0396     R0660     -100
    C0397     R0482     100
    C0397     R0662     -100
    C0398     R0484     100
    C0398     R0664     -100
    C0399     R0486     100
    C0399     R0666     -100
    C0400     R0488     100
    C0400     R0668     -100
    C0401     R0490     100
    C0401     R0670     -100
    C0402     R0492     100
    C0402     R0672     -100
    C0403     R0494     100
    C0403     R0674     -100
    C0404     R0496     100
    C0404     R0676     -100
    C0405     R0498     100
    C0405     R0678     -100
    C0406     R0500     100
    C0406     R0680     -100
    C0407     R0502     100
    C0407     R0682     -100
    C0408     R0504     100
    C0408     R0684     -100
    C0409     R0506     100
    C0409     R0686     -100
    C0410     R0508     100
    C0410     R0688     -100
    C0411     R0510     100
    C0411     R0690     -100
    C0412     R0512     100
    C0412     R0692     -100
    C0413     R0514     100
    C0413     R0694     -100
    C0414     R0516     100
    C0414     R0696     -100
    C0415     R0518     100
    C0415     R0698     -100
    C0416     R0520     100
    C0416     R0700     -100
    C0417     R0522     100
    C0417     R0702     -100
    C0418     R0524     100
    C0418     R0704     -100
    C0419     R0526     100
    C0419     R0706     -100
    C0420     R0528     100
    C0420     R0708     -100
    C0421     R0530     100
    C0421     R0710     -100
    C0422     R0532     100
    C0422     R0712     -100
    C0423     R0534     100
    C0423     R0714     -100
    C0424     R0536     100
    C0424     R0716     -100
    C0425     R0538     100
    C0425     R0718     -100
    C0426     R0540     100
    C0426     R0720     -100
    C0427     R0542     100
    C0427     R0722     -100
    C0428     R0544     100
    C0428     R0724     -100
    C0429     R0546     100
    C0429     R0726     -100
    C0430     R0548     100
    C0430     R0728     -100
    C0431     R0550     100
    C0431     R0730     -100
    C0432     R0552     100
    C0432     R0732     -100
    C0433     R0554     100
    C0433     R0734     -100
    C0434     R0556     100
    C0434     R0736     -100
    C0435     R0558     100
    C0435     R0738     -100
    C0436     R0560     100
    C0436     R0740     -100
    C0437     R0562     100
    C0437     R0742     -100
    C0438     R0564     100
    C0438     R0744     -100
    C0439     R0566     100
    C0439     R0746     -100
    C0440     R0568     100
    C0440     R0748     -100
    C0441     R0570     100
    C0441     R0750     -100
    C0442     R0572     100
    C0442     R0752     -100
    C0443     R0574     100
    C0443     R0754     -100
    C0444     R0576     100
    C0444     R0756     -100
    C0445     R0578     100
    C0445     R0758     -100
    C0446     R0580     100
    C0446     R0760     -100
    C0447     R0582     100
    C0447     R0762     -100
    C0448     R0584     100
    C0448     R0764     -100
    C0449     R0586     100
    C0449     R0766     -100
    C0450     R0588     100
    C0450     R0768     -100
    C0451     R0590     100
    C0451     R0770     -100
    C0452     R0592     100
    C0452     R0772     -100
    C0453     R0594     100
    C0453     R0774     -100
    C0454     R0596     100
    C0454     R0776     -100
    C0455     R0598     100
    C0455     R0778     -100
    C0456     R0600     100
    C0456     R0780     -100
    C0457     R0602     100
    C0457     R0782     -100
    C0458     R0604     100
    C0458     R0784     -100
    C0459     R0606     100
    C0459     R0786     -100
    C0460     R0608     100
    C0460     R0788     -100
    C0461     R0610     100
    C0461     R0790     -100
    C0462     R0612     100
    C0462     R0792     -100
    C0463     R0614     100
    C0463     R0794     -100
    C0464     R0616     100
    C0464     R0796     -100
    C0465     R0618     100
    C0465     R0798     -100
    C0466     R0620     100
    C0466     R0800     -100
    C0467     R0622     100
    C0467     R0802     -100
    C0468     R0624     100
    C0468     R0804     -100
    C0469     R0626     100
    C0469     R0806     -100
    C0470     R0628     100
    C0470     R0808     -100
    C0471     R0630     100
    C0471     R0810     -100
    C0472     R0632     100
    C0472     R0812     -100
    C0473     R0634     100
    C0473     R0814     -100
    C0474     R0636     100
    C0474     R0816     -100
    C0475     R0638     100
    C0475     R0818     -100
    C0476     R0640     100
    C0476     R0820     -100
    C0477     R0642     100
    C0477     R0822     -100
    C0478     R0644     100
    C0478     R0824     -100
    C0479     R0646     100
    C0479     R0826     -100
    C0480     R0648     100
    C0480     R0828     -100
    C0481     R0650     100
    C0481     R0830     -100
    C0482     R0831     100
    C0482     R1011     -100
    C0483     R0833     100
    C0483     R1013     -100
    C0484     R0835     100
    C0484     R1015     -100
    C0485     R0837     100
    C0485     R1017     -100
    C0486     R0839     100
    C0486     R1019     -100
    C0487     R0841     100
    C0487     R1021     -100
    C0488     R0843     100
    C0488     R1023     -100
    C0489     R0845     100
    C0489     R1025     -100
    C0490     R0847     100
    C0490     R1027     -100
    C0491     R0849     100
    C0491     R1029     -100
    C0492     R0851     100
    C0492     R1031     -100
    C0493     R0853     100
    C0493     R1033     -100
    C0494     R0855     100
    C0494     R1035     -100
    C0495     R0857     100
    C0495     R1037     -100
    C0496     R0859     100
    C0496     R1039     -100
    C0497     R0861     100
    C0497     R1041     -100
    C0498     R0863     100
    C0498     R1043     -100
    C0499     R0865     100
    C0499     R1045     -100
    C0500     R0867     100
    C0500     R1047     -100
    C0501     R0869     100
    C0501     R1049     -100
    C0502     R0871     100
    C0502     R1051     -100
    C0503     R0873     100
    C0503     R1053     -100
    C0504     R0875     100
    C0504     R1055     -100
    C0505     R0877     100
    C0505     R1057     -100
    C0506     R0879     100
    C0506     R1059     -100
    C0507     R0881     100
    C0507     R1061     -100
    C0508     R0883     100
    C0508     R1063     -100
    C0509     R0885     100
    C0509     R1065     -100
    C0510     R0887     100
    C0510     R1067     -100
    C0511     R0889     100
    C0511     R1069     -100
    C0512     R0891     100
    C0512     R1071     -100
    C0513     R0893     100
    C0513     R1073     -100
    C0514     R0895     100
    C0514     R1075     -100
    C0515     R0897     100
    C0515     R1077     -100
    C0516     R0899     100
    C0516     R1079     -100
    C0517     R0901     100
    C0517     R1081     -100
    C0518     R0903     100
    C0518     R1083     -100
    C0519     R0905     100
    C0519     R1085     -100
    C0520     R0907     100
    C0520     R1087     -100
    C0521     R0909     100
    C0521     R1089     -100
    C0522     R0911     100
    C0522     R1091     -100
    C0523     R0913     100
    C0523     R1093     -100
    C0524     R0915     100
    C0524     R1095     -100
    C0525     R0917     100
    C0525     R1097     -100
    C0526     R0919     100
    C0526     R1099     -100
    C0527     R0921     100
    C0527     R1101     -100
    C0528     R0923     100
    C0528     R1103     -100
    C0529     R0925     100
    C0529     R1105     -100
    C0530     R0927     100
    C0530     R1107     -100
    C0531     R0929     100
    C0531     R1109     -100
    C0532     R0931     100
    C0532     R1111     -100
    C0533     R0933     100
    C0533     R1113     -100
    C0534     R0935     100
    C0534     R1115     -100
    C0535     R0937     100
    C0535     R1117     -100
    C0536     R0939     100
    C0536     R1119     -100
    C0537     R0941     100
    C0537     R1121     -100
    C0538     R0943     100
    C0538     R1123     -100
    C0539     R0945     100
    C0539     R1125     -100
    C0540     R0947     100
    C0540     R1127     -100
    C0541     R0949     100
    C0541     R1129     -100
    C0542     R0951     100
    C0542     R1131     -100
    C0543     R0953     100
    C0543     R1133     -100
    C0544     R0955     100
    C0544     R1135     -100
    C0545     R0957     100
    C0545     R1137     -100
    C0546     R0959     100
    C0546     R1139     -100
    C0547     R0961     100
    C0547     R1141     -100
    C0548     R0963     100
    C0548     R1143     -100
    C0549     R0965     100
    C0549     R1145     -100
    C0550     R0967     100
    C0550     R1147     -100
    C0551     R0969     100
    C0551     R1149     -100
    C0552     R0971     100
    C0552     R1151     -100
    C0553     R0973     100
    C0553     R1153     -100
    C0554     R0975     100
    C0554     R1155     -100
    C0555     R0977     100
    C0555     R1157     -100
    C0556     R0979     100
    C0556     R1159     -100
    C0557     R0981     100
    C0557     R1161     -100
    C0558     R0983     100
    C0558     R1163     -100
    C0559     R0985     100
    C0559     R1165     -100
    C0560     R0987     100
    C0560     R1167     -100
    C0561     R0989     100
    C0561     R1169     -100
    C0562     R0991     100
    C0562     R1171     -100
    C0563     R0993     100
    C0563     R1173     -100
    C0564     R0995     100
    C0564     R1175     -100
    C0565     R0997     100
    C0565     R1177     -100
    C0566     R0999     100
    C0566     R1179     -100
    C0567     R1001     100
    C0567     R1181     -100
    C0568     R1003     100
    C0568     R1183     -100
    C0569     R1005     100
    C0569     R1185     -100
    C0570     R1007     100
    C0570     R1187     -100
    C0571     R1009     100
    C0571     R1189     -100
    C0572     R0832     100
    C0572     R1012     -100
    C0573     R0834     100
    C0573     R1014     -100
    C0574     R0836     100
    C0574     R1016     -100
    C0575     R0838     100
    C0575     R1018     -100
    C0576     R0840     100
    C0576     R1020     -100
    C0577     R0842     100
    C0577     R1022     -100
    C0578     R0844     100
    C0578     R1024     -100
    C0579     R0846     100
    C0579     R1026     -100
    C0580     R0848     100
    C0580     R1028     -100
    C0581     R0850     100
    C0581     R1030     -100
    C0582     R0852     100
    C0582     R1032     -100
    C0583     R0854     100
    C0583     R1034     -100
    C0584     R0856     100
    C0584     R1036     -100
    C0585     R0858     100
    C0585     R1038     -100
    C0586     R0860     100
    C0586     R1040     -100
    C0587     R0862     100
    C0587     R1042     -100
    C0588     R0864     100
    C0588     R1044     -100
    C0589     R0866     100
    C0589     R1046     -100
    C0590     R0868     100
    C0590     R1048     -100
    C0591     R0870     100
    C0591     R1050     -100
    C0592     R0872     100
    C0592     R1052     -100
    C0593     R0874     100
    C0593     R1054     -100
    C0594     R0876     100
    C0594     R1056     -100
    C0595     R0878     100
    C0595     R1058     -100
    C0596     R0880     100
    C0596     R1060     -100
    C0597     R0882     100
    C0597     R1062     -100
    C0598     R0884     100
    C0598     R1064     -100
    C0599     R0886     100
    C0599     R1066     -100
    C0600     R0888     100
    C0600     R1068     -100
    C0601     R0890     100
    C0601     R1070     -100
    C0602     R0892     100
    C0602     R1072     -100
    C0603     R0894     100
    C0603     R1074     -100
    C0604     R0896     100
    C0604     R1076     -100
    C0605     R0898     100
    C0605     R1078     -100
    C0606     R0900     100
    C0606     R1080     -100
    C0607     R0902     100
    C0607     R1082     -100
    C0608     R0904     100
    C0608     R1084     -100
    C0609     R0906     100
    C0609     R1086     -100
    C0610     R0908     100
    C0610     R1088     -100
    C0611     R0910     100
    C0611     R1090     -100
    C0612     R0912     100
    C0612     R1092     -100
    C0613     R0914     100
    C0613     R1094     -100
    C0614     R0916     100
    C0614     R1096     -100
    C0615     R0918     100
    C0615     R1098     -100
    C0616     R0920     100
    C0616     R1100     -100
    C0617     R0922     100
    C0617     R1102     -100
    C0618     R0924     100
    C0618     R1104     -100
    C0619     R0926     100
    C0619     R1106     -100
    C0620     R0928     100
    C0620     R1108     -100
    C0621     R0930     100
    C0621     R1110     -100
    C0622     R0932     100
    C0622     R1112     -100
    C0623     R0934     100
    C0623     R1114     -100
    C0624     R0936     100
    C0624     R1116     -100
    C0625     R0938     100
    C0625     R1118     -100
    C0626     R0940     100
    C0626     R1120     -100
    C0627     R0942     100
    C0627     R1122     -100
    C0628     R0944     100
    C0628     R1124     -100
    C0629     R0946     100
    C0629     R1126     -100
    C0630     R0948     100
    C0630     R1128     -100
    C0631     R0950     100
    C0631     R1130     -100
    C0632     R0952     100
    C0632     R1132     -100
    C0633     R0954     100
    C0633     R1134     -100
    C0634     R0956     100
    C0634     R1136     -100
    C0635     R0958     100
    C0635     R1138     -100
    C0636     R0960     100
    C0636     R1140     -100
    C0637     R0962     100
    C0637     R1142     -100
    C0638     R0964     100
    C0638     R1144     -100
    C0639     R0966     100
    C0639     R1146     -100
    C0640     R0968     100
    C0640     R1148     -100
    C0641     R0970     100
    C0641     R1150     -100
    C0642     R0972     100
    C0642     R1152     -100
    C0643     R0974     100
    C0643     R1154     -100
    C0644     R0976     100
    C0644     R1156     -100
    C0645     R0978     100
    C0645     R1158     -100
    C0646     R0980     100
    C0646     R1160     -100
    C0647     R0982     100
    C0647     R1162     -100
    C0648     R0984     100
    C0648     R1164     -100
    C0649     R0986     100
    C0649     R1166     -100
    C0650     R0988     100
    C0650     R1168     -100
    C0651     R0990     100
    C0651     R1170     -100
    C0652     R0992     100
    C0652     R1172     -100
    C0653     R0994     100
    C0653     R1174     -100
    C0654     R0996     100
    C0654     R1176     -100
    C0655     R0998     100
    C0655     R1178     -100
    C0656     R1000     100
    C0656     R1180     -100
    C0657     R1002     100
    C0657     R1182     -100
    C0658     R1004     100
    C0658     R1184     -100
    C0659     R1006     100
    C0659     R1186     -100
    C0660     R1008     100
    C0660     R1188     -100
    C0661     R1010     100
    C0661     R1190     -100
    MARKER    'MARKER'                 'INTEND'
RHS
    RHS1      R0091     -1.5
    RHS1      R0092     -0.8
    RHS1      R0093     -1
    RHS1      R0094     -0.5
    RHS1      R0095     -1.5
    RHS1      R0096     -0.5
    RHS1      R0097     -1
    RHS1      R0098     -2.6
    RHS1      R0099     -1
    RHS1      R0100     -0.6
    RHS1      R0101     -1.5
    RHS1      R0102     -0.5
    RHS1      R0103     -1.5
    RHS1      R0104     -0.6
    RHS1      R0105     -2
    RHS1      R0106     -0.5
    RHS1      R0107     -1.5
    RHS1      R0108     -0.6
    RHS1      R0109     -1.5
    RHS1      R0110     -0.5
    RHS1      R0111     299
    RHS1      R0112     99
    RHS1      R0113     299
    RHS1      R0114     99
    RHS1      R0115     299
    RHS1      R0116     99
    RHS1      R0117     299
    RHS1      R0118     99
    RHS1      R0119     299
    RHS1      R0120     99
    RHS1      R0121     299
    RHS1      R0122     99
    RHS1      R0123     299
    RHS1      R0124     99
    RHS1      R0125     299
    RHS1      R0126     99
    RHS1      R0127     299
    RHS1      R0128     99
    RHS1      R0129     299
    RHS1      R0130     99
    RHS1      R0131     299
    RHS1      R0132     99
    RHS1      R0133     299
    RHS1      R0134     99
    RHS1      R0135     299
    RHS1      R0136     99
    RHS1      R0137     299
    RHS1      R0138     99
    RHS1      R0139     299
    RHS1      R0140     99
    RHS1      R0141     299
    RHS1      R0142     99
    RHS1      R0143     299
    RHS1      R0144     99
    RHS1      R0145     299
    RHS1      R0146     99
    RHS1      R0147     299
    RHS1      R0148     99
    RHS1      R0149     299
    RHS1      R0150     99
    RHS1      R0151     299
    RHS1      R0152     99
    RHS1      R0153     299
    RHS1      R0154     99
    RHS1      R0155     299
    RHS1      R0156     99
    RHS1      R0157     299
    RHS1      R0158     99
    RHS1      R0159     299
    RHS1      R0160     99
    RHS1      R0161     299
    RHS1      R0162     99
    RHS1      R0163     299
    RHS1      R0164     99
    RHS1      R0165     299
    RHS1      R0166     99
    RHS1      R0167     299
    RHS1      R0168     99
    RHS1      R0169     299
    RHS1      R0170     99
    RHS1      R0171     299
    RHS1      R0172     99
    RHS1      R0173     299
    RHS1      R0174     99
    RHS1      R0175     299
    RHS1      R0176     99
    RHS1      R0177     299
    RHS1      R0178     99
    RHS1      R0179     299
    RHS1      R0180     99
    RHS1      R0181     299
    RHS1      R0182     99
    RHS1      R0183     299
    RHS1      R0184     99
    RHS1      R0185     299
    RHS1      R0186     99
    RHS1      R0187     299
    RHS1      R0188     99
    RHS1      R0189     299
    RHS1      R0190     99
    RHS1      R0191     299
    RHS1      R0192     99
    RHS1      R0193     299
    RHS1      R0194     99
    RHS1      R0195     299
    RHS1      R0196     99
    RHS1      R0197     299
    RHS1      R0198     99
    RHS1      R0199     299
    RHS1      R0200     99
    RHS1      R0201     299
    RHS1      R0202     99
    RHS1      R0203     299
    RHS1      R0204     99
    RHS1      R0205     299
    RHS1      R0206     99
    RHS1      R0207     299
    RHS1      R0208     99
    RHS1      R0209     299
    RHS1      R0210     99
    RHS1      R0211     299
    RHS1      R0212     99
    RHS1      R0213     299
    RHS1      R0214     99
    RHS1      R0215     299
    RHS1      R0216     99
    RHS1      R0217     299
    RHS1      R0218     99
    RHS1      R0219     299
    RHS1      R0220     99
    RHS1      R0221     299
    RHS1      R0222     99
    RHS1      R0223     299
    RHS1      R0224     99
    RHS1      R0225     299
    RHS1      R0226     99
    RHS1      R0227     299
    RHS1      R0228     99
    RHS1      R0229     299
    RHS1      R0230     99
    RHS1      R0231     299
    RHS1      R0232     99
    RHS1      R0233     299
    RHS1      R0234     99
    RHS1      R0235     299
    RHS1      R0236     99
    RHS1      R0237     299
    RHS1      R0238     99
    RHS1      R0239     299
    RHS1      R0240     99
    RHS1      R0241     299
    RHS1      R0242     99
    RHS1      R0243     299
    RHS1      R0244     99
    RHS1      R0245     299
    RHS1      R0246     99
    RHS1      R0247     299
    RHS1      R0248     99
    RHS1      R0249     299
    RHS1      R0250     99
    RHS1      R0251     299
    RHS1      R0252     99
    RHS1      R0253     299
    RHS1      R0254     99
    RHS1      R0255     299
    RHS1      R0256     99
    RHS1      R0257     299
    RHS1      R0258     99
    RHS1      R0259     299
    RHS1      R0260     99
    RHS1      R0261     299
    RHS1      R0262     99
    RHS1      R0263     299
    RHS1      R0264     99
    RHS1      R0265     299
    RHS1      R0266     99
    RHS1      R0267     299
    RHS1      R0268     99
    RHS1      R0269     299
    RHS1      R0270     99
    RHS1      R0271     299
    RHS1      R0272     99
    RHS1      R0273     299
    RHS1      R0274     99
    RHS1      R0275     299
    RHS1      R0276     99
    RHS1      R0277     299
    RHS1      R0278     99
    RHS1      R0279     299
    RHS1      R0280     99
    RHS1      R0281     299
    RHS1      R0282     99
    RHS1      R0283     299
    RHS1      R0284     99
    RHS1      R0285     299
    RHS1      R0286     99
    RHS1      R0287     299
    RHS1      R0288     99
    RHS1      R0289     299
    RHS1      R0290     99
    RHS1      R0291     199
    RHS1      R0292     -1
    RHS1      R0293     199
    RHS1      R0294     -1
    RHS1      R0295     199
    RHS1      R0296     -1
    RHS1      R0297     199
    RHS1      R0298     -1
    RHS1      R0299     199
    RHS1      R0300     -1
    RHS1      R0301     199
    RHS1      R0302     -1
    RHS1      R0303     199
    RHS1      R0304     -1
    RHS1      R0305     199
    RHS1      R0306     -1
    RHS1      R0307     199
    RHS1      R0308     -1
    RHS1      R0309     199
    RHS1      R0310     -1
    RHS1      R0311     199
    RHS1      R0312     -1
    RHS1      R0313     199
    RHS1      R0314     -1
    RHS1      R0315     199
    RHS1      R0316     -1
    RHS1      R0317     199
    RHS1      R0318     -1
    RHS1      R0319     199
    RHS1      R0320     -1
    RHS1      R0321     199
    RHS1      R0322     -1
    RHS1      R0323     199
    RHS1      R0324     -1
    RHS1      R0325     199
    RHS1      R0326     -1
    RHS1      R0327     199
    RHS1      R0328     -1
    RHS1      R0329     199
    RHS1      R0330     -1
    RHS1      R0331     199
    RHS1      R0332     -1
    RHS1      R0333     199
    RHS1      R0334     -1
    RHS1      R0335     199
    RHS1      R0336     -1
    RHS1      R0337     199
    RHS1      R0338     -1
    RHS1      R0339     199
    RHS1      R0340     -1
    RHS1      R0341     199
    RHS1      R0342     -1
    RHS1      R0343     199
    RHS1      R0344     -1
    RHS1      R0345     199
    RHS1      R0346     -1
    RHS1      R0347     199
    RHS1      R0348     -1
    RHS1      R0349     199
    RHS1      R0350     -1
    RHS1      R0351     199
    RHS1      R0352     -1
    RHS1      R0353     199
    RHS1      R0354     -1
    RHS1      R0355     199
    RHS1      R0356     -1
    RHS1      R0357     199
    RHS1      R0358     -1
    RHS1      R0359     199
    RHS1      R0360     -1
    RHS1      R0361     199
    RHS1      R0362     -1
    RHS1      R0363     199
    RHS1      R0364     -1
    RHS1      R0365     199
    RHS1      R0366     -1
    RHS1      R0367     199
    RHS1      R0368     -1
    RHS1      R0369     199
    RHS1      R0370     -1
    RHS1      R0371     199
    RHS1      R0372     -1
    RHS1      R0373     199
    RHS1      R0374     -1
    RHS1      R0375     199
    RHS1      R0376     -1
    RHS1      R0377     199
    RHS1      R0378     -1
    RHS1      R0379     199
    RHS1      R0380     -1
    RHS1      R0381     199
    RHS1      R0382     -1
    RHS1      R0383     199
    RHS1      R0384     -1
    RHS1      R0385     199
    RHS1      R0386     -1
    RHS1      R0387     199
    RHS1      R0388     -1
    RHS1      R0389     199
    RHS1      R0390     -1
    RHS1      R0391     199
    RHS1      R0392     -1
    RHS1      R0393     199
    RHS1      R0394     -1
    RHS1      R0395     199
    RHS1      R0396     -1
    RHS1      R0397     199
    RHS1      R0398     -1
    RHS1      R0399     199
    RHS1      R0400     -1
    RHS1      R0401     199
    RHS1      R0402     -1
    RHS1      R0403     199
    RHS1      R0404     -1
    RHS1      R0405     199
    RHS1      R0406     -1
    RHS1      R0407     199
    RHS1      R0408     -1
    RHS1      R0409     199
    RHS1      R0410     -1
    RHS1      R0411     199
    RHS1      R0412     -1
    RHS1      R0413     199
    RHS1      R0414     -1
    RHS1      R0415     199
    RHS1      R0416     -1
    RHS1      R0417     199
    RHS1      R0418     -1
    RHS1      R0419     199
    RHS1      R0420     -1
    RHS1      R0421     199
    RHS1      R0422     -1
    RHS1      R0423     199
    RHS1      R0424     -1
    RHS1      R0425     199
    RHS1      R0426     -1
    RHS1      R0427     199
    RHS1      R0428     -1
    RHS1      R0429     199
    RHS1      R0430     -1
    RHS1      R0431     199
    RHS1      R0432     -1
    RHS1      R0433     199
    RHS1      R0434     -1
    RHS1      R0435     199
    RHS1      R0436     -1
    RHS1      R0437     199
    RHS1      R0438     -1
    RHS1      R0439     199
    RHS1      R0440     -1
    RHS1      R0441     199
    RHS1      R0442     -1
    RHS1      R0443     199
    RHS1      R0444     -1
    RHS1      R0445     199
    RHS1      R0446     -1
    RHS1      R0447     199
    RHS1      R0448     -1
    RHS1      R0449     199
    RHS1      R0450     -1
    RHS1      R0451     199
    RHS1      R0452     -1
    RHS1      R0453     199
    RHS1      R0454     -1
    RHS1      R0455     199
    RHS1      R0456     -1
    RHS1      R0457     199
    RHS1      R0458     -1
    RHS1      R0459     199
    RHS1      R0460     -1
    RHS1      R0461     199
    RHS1      R0462     -1
    RHS1      R0463     199
    RHS1      R0464     -1
    RHS1      R0465     199
    RHS1      R0466     -1
    RHS1      R0467     199
    RHS1      R0468     -1
    RHS1      R0469     199
    RHS1      R0470     -1
    RHS1      R0471     298.5
    RHS1      R0472     98.5
    RHS1      R0473     298
    RHS1      R0474     98
    RHS1      R0475     298.5
    RHS1      R0476     98.5
    RHS1      R0477     298.5
    RHS1      R0478     98.5
    RHS1      R0479     298
    RHS1      R0480     98
    RHS1      R0481     298.5
    RHS1      R0482     98.5
    RHS1      R0483     297.5
    RHS1      R0484     97.5
    RHS1      R0485     298
    RHS1      R0486     98
    RHS1      R0487     298
    RHS1      R0488     98
    RHS1      R0489     298.5
    RHS1      R0490     98.5
    RHS1      R0491     298.5
    RHS1      R0492     98.5
    RHS1      R0493     299
    RHS1      R0494     99
    RHS1      R0495     299
    RHS1      R0496     99
    RHS1      R0497     298.5
    RHS1      R0498     98.5
    RHS1      R0499     298.5
    RHS1      R0500     98.5
    RHS1      R0501     298
    RHS1      R0502     98
    RHS1      R0503     298.5
    RHS1      R0504     98.5
    RHS1      R0505     298.5
    RHS1      R0506     98.5
    RHS1      R0507     298
    RHS1      R0508     98
    RHS1      R0509     298.5
    RHS1      R0510     98.5
    RHS1      R0511     298.5
    RHS1      R0512     98.5
    RHS1      R0513     298.5
    RHS1      R0514     98.5
    RHS1      R0515     298
    RHS1      R0516     98
    RHS1      R0517     298.5
    RHS1      R0518     98.5
    RHS1      R0519     297.5
    RHS1      R0520     97.5
    RHS1      R0521     298
    RHS1      R0522     98
    RHS1      R0523     298
    RHS1      R0524     98
    RHS1      R0525     298.5
    RHS1      R0526     98.5
    RHS1      R0527     299
    RHS1      R0528     99
    RHS1      R0529     298.5
    RHS1      R0530     98.5
    RHS1      R0531     299
    RHS1      R0532     99
    RHS1      R0533     298.5
    RHS1      R0534     98.5
    RHS1      R0535     298.5
    RHS1      R0536     98.5
    RHS1      R0537     298
    RHS1      R0538     98
    RHS1      R0539     298.5
    RHS1      R0540     98.5
    RHS1      R0541     298.5
    RHS1      R0542     98.5
    RHS1      R0543     298.5
    RHS1      R0544     98.5
    RHS1      R0545     298.5
    RHS1      R0546     98.5
    RHS1      R0547     298.5
    RHS1      R0548     98.5
    RHS1      R0549     298.5
    RHS1      R0550     98.5
    RHS1      R0551     298
    RHS1      R0552     98
    RHS1      R0553     298.5
    RHS1      R0554     98.5
    RHS1      R0555     297.5
    RHS1      R0556     97.5
    RHS1      R0557     298
    RHS1      R0558     98
    RHS1      R0559     298.5
    RHS1      R0560     98.5
    RHS1      R0561     298.5
    RHS1      R0562     98.5
    RHS1      R0563     299
    RHS1      R0564     99
    RHS1      R0565     298.5
    RHS1      R0566     98.5
    RHS1      R0567     298.5
    RHS1      R0568     98.5
    RHS1      R0569     298.5
    RHS1      R0570     98.5
    RHS1      R0571     298.5
    RHS1      R0572     98.5
    RHS1      R0573     297.5
    RHS1      R0574     97.5
    RHS1      R0575     298
    RHS1      R0576     98
    RHS1      R0577     298.5
    RHS1      R0578     98.5
    RHS1      R0579     298
    RHS1      R0580     98
    RHS1      R0581     298.5
    RHS1      R0582     98.5
    RHS1      R0583     298
    RHS1      R0584     98
    RHS1      R0585     298.5
    RHS1      R0586     98.5
    RHS1      R0587     298.5
    RHS1      R0588     98.5
    RHS1      R0589     298
    RHS1      R0590     98
    RHS1      R0591     297.5
    RHS1      R0592     97.5
    RHS1      R0593     298
    RHS1      R0594     98
    RHS1      R0595     298
    RHS1      R0596     98
    RHS1      R0597     298
    RHS1      R0598     98
    RHS1      R0599     298.5
    RHS1      R0600     98.5
    RHS1      R0601     298
    RHS1      R0602     98
    RHS1      R0603     298.5
    RHS1      R0604     98.5
    RHS1      R0605     298.5
    RHS1      R0606     98.5
    RHS1      R0607     298
    RHS1      R0608     98
    RHS1      R0609     298
    RHS1      R0610     98
    RHS1      R0611     298
    RHS1      R0612     98
    RHS1      R0613     298
    RHS1      R0614     98
    RHS1      R0615     298
    RHS1      R0616     98
    RHS1      R0617     298.5
    RHS1      R0618     98.5
    RHS1      R0619     298
    RHS1      R0620     98
    RHS1      R0621     298.5
    RHS1      R0622     98.5
    RHS1      R0623     298.5
    RHS1      R0624     98.5
    RHS1      R0625     298
    RHS1      R0626     98
    RHS1      R0627     298.5
    RHS1      R0628     98.5
    RHS1      R0629     298
    RHS1      R0630     98
    RHS1      R0631     298
    RHS1      R0632     98
    RHS1      R0633     298
    RHS1      R0634     98
    RHS1      R0635     298.5
    RHS1      R0636     98.5
    RHS1      R0637     298.5
    RHS1      R0638     98.5
    RHS1      R0639     298.5
    RHS1      R0640     98.5
    RHS1      R0641     298.5
    RHS1      R0642     98.5
    RHS1      R0643     298
    RHS1      R0644     98
    RHS1      R0645     298
    RHS1      R0646     98
    RHS1      R0647     297.5
    RHS1      R0648     97.5
    RHS1      R0649     298
    RHS1      R0650     98
    RHS1      R0651     198.5
    RHS1      R0652     -1.5
    RHS1      R0653     198
    RHS1      R0654     -2
    RHS1      R0655     198.5
    RHS1      R0656     -1.5
    RHS1      R0657     198.5
    RHS1      R0658     -1.5
    RHS1      R0659     198.5
    RHS1      R0660     -1.5
    RHS1      R0661     198
    RHS1      R0662     -2
    RHS1      R0663     198
    RHS1      R0664     -2
    RHS1      R0665     198
    RHS1      R0666     -2
    RHS1      R0667     198
    RHS1      R0668     -2
    RHS1      R0669     198.5
    RHS1      R0670     -1.5
    RHS1      R0671     198.5
    RHS1      R0672     -1.5
    RHS1      R0673     199
    RHS1      R0674     -1
    RHS1      R0675     198.5
    RHS1      R0676     -1.5
    RHS1      R0677     199
    RHS1      R0678     -1
    RHS1      R0679     198.5
    RHS1      R0680     -1.5
    RHS1      R0681     198.5
    RHS1      R0682     -1.5
    RHS1      R0683     198.5
    RHS1      R0684     -1.5
    RHS1      R0685     198.5
    RHS1      R0686     -1.5
    RHS1      R0687     198
    RHS1      R0688     -2
    RHS1      R0689     198.5
    RHS1      R0690     -1.5
    RHS1      R0691     198.5
    RHS1      R0692     -1.5
    RHS1      R0693     198.5
    RHS1      R0694     -1.5
    RHS1      R0695     198.5
    RHS1      R0696     -1.5
    RHS1      R0697     198
    RHS1      R0698     -2
    RHS1      R0699     198
    RHS1      R0700     -2
    RHS1      R0701     198
    RHS1      R0702     -2
    RHS1      R0703     198.5
    RHS1      R0704     -1.5
    RHS1      R0705     198.5
    RHS1      R0706     -1.5
    RHS1      R0707     199
    RHS1      R0708     -1
    RHS1      R0709     198.5
    RHS1      R0710     -1.5
    RHS1      R0711     198.5
    RHS1      R0712     -1.5
    RHS1      R0713     198.5
    RHS1      R0714     -1.5
    RHS1      R0715     198.5
    RHS1      R0716     -1.5
    RHS1      R0717     198.5
    RHS1      R0718     -1.5
    RHS1      R0719     198.5
    RHS1      R0720     -1.5
    RHS1      R0721     198.5
    RHS1      R0722     -1.5
    RHS1      R0723     198.5
    RHS1      R0724     -1.5
    RHS1      R0725     199
    RHS1      R0726     -1
    RHS1      R0727     198.5
    RHS1      R0728     -1.5
    RHS1      R0729     199
    RHS1      R0730     -1
    RHS1      R0731     198.5
    RHS1      R0732     -1.5
    RHS1      R0733     198.5
    RHS1      R0734     -1.5
    RHS1      R0735     198.5
    RHS1      R0736     -1.5
    RHS1      R0737     198.5
    RHS1      R0738     -1.5
    RHS1      R0739     198.5
    RHS1      R0740     -1.5
    RHS1      R0741     198
    RHS1      R0742     -2
    RHS1      R0743     198.5
    RHS1      R0744     -1.5
    RHS1      R0745     198
    RHS1      R0746     -2
    RHS1      R0747     198.5
    RHS1      R0748     -1.5
    RHS1      R0749     198
    RHS1      R0750     -2
    RHS1      R0751     198
    RHS1      R0752     -2
    RHS1      R0753     198
    RHS1      R0754     -2
    RHS1      R0755     198
    RHS1      R0756     -2
    RHS1      R0757     198
    RHS1      R0758     -2
    RHS1      R0759     198.5
    RHS1      R0760     -1.5
    RHS1      R0761     198.5
    RHS1      R0762     -1.5
    RHS1      R0763     198.5
    RHS1      R0764     -1.5
    RHS1      R0765     198.5
    RHS1      R0766     -1.5
    RHS1      R0767     198.5
    RHS1      R0768     -1.5
    RHS1      R0769     198.5
    RHS1      R0770     -1.5
    RHS1      R0771     198
    RHS1      R0772     -2
    RHS1      R0773     198.5
    RHS1      R0774     -1.5
    RHS1      R0775     198
    RHS1      R0776     -2
    RHS1      R0777     197.5
    RHS1      R0778     -2.5
    RHS1      R0779     198
    RHS1      R0780     -2
    RHS1      R0781     197.5
    RHS1      R0782     -2.5
    RHS1      R0783     198
    RHS1      R0784     -2
    RHS1      R0785     197.5
    RHS1      R0786     -2.5
    RHS1      R0787     197.5
    RHS1      R0788     -2.5
    RHS1      R0789     197.5
    RHS1      R0790     -2.5
    RHS1      R0791     198
    RHS1      R0792     -2
    RHS1      R0793     197.5
    RHS1      R0794     -2.5
    RHS1      R0795     198
    RHS1      R0796     -2
    RHS1      R0797     198.5
    RHS1      R0798     -1.5
    RHS1      R0799     198
    RHS1      R0800     -2
    RHS1      R0801     198.5
    RHS1      R0802     -1.5
    RHS1      R0803     198
    RHS1      R0804     -2
    RHS1      R0805     198
    RHS1      R0806     -2
    RHS1      R0807     198
    RHS1      R0808     -2
    RHS1      R0809     198
    RHS1      R0810     -2
    RHS1      R0811     198
    RHS1      R0812     -2
    RHS1      R0813     198
    RHS1      R0814     -2
    RHS1      R0815     198.5
    RHS1      R0816     -1.5
    RHS1      R0817     198
    RHS1      R0818     -2
    RHS1      R0819     198.5
    RHS1      R0820     -1.5
    RHS1      R0821     198.5
    RHS1      R0822     -1.5
    RHS1      R0823     198.5
    RHS1      R0824     -1.5
    RHS1      R0825     198
    RHS1      R0826     -2
    RHS1      R0827     198
    RHS1      R0828     -2
    RHS1      R0829     198
    RHS1      R0830     -2
    RHS1      R0831     299.5
    RHS1      R0832     99.5
    RHS1      R0833     299.5
    RHS1      R0834     99.5
    RHS1      R0835     297.4
    RHS1      R0836     97.4
    RHS1      R0837     299.4
    RHS1      R0838     99.4
    RHS1      R0839     299.5
    RHS1      R0840     99.5
    RHS1      R0841     299.4
    RHS1      R0842     99.4
    RHS1      R0843     299.5
    RHS1      R0844     99.5
    RHS1      R0845     299.4
    RHS1      R0846     99.4
    RHS1      R0847     299.5
    RHS1      R0848     99.5
    RHS1      R0849     299.2
    RHS1      R0850     99.2
    RHS1      R0851     299.5
    RHS1      R0852     99.5
    RHS1      R0853     297.4
    RHS1      R0854     97.4
    RHS1      R0855     299.4
    RHS1      R0856     99.4
    RHS1      R0857     299.5
    RHS1      R0858     99.5
    RHS1      R0859     299.4
    RHS1      R0860     99.4
    RHS1      R0861     299.5
    RHS1      R0862     99.5
    RHS1      R0863     299.4
    RHS1      R0864     99.4
    RHS1      R0865     299.5
    RHS1      R0866     99.5
    RHS1      R0867     299.2
    RHS1      R0868     99.2
    RHS1      R0869     299.5
    RHS1      R0870     99.5
    RHS1      R0871     297.4
    RHS1      R0872     97.4
    RHS1      R0873     299.4
    RHS1      R0874     99.4
    RHS1      R0875     299.5
    RHS1      R0876     99.5
    RHS1      R0877     299.4
    RHS1      R0878     99.4
    RHS1      R0879     299.5
    RHS1      R0880     99.5
    RHS1      R0881     299.4
    RHS1      R0882     99.4
    RHS1      R0883     299.5
    RHS1      R0884     99.5
    RHS1      R0885     299.2
    RHS1      R0886     99.2
    RHS1      R0887     299.5
    RHS1      R0888     99.5
    RHS1      R0889     299.5
    RHS1      R0890     99.5
    RHS1      R0891     299.4
    RHS1      R0892     99.4
    RHS1      R0893     299.5
    RHS1      R0894     99.5
    RHS1      R0895     299.4
    RHS1      R0896     99.4
    RHS1      R0897     299.5
    RHS1      R0898     99.5
    RHS1      R0899     299.4
    RHS1      R0900     99.4
    RHS1      R0901     299.5
    RHS1      R0902     99.5
    RHS1      R0903     299.2
    RHS1      R0904     99.2
    RHS1      R0905     299.5
    RHS1      R0906     99.5
    RHS1      R0907     299.5
    RHS1      R0908     99.5
    RHS1      R0909     297.4
    RHS1      R0910     97.4
    RHS1      R0911     299.5
    RHS1      R0912     99.5
    RHS1      R0913     299.4
    RHS1      R0914     99.4
    RHS1      R0915     299.5
    RHS1      R0916     99.5
    RHS1      R0917     299.4
    RHS1      R0918     99.4
    RHS1      R0919     299.5
    RHS1      R0920     99.5
    RHS1      R0921     299.2
    RHS1      R0922     99.2
    RHS1      R0923     299.5
    RHS1      R0924     99.5
    RHS1      R0925     299.5
    RHS1      R0926     99.5
    RHS1      R0927     297.4
    RHS1      R0928     97.4
    RHS1      R0929     299.4
    RHS1      R0930     99.4
    RHS1      R0931     299.4
    RHS1      R0932     99.4
    RHS1      R0933     299.5
    RHS1      R0934     99.5
    RHS1      R0935     299.4
    RHS1      R0936     99.4
    RHS1      R0937     299.5
    RHS1      R0938     99.5
    RHS1      R0939     299.2
    RHS1      R0940     99.2
    RHS1      R0941     299.5
    RHS1      R0942     99.5
    RHS1      R0943     299.5
    RHS1      R0944     99.5
    RHS1      R0945     297.4
    RHS1      R0946     97.4
    RHS1      R0947     299.4
    RHS1      R0948     99.4
    RHS1      R0949     299.5
    RHS1      R0950     99.5
    RHS1      R0951     299.5
    RHS1      R0952     99.5
    RHS1      R0953     299.4
    RHS1      R0954     99.4
    RHS1      R0955     299.5
    RHS1      R0956     99.5
    RHS1      R0957     299.2
    RHS1      R0958     99.2
    RHS1      R0959     299.5
    RHS1      R0960     99.5
    RHS1      R0961     299.5
    RHS1      R0962     99.5
    RHS1      R0963     297.4
    RHS1      R0964     97.4
    RHS1      R0965     299.4
    RHS1      R0966     99.4
    RHS1      R0967     299.5
    RHS1      R0968     99.5
    RHS1      R0969     299.4
    RHS1      R0970     99.4
    RHS1      R0971     299.4
    RHS1      R0972     99.4
    RHS1      R0973     299.5
    RHS1      R0974     99.5
    RHS1      R0975     299.2
    RHS1      R0976     99.2
    RHS1      R0977     299.5
    RHS1      R0978     99.5
    RHS1      R0979     299.5
    RHS1      R0980     99.5
    RHS1      R0981     297.4
    RHS1      R0982     97.4
    RHS1      R0983     299.4
    RHS1      R0984     99.4
    RHS1      R0985     299.5
    RHS1      R0986     99.5
    RHS1      R0987     299.4
    RHS1      R0988     99.4
    RHS1      R0989     299.5
    RHS1      R0990     99.5
    RHS1      R0991     299.5
    RHS1      R0992     99.5
    RHS1      R0993     299.2
    RHS1      R0994     99.2
    RHS1      R0995     299.5
    RHS1      R0996     99.5
    RHS1      R0997     299.5
    RHS1      R0998     99.5
    RHS1      R0999     297.4
    RHS1      R1000     97.4
    RHS1      R1001     299.4
    RHS1      R1002     99.4
    RHS1      R1003     299.5
    RHS1      R1004     99.5
    RHS1      R1005     299.4
    RHS1      R1006     99.4
    RHS1      R1007     299.5
    RHS1      R1008     99.5
    RHS1      R1009     299.4
    RHS1      R1010     99.4
    RHS1      R1011     199.2
    RHS1      R1012     -0.8
    RHS1      R1013     199.2
    RHS1      R1014     -0.8
    RHS1      R1015     199.2
    RHS1      R1016     -0.8
    RHS1      R1017     199.2
    RHS1      R1018     -0.8
    RHS1      R1019     199.2
    RHS1      R1020     -0.8
    RHS1      R1021     199.2
    RHS1      R1022     -0.8
    RHS1      R1023     199.2
    RHS1      R1024     -0.8
    RHS1      R1025     199.2
    RHS1      R1026     -0.8
    RHS1      R1027     199.2
    RHS1      R1028     -0.8
    RHS1      R1029     199.5
    RHS1      R1030     -0.5
    RHS1      R1031     199.5
    RHS1      R1032     -0.5
    RHS1      R1033     199.5
    RHS1      R1034     -0.5
    RHS1      R1035     199.5
    RHS1      R1036     -0.5
    RHS1      R1037     199.5
    RHS1      R1038     -0.5
    RHS1      R1039     199.5
    RHS1      R1040     -0.5
    RHS1      R1041     199.5
    RHS1      R1042     -0.5
    RHS1      R1043     199.5
    RHS1      R1044     -0.5
    RHS1      R1045     199.5
    RHS1      R1046     -0.5
    RHS1      R1047     199.5
    RHS1      R1048     -0.5
    RHS1      R1049     199.5
    RHS1      R1050     -0.5
    RHS1      R1051     199.5
    RHS1      R1052     -0.5
    RHS1      R1053     199.5
    RHS1      R1054     -0.5
    RHS1      R1055     199.5
    RHS1      R1056     -0.5
    RHS1      R1057     199.5
    RHS1      R1058     -0.5
    RHS1      R1059     199.5
    RHS1      R1060     -0.5
    RHS1      R1061     199.5
    RHS1      R1062     -0.5
    RHS1      R1063     199.5
    RHS1      R1064     -0.5
    RHS1      R1065     197.4
    RHS1      R1066     -2.6
    RHS1      R1067     197.4
    RHS1      R1068     -2.6
    RHS1      R1069     197.4
    RHS1      R1070     -2.6
    RHS1      R1071     197.4
    RHS1      R1072     -2.6
    RHS1      R1073     197.4
    RHS1      R1074     -2.6
    RHS1      R1075     197.4
    RHS1      R1076     -2.6
    RHS1      R1077     197.4
    RHS1      R1078     -2.6
    RHS1      R1079     197.4
    RHS1      R1080     -2.6
    RHS1      R1081     197.4
    RHS1      R1082     -2.6
    RHS1      R1083     199.4
    RHS1      R1084     -0.6
    RHS1      R1085     199.4
    RHS1      R1086     -0.6
    RHS1      R1087     199.4
    RHS1      R1088     -0.6
    RHS1      R1089     199.4
    RHS1      R1090     -0.6
    RHS1      R1091     199.4
    RHS1      R1092     -0.6
    RHS1      R1093     199.4
    RHS1      R1094     -0.6
    RHS1      R1095     199.4
    RHS1      R1096     -0.6
    RHS1      R1097     199.4
    RHS1      R1098     -0.6
    RHS1      R1099     199.4
    RHS1      R1100     -0.6
    RHS1      R1101     199.5
    RHS1      R1102     -0.5
    RHS1      R1103     199.5
    RHS1      R1104     -0.5
    RHS1      R1105     199.5
    RHS1      R1106     -0.5
    RHS1      R1107     199.5
    RHS1      R1108     -0.5
    RHS1      R1109     199.5
    RHS1      R1110     -0.5
    RHS1      R1111     199.5
    RHS1      R1112     -0.5
    RHS1      R1113     199.5
    RHS1      R1114     -0.5
    RHS1      R1115     199.5
    RHS1      R1116     -0.5
    RHS1      R1117     199.5
    RHS1      R1118     -0.5
    RHS1      R1119     199.4
    RHS1      R1120     -0.6
    RHS1      R1121     199.4
    RHS1      R1122     -0.6
    RHS1      R1123     199.4
    RHS1      R1124     -0.6
    RHS1      R1125     199.4
    RHS1      R1126     -0.6
    RHS1      R1127     199.4
    RHS1      R1128     -0.6
    RHS1      R1129     199.4
    RHS1      R1130     -0.6
    RHS1      R1131     199.4
    RHS1      R1132     -0.6
    RHS1      R1133     199.4
    RHS1      R1134     -0.6
    RHS1      R1135     199.4
    RHS1      R1136     -0.6
    RHS1      R1137     199.5
    RHS1      R1138     -0.5
    RHS1      R1139     199.5
    RHS1      R1140     -0.5
    RHS1      R1141     199.5
    RHS1      R1142     -0.5
    RHS1      R1143     199.5
    RHS1      R1144     -0.5
    RHS1      R1145     199.5
    RHS1      R1146     -0.5
    RHS1      R1147     199.5
    RHS1      R1148     -0.5
    RHS1      R1149     199.5
    RHS1      R1150     -0.5
    RHS1      R1151     199.5
    RHS1      R1152     -0.5
    RHS1      R1153     199.5
    RHS1      R1154     -0.5
    RHS1      R1155     199.4
    RHS1      R1156     -0.6
    RHS1      R1157     199.4
    RHS1      R1158     -0.6
    RHS1      R1159     199.4
    RHS1      R1160     -0.6
    RHS1      R1161     199.4
    RHS1      R1162     -0.6
    RHS1      R1163     199.4
    RHS1      R1164     -0.6
    RHS1      R1165     199.4
    RHS1      R1166     -0.6
    RHS1      R1167     199.4
    RHS1      R1168     -0.6
    RHS1      R1169     199.4
    RHS1      R1170     -0.6
    RHS1      R1171     199.4
    RHS1      R1172     -0.6
    RHS1      R1173     199.5
    RHS1      R1174     -0.5
    RHS1      R1175     199.5
    RHS1      R1176     -0.5
    RHS1      R1177     199.5
    RHS1      R1178     -0.5
    RHS1      R1179     199.5
    RHS1      R1180     -0.5
    RHS1      R1181     199.5
    RHS1      R1182     -0.5
    RHS1      R1183     199.5
    RHS1      R1184     -0.5
    RHS1      R1185     199.5
    RHS1      R1186     -0.5
    RHS1      R1187     199.5
    RHS1      R1188     -0.5
    RHS1      R1189     199.5
    RHS1      R1190     -0.5
BOUNDS
 LO BND1      C0001     4.5999999999999988e+00
 LO BND1      C0032     1
 LO BND1      C0033     1
 LO BND1      C0034     1
 LO BND1      C0035     1
 LO BND1      C0036     1
 LO BND1      C0037     1
 LO BND1      C0038     1
 LO BND1      C0039     1
 LO BND1      C0040     1
 LO BND1      C0041     1
 LO BND1      C0042     2.5
 LO BND1      C0043     2
 LO BND1      C0044     2.5
 LO BND1      C0045     2
 LO BND1      C0046     2
 LO BND1      C0047     2.5
 LO BND1      C0048     2.5
 LO BND1      C0049     3
 LO BND1      C0050     2.5
 LO BND1      C0051     2.5
 LO BND1      C0052     3.2999999999999994e+00
 LO BND1      C0053     2.5
 LO BND1      C0054     3
 LO BND1      C0055     4.5999999999999988e+00
 LO BND1      C0056     2.5999999999999996e+00
 LO BND1      C0057     3
 LO BND1      C0058     3.0999999999999996e+00
 LO BND1      C0059     3.5
 LO BND1      C0060     3.0999999999999996e+00
 LO BND1      C0061     3
 BV BND1      C0062   
 BV BND1      C0063   
 BV BND1      C0064   
 BV BND1      C0065   
 BV BND1      C0066   
 BV BND1      C0067   
 BV BND1      C0068   
 BV BND1      C0069   
 BV BND1      C0070   
 BV BND1      C0071   
 BV BND1      C0082   
 BV BND1      C0083   
 BV BND1      C0084   
 BV BND1      C0085   
 BV BND1      C0086   
 BV BND1      C0087   
 BV BND1      C0088   
 BV BND1      C0089   
 BV BND1      C0090   
 BV BND1      C0091   
 BV BND1      C0102   
 BV BND1      C0103   
 BV BND1      C0104   
 BV BND1      C0105   
 BV BND1      C0106   
 BV BND1      C0107   
 BV BND1      C0108   
 BV BND1      C0109   
 BV BND1      C0110   
 BV BND1      C0111   
 BV BND1      C0122   
 BV BND1      C0123   
 BV BND1      C0124   
 BV BND1      C0125   
 BV BND1      C0126   
 BV BND1      C0127   
 BV BND1      C0128   
 BV BND1      C0129   
 BV BND1      C0130   
 BV BND1      C0131   
 BV BND1      C0132   
 BV BND1      C0133   
 BV BND1      C0134   
 BV BND1      C0135   
 BV BND1      C0136   
 BV BND1      C0137   
 BV BND1      C0138   
 BV BND1      C0139   
 BV BND1      C0140   
 BV BND1      C0141   
 BV BND1      C0142   
 BV BND1      C0143   
 BV BND1      C0144   
 BV BND1      C0145   
 BV BND1      C0146   
 BV BND1      C0147   
 BV BND1      C0148   
 BV BND1      C0149   
 BV BND1      C0150   
 BV BND1      C0151   
 BV BND1      C0152   
 BV BND1      C0153   
 BV BND1      C0154   
 BV BND1      C0155   
 BV BND1      C0156   
 BV BND1      C0157   
 BV BND1      C0158   
 BV BND1      C0159   
 BV BND1      C0160   
 BV BND1      C0161   
 BV BND1      C0162   
 BV BND1      C0163   
 BV BND1      C0164   
 BV BND1      C0165   
 BV BND1      C0166   
 BV BND1      C0167   
 BV BND1      C0168   
 BV BND1      C0169   
 BV BND1      C0170   
 BV BND1      C0171   
 BV BND1      C0172   
 BV BND1      C0173   
 BV BND1      C0174   
 BV BND1      C0175   
 BV BND1      C0176   
 BV BND1      C0177   
 BV BND1      C0178   
 BV BND1      C0179   
 BV BND1      C0180   
 BV BND1      C0181   
 BV BND1      C0182   
 BV BND1      C0183   
 BV BND1      C0184   
 BV BND1      C0185   
 BV BND1      C0186   
 BV BND1      C0187   
 BV BND1      C0188   
 BV BND1      C0189   
 BV BND1      C0190   
 BV BND1      C0191   
 BV BND1      C0192   
 BV BND1      C0193   
 BV BND1      C0194   
 BV BND1      C0195   
 BV BND1      C0196   
 BV BND1      C0197   
 BV BND1      C0198   
 BV BND1      C0199   
 BV BND1      C0200   
 BV BND1      C0201   
 BV BND1      C0202   
 BV BND1      C0203   
 BV BND1      C0204   
 BV BND1      C0205   
 BV BND1      C0206   
 BV BND1      C0207   
 BV BND1      C0208   
 BV BND1      C0209   
 BV BND1      C0210   
 BV BND1      C0211   
 BV BND1      C0212   
 BV BND1      C0213   
 BV BND1      C0214   
 BV BND1      C0215   
 BV BND1      C0216   
 BV BND1      C0217   
 BV BND1      C0218   
 BV BND1      C0219   
 BV BND1      C0220   
 BV BND1      C0221   
 BV BND1      C0222   
 BV BND1      C0223   
 BV BND1      C0224   
 BV BND1      C0225   
 BV BND1      C0226   
 BV BND1      C0227   
 BV BND1      C0228   
 BV BND1      C0229   
 BV BND1      C0230   
 BV BND1      C0231   
 BV BND1      C0232   
 BV BND1      C0233   
 BV BND1      C0234   
 BV BND1      C0235   
 BV BND1      C0236   
 BV BND1      C0237   
 BV BND1      C0238   
 BV BND1      C0239   
 BV BND1      C0240   
 BV BND1      C0241   
 BV BND1      C0242   
 BV BND1      C0243   
 BV BND1      C0244   
 BV BND1      C0245   
 BV BND1      C0246   
 BV BND1      C0247   
 BV BND1      C0248   
 BV BND1      C0249   
 BV BND1      C0250   
 BV BND1      C0251   
 BV BND1      C0252   
 BV BND1      C0253   
 BV BND1      C0254   
 BV BND1      C0255   
 BV BND1      C0256   
 BV BND1      C0257   
 BV BND1      C0258   
 BV BND1      C0259   
 BV BND1      C0260   
 BV BND1      C0261   
 BV BND1      C0262   
 BV BND1      C0263   
 BV BND1      C0264   
 BV BND1      C0265   
 BV BND1      C0266   
 BV BND1      C0267   
 BV BND1      C0268   
 BV BND1      C0269   
 BV BND1      C0270   
 BV BND1      C0271   
 BV BND1      C0272   
 BV BND1      C0273   
 BV BND1      C0274   
 BV BND1      C0275   
 BV BND1      C0276   
 BV BND1      C0277   
 BV BND1      C0278   
 BV BND1      C0279   
 BV BND1      C0280   
 BV BND1      C0281   
 BV BND1      C0282   
 BV BND1      C0283   
 BV BND1      C0284   
 BV BND1      C0285   
 BV BND1      C0286   
 BV BND1      C0287   
 BV BND1      C0288   
 BV BND1      C0289   
 BV BND1      C0290   
 BV BND1      C0291   
 BV BND1      C0292   
 BV BND1      C0293   
 BV BND1      C0294   
 BV BND1      C0295   
 BV BND1      C0296   
 BV BND1      C0297   
 BV BND1      C0298   
 BV BND1      C0299   
 BV BND1      C0300   
 BV BND1      C0301   
 BV BND1      C0302   
 BV BND1      C0303   
 BV BND1      C0304   
 BV BND1      C0305   
 BV BND1      C0306   
 BV BND1      C0307   
 BV BND1      C0308   
 BV BND1      C0309   
 BV BND1      C0310   
 BV BND1      C0311   
 BV BND1      C0312   
 BV BND1      C0313   
 BV BND1      C0314   
 BV BND1      C0315   
 BV BND1      C0316   
 BV BND1      C0317   
 BV BND1      C0318   
 BV BND1      C0319   
 BV BND1      C0320   
 BV BND1      C0321   
 BV BND1      C0322   
 BV BND1      C0323   
 BV BND1      C0324   
 BV BND1      C0325   
 BV BND1      C0326   
 BV BND1      C0327   
 BV BND1      C0328   
 BV BND1      C0329   
 BV BND1      C0330   
 BV BND1      C0331   
 BV BND1      C0332   
 BV BND1      C0333   
 BV BND1      C0334   
 BV BND1      C0335   
 BV BND1      C0336   
 BV BND1      C0337   
 BV BND1      C0338   
 BV BND1      C0339   
 BV BND1      C0340   
 BV BND1      C0341   
 BV BND1      C0342   
 BV BND1      C0343   
 BV BND1      C0344   
 BV BND1      C0345   
 BV BND1      C0346   
 BV BND1      C0347   
 BV BND1      C0348   
 BV BND1      C0349   
 BV BND1      C0350   
 BV BND1      C0351   
 BV BND1      C0352   
 BV BND1      C0353   
 BV BND1      C0354   
 BV BND1      C0355   
 BV BND1      C0356   
 BV BND1      C0357   
 BV BND1      C0358   
 BV BND1      C0359   
 BV BND1      C0360   
 BV BND1      C0361   
 BV BND1      C0362   
 BV BND1      C0363   
 BV BND1      C0364   
 BV BND1      C0365   
 BV BND1      C0366   
 BV BND1      C0367   
 BV BND1      C0368   
 BV BND1      C0369   
 BV BND1      C0370   
 BV BND1      C0371   
 BV BND1      C0372   
 BV BND1      C0373   
 BV BND1      C0374   
 BV BND1      C0375   
 BV BND1      C0376   
 BV BND1      C0377   
 BV BND1      C0378   
 BV BND1      C0379   
 BV BND1      C0380   
 BV BND1      C0381   
 BV BND1      C0382   
 BV BND1      C0383   
 BV BND1      C0384   
 BV BND1      C0385   
 BV BND1      C0386   
 BV BND1      C0387   
 BV BND1      C0388   
 BV BND1      C0389   
 BV BND1      C0390   
 BV BND1      C0391   
 BV BND1      C0392   
 BV BND1      C0393   
 BV BND1      C0394   
 BV BND1      C0395   
 BV BND1      C0396   
 BV BND1      C0397   
 BV BND1      C0398   
 BV BND1      C0399   
 BV BND1      C0400   
 BV BND1      C0401   
 BV BND1      C0402   
 BV BND1      C0403   
 BV BND1      C0404   
 BV BND1      C0405   
 BV BND1      C0406   
 BV BND1      C0407   
 BV BND1      C0408   
 BV BND1      C0409   
 BV BND1      C0410   
 BV BND1      C0411   
 BV BND1      C0412   
 BV BND1      C0413   
 BV BND1      C0414   
 BV BND1      C0415   
 BV BND1      C0416   
 BV BND1      C0417   
 BV BND1      C0418   
 BV BND1      C0419   
 BV BND1      C0420   
 BV BND1      C0421   
 BV BND1      C0422   
 BV BND1      C0423   
 BV BND1      C0424   
 BV BND1      C0425   
 BV BND1      C0426   
 BV BND1      C0427   
 BV BND1      C0428   
 BV BND1      C0429   
 BV BND1      C0430   
 BV BND1      C0431   
 BV BND1      C0432   
 BV BND1      C0433   
 BV BND1      C0434   
 BV BND1      C0435   
 BV BND1      C0436   
 BV BND1      C0437   
 BV BND1      C0438   
 BV BND1      C0439   
 BV BND1      C0440   
 BV BND1      C0441   
 BV BND1      C0442   
 BV BND1      C0443   
 BV BND1      C0444   
 BV BND1      C0445   
 BV BND1      C0446   
 BV BND1      C0447   
 BV BND1      C0448   
 BV BND1      C0449   
 BV BND1      C0450   
 BV BND1      C0451   
 BV BND1      C0452   
 BV BND1      C0453   
 BV BND1      C0454   
 BV BND1      C0455   
 BV BND1      C0456   
 BV BND1      C0457   
 BV BND1      C0458   
 BV BND1      C0459   
 BV BND1      C0460   
 BV BND1      C0461   
 BV BND1      C0462   
 BV BND1      C0463   
 BV BND1      C0464   
 BV BND1      C0465   
 BV BND1      C0466   
 BV BND1      C0467   
 BV BND1      C0468   
 BV BND1      C0469   
 BV BND1      C0470   
 BV BND1      C0471   
 BV BND1      C0472   
 BV BND1      C0473   
 BV BND1      C0474   
 BV BND1      C0475   
 BV BND1      C0476   
 BV BND1      C0477   
 BV BND1      C0478   
 BV BND1      C0479   
 BV BND1      C0480   
 BV BND1      C0481   
 BV BND1      C0482   
 BV BND1      C0483   
 BV BND1      C0484   
 BV BND1      C0485   
 BV BND1      C0486   
 BV BND1      C0487   
 BV BND1      C0488   
 BV BND1      C0489   
 BV BND1      C0490   
 BV BND1      C0491   
 BV BND1      C0492   
 BV BND1      C0493   
 BV BND1      C0494   
 BV BND1      C0495   
 BV BND1      C0496   
 BV BND1      C0497   
 BV BND1      C0498   
 BV BND1      C0499   
 BV BND1      C0500   
 BV BND1      C0501   
 BV BND1      C0502   
 BV BND1      C0503   
 BV BND1      C0504   
 BV BND1      C0505   
 BV BND1      C0506   
 BV BND1      C0507   
 BV BND1      C0508   
 BV BND1      C0509   
 BV BND1      C0510   
 BV BND1      C0511   
 BV BND1      C0512   
 BV BND1      C0513   
 BV BND1      C0514   
 BV BND1      C0515   
 BV BND1      C0516   
 BV BND1      C0517   
 BV BND1      C0518   
 BV BND1      C0519   
 BV BND1      C0520   
 BV BND1      C0521   
 BV BND1      C0522   
 BV BND1      C0523   
 BV BND1      C0524   
 BV BND1      C0525   
 BV BND1      C0526   
 BV BND1      C0527   
 BV BND1      C0528   
 BV BND1      C0529   
 BV BND1      C0530   
 BV BND1      C0531   
 BV BND1      C0532   
 BV BND1      C0533   
 BV BND1      C0534   
 BV BND1      C0535   
 BV BND1      C0536   
 BV BND1      C0537   
 BV BND1      C0538   
 BV BND1      C0539   
 BV BND1      C0540   
 BV BND1      C0541   
 BV BND1      C0542   
 BV BND1      C0543   
 BV BND1      C0544   
 BV BND1      C0545   
 BV BND1      C0546   
 BV BND1      C0547   
 BV BND1      C0548   
 BV BND1      C0549   
 BV BND1      C0550   
 BV BND1      C0551   
 BV BND1      C0552   
 BV BND1      C0553   
 BV BND1      C0554   
 BV BND1      C0555   
 BV BND1      C0556   
 BV BND1      C0557   
 BV BND1      C0558   
 BV BND1      C0559   
 BV BND1      C0560   
 BV BND1      C0561   
 BV BND1      C0562   
 BV BND1      C0563   
 BV BND1      C0564   
 BV BND1      C0565   
 BV BND1      C0566   
 BV BND1      C0567   
 BV BND1      C0568   
 BV BND1      C0569   
 BV BND1      C0570   
 BV BND1      C0571   
 BV BND1      C0572   
 BV BND1      C0573   
 BV BND1      C0574   
 BV BND1      C0575   
 BV BND1      C0576   
 BV BND1      C0577   
 BV BND1      C0578   
 BV BND1      C0579   
 BV BND1      C0580   
 BV BND1      C0581   
 BV BND1      C0582   
 BV BND1      C0583   
 BV BND1      C0584   
 BV BND1      C0585   
 BV BND1      C0586   
 BV BND1      C0587   
 BV BND1      C0588   
 BV BND1      C0589   
 BV BND1      C0590   
 BV BND1      C0591   
 BV BND1      C0592   
 BV BND1      C0593   
 BV BND1      C0594   
 BV BND1      C0595   
 BV BND1      C0596   
 BV BND1      C0597   
 BV BND1      C0598   
 BV BND1      C0599   
 BV BND1      C0600   
 BV BND1      C0601   
 BV BND1      C0602   
 BV BND1      C0603   
 BV BND1      C0604   
 BV BND1      C0605   
 BV BND1      C0606   
 BV BND1      C0607   
 BV BND1      C0608   
 BV BND1      C0609   
 BV BND1      C0610   
 BV BND1      C0611   
 BV BND1      C0612   
 BV BND1      C0613   
 BV BND1      C0614   
 BV BND1      C0615   
 BV BND1      C0616   
 BV BND1      C0617   
 BV BND1      C0618   
 BV BND1      C0619   
 BV BND1      C0620   
 BV BND1      C0621   
 BV BND1      C0622   
 BV BND1      C0623   
 BV BND1      C0624   
 BV BND1      C0625   
 BV BND1      C0626   
 BV BND1      C0627   
 BV BND1      C0628   
 BV BND1      C0629   
 BV BND1      C0630   
 BV BND1      C0631   
 BV BND1      C0632   
 BV BND1      C0633   
 BV BND1      C0634   
 BV BND1      C0635   
 BV BND1      C0636   
 BV BND1      C0637   
 BV BND1      C0638   
 BV BND1      C0639   
 BV BND1      C0640   
 BV BND1      C0641   
 BV BND1      C0642   
 BV BND1      C0643   
 BV BND1      C0644   
 BV BND1      C0645   
 BV BND1      C0646   
 BV BND1      C0647   
 BV BND1      C0648   
 BV BND1      C0649   
 BV BND1      C0650   
 BV BND1      C0651   
 BV BND1      C0652   
 BV BND1      C0653   
 BV BND1      C0654   
 BV BND1      C0655   
 BV BND1      C0656   
 BV BND1      C0657   
 BV BND1      C0658   
 BV BND1      C0659   
 BV BND1      C0660   
 BV BND1      C0661   
ENDATA
