NAME opt1217_pre
ROWS
 N  OBJ
 L  c1      
 L  c2      
 L  c3      
 L  c4      
 L  c5      
 L  c6      
 L  c7      
 L  c8      
 L  c9      
 L  c10     
 L  c11     
 L  c12     
 L  c13     
 L  c14     
 L  c15     
 L  c16     
 E  c17     
 E  c18     
 E  c19     
 E  c20     
 E  c21     
 E  c22     
 E  c23     
 E  c24     
 E  c25     
 E  c26     
 E  c27     
 E  c28     
 E  c29     
 E  c30     
 E  c31     
 E  c32     
 E  c33     
 E  c34     
 E  c35     
 E  c36     
 E  c37     
 E  c38     
 E  c39     
 E  c40     
 E  c41     
 E  c42     
 E  c43     
 E  c44     
 E  c45     
 E  c46     
 E  c47     
 E  c48     
 E  c49     
 E  c50     
 E  c51     
 E  c52     
 E  c53     
 E  c54     
 E  c55     
 E  c56     
 E  c57     
 E  c58     
 E  c59     
 E  c60     
 E  c61     
 E  c62     
 E  c63     
 E  c64     
COLUMNS
    x1        OBJ       -1
    x1        c1        1
    x1        c2        1
    x1        c3        1
    x1        c4        1
    x1        c5        1
    x1        c6        1
    x1        c7        1
    x1        c8        1
    x1        c9        1
    x1        c10       1
    x1        c11       1
    x1        c12       1
    x1        c13       1
    x1        c14       1
    x1        c15       1
    x1        c16       1
    MARKER    'MARKER'                 'INTORG'
    x2        c1        -4
    x2        c17       1
    x3        c1        -4
    x3        c18       1
    x4        c1        -4
    x4        c19       1
    x5        c1        -4
    x5        c20       1
    x6        c1        -4
    x6        c21       1
    x7        c1        -4
    x7        c22       1
    x8        c1        -4
    x8        c23       1
    x9        c1        -2
    x9        c24       1
    x10       c1        -2
    x10       c25       1
    x11       c1        -2
    x11       c26       1
    x12       c1        -2
    x12       c27       1
    x13       c1        -2
    x13       c28       1
    x14       c1        -2
    x14       c29       1
    x15       c1        -2
    x15       c30       1
    x16       c1        -2
    x16       c31       1
    x17       c1        -1
    x17       c32       1
    x18       c1        -1
    x18       c34       1
    x19       c1        -2
    x19       c35       1
    x20       c1        -2
    x20       c36       1
    x21       c1        -2
    x21       c37       1
    x22       c1        -2
    x22       c38       1
    x23       c1        -2
    x23       c39       1
    x24       c1        -2
    x24       c40       1
    x25       c1        -4
    x25       c41       1
    x26       c1        -4
    x26       c42       1
    x27       c1        -4
    x27       c43       1
    x28       c1        -4
    x28       c44       1
    x29       c1        -4
    x29       c45       1
    x30       c1        -2
    x30       c46       1
    x31       c1        -2
    x31       c47       1
    x32       c1        -2
    x32       c48       1
    x33       c1        -4
    x33       c49       1
    x34       c1        -4
    x34       c50       1
    x35       c1        -6
    x35       c51       1
    x36       c1        -6
    x36       c52       1
    x37       c1        -6
    x37       c53       1
    x38       c1        -6
    x38       c54       1
    x39       c1        -8
    x39       c55       1
    x40       c1        -6
    x40       c56       1
    x41       c1        -6
    x41       c57       1
    x42       c1        -6
    x42       c58       1
    x43       c1        -6
    x43       c59       1
    x44       c1        -4
    x44       c60       1
    x45       c1        -4
    x45       c61       1
    x46       c1        -4
    x46       c62       1
    x47       c1        -4
    x47       c63       1
    x48       c1        -4
    x48       c64       1
    x49       c2        -2
    x49       c17       1
    x50       c2        -2
    x50       c18       1
    x51       c2        -2
    x51       c19       1
    x52       c2        -4
    x52       c20       1
    x53       c2        -4
    x53       c21       1
    x54       c2        -4
    x54       c22       1
    x55       c2        -4
    x55       c23       1
    x56       c2        -4
    x56       c24       1
    x57       c2        -2
    x57       c25       1
    x58       c2        -4
    x58       c26       1
    x59       c2        -4
    x59       c27       1
    x60       c2        -4
    x60       c28       1
    x61       c2        -2
    x61       c29       1
    x62       c2        -2
    x62       c30       1
    x63       c2        -4
    x63       c31       1
    x64       c2        -6
    x64       c32       1
    x65       c2        -6
    x65       c33       1
    x66       c2        -4
    x66       c34       1
    x67       c2        -4
    x67       c35       1
    x68       c2        -4
    x68       c36       1
    x69       c2        -4
    x69       c37       1
    x70       c2        -4
    x70       c38       1
    x71       c2        -2
    x71       c39       1
    x72       c2        -1
    x72       c40       1
    x73       c2        -2
    x73       c41       1
    x74       c2        -4
    x74       c42       1
    x75       c2        -2
    x75       c43       1
    x76       c2        -2
    x76       c44       1
    x77       c2        -4
    x77       c45       1
    x78       c2        -4
    x78       c46       1
    x79       c2        -4
    x79       c47       1
    x80       c2        -2
    x80       c48       1
    x81       c2        -2
    x81       c49       1
    x82       c2        -4
    x82       c50       1
    x83       c2        -4
    x83       c51       1
    x84       c2        -4
    x84       c52       1
    x85       c2        -4
    x85       c53       1
    x86       c2        -4
    x86       c54       1
    x87       c2        -4
    x87       c55       1
    x88       c2        -4
    x88       c56       1
    x89       c2        -4
    x89       c57       1
    x90       c2        -4
    x90       c58       1
    x91       c2        -4
    x91       c59       1
    x92       c2        -2
    x92       c60       1
    x93       c2        -2
    x93       c61       1
    x94       c2        -4
    x94       c62       1
    x95       c2        -4
    x95       c63       1
    x96       c2        -4
    x96       c64       1
    x97       c3        -2
    x97       c17       1
    x98       c3        -4
    x98       c18       1
    x99       c3        -4
    x99       c19       1
    x100      c3        -4
    x100      c20       1
    x101      c3        -6
    x101      c21       1
    x102      c3        -6
    x102      c22       1
    x103      c3        -6
    x103      c23       1
    x104      c3        -6
    x104      c24       1
    x105      c3        -6
    x105      c25       1
    x106      c3        -6
    x106      c26       1
    x107      c3        -6
    x107      c27       1
    x108      c3        -4
    x108      c28       1
    x109      c3        -4
    x109      c29       1
    x110      c3        -4
    x110      c30       1
    x111      c3        -4
    x111      c31       1
    x112      c3        -4
    x112      c32       1
    x113      c3        -4
    x113      c33       1
    x114      c3        -4
    x114      c34       1
    x115      c3        -4
    x115      c35       1
    x116      c3        -2
    x116      c36       1
    x117      c3        -2
    x117      c37       1
    x118      c3        -1
    x118      c38       1
    x119      c3        -1
    x119      c40       1
    x120      c3        -2
    x120      c41       1
    x121      c3        -4
    x121      c42       1
    x122      c3        -4
    x122      c43       1
    x123      c3        -6
    x123      c44       1
    x124      c3        -6
    x124      c45       1
    x125      c3        -6
    x125      c46       1
    x126      c3        -4
    x126      c47       1
    x127      c3        -4
    x127      c48       1
    x128      c3        -2
    x128      c49       1
    x129      c3        -2
    x129      c50       1
    x130      c3        -2
    x130      c51       1
    x131      c3        -4
    x131      c52       1
    x132      c3        -4
    x132      c53       1
    x133      c3        -2
    x133      c54       1
    x134      c3        -2
    x134      c55       1
    x135      c3        -4
    x135      c56       1
    x136      c3        -4
    x136      c57       1
    x137      c3        -4
    x137      c58       1
    x138      c3        -4
    x138      c59       1
    x139      c3        -1
    x139      c60       1
    x140      c3        -2
    x140      c61       1
    x141      c3        -4
    x141      c62       1
    x142      c3        -6
    x142      c63       1
    x143      c3        -6
    x143      c64       1
    x144      c4        -4
    x144      c17       1
    x145      c4        -4
    x145      c18       1
    x146      c4        -4
    x146      c19       1
    x147      c4        -4
    x147      c20       1
    x148      c4        -4
    x148      c21       1
    x149      c4        -2
    x149      c22       1
    x150      c4        -1
    x150      c23       1
    x151      c4        -2
    x151      c24       1
    x152      c4        -4
    x152      c25       1
    x153      c4        -4
    x153      c26       1
    x154      c4        -4
    x154      c27       1
    x155      c4        -4
    x155      c28       1
    x156      c4        -4
    x156      c29       1
    x157      c4        -6
    x157      c30       1
    x158      c4        -6
    x158      c31       1
    x159      c4        -6
    x159      c32       1
    x160      c4        -6
    x160      c33       1
    x161      c4        -6
    x161      c34       1
    x162      c4        -6
    x162      c35       1
    x163      c4        -6
    x163      c36       1
    x164      c4        -6
    x164      c37       1
    x165      c4        -6
    x165      c38       1
    x166      c4        -4
    x166      c39       1
    x167      c4        -4
    x167      c40       1
    x168      c4        -4
    x168      c41       1
    x169      c4        -4
    x169      c42       1
    x170      c4        -6
    x170      c43       1
    x171      c4        -4
    x171      c44       1
    x172      c4        -4
    x172      c45       1
    x173      c4        -4
    x173      c46       1
    x174      c4        -2
    x174      c47       1
    x175      c4        -2
    x175      c48       1
    x176      c4        -4
    x176      c49       1
    x177      c4        -6
    x177      c50       1
    x178      c4        -6
    x178      c51       1
    x179      c4        -6
    x179      c52       1
    x180      c4        -6
    x180      c53       1
    x181      c4        -6
    x181      c54       1
    x182      c4        -4
    x182      c55       1
    x183      c4        -4
    x183      c56       1
    x184      c4        -6
    x184      c57       1
    x185      c4        -6
    x185      c58       1
    x186      c4        -6
    x186      c59       1
    x187      c4        -6
    x187      c60       1
    x188      c4        -4
    x188      c61       1
    x189      c4        -2
    x189      c62       1
    x190      c4        -2
    x190      c63       1
    x191      c4        -2
    x191      c64       1
    x192      c5        -6
    x192      c17       1
    x193      c5        -6
    x193      c18       1
    x194      c5        -6
    x194      c19       1
    x195      c5        -6
    x195      c20       1
    x196      c5        -4
    x196      c21       1
    x197      c5        -4
    x197      c22       1
    x198      c5        -4
    x198      c23       1
    x199      c5        -4
    x199      c24       1
    x200      c5        -4
    x200      c25       1
    x201      c5        -4
    x201      c26       1
    x202      c5        -6
    x202      c27       1
    x203      c5        -6
    x203      c28       1
    x204      c5        -6
    x204      c29       1
    x205      c5        -6
    x205      c30       1
    x206      c5        -6
    x206      c31       1
    x207      c5        -6
    x207      c32       1
    x208      c5        -6
    x208      c33       1
    x209      c5        -6
    x209      c34       1
    x210      c5        -6
    x210      c35       1
    x211      c5        -4
    x211      c36       1
    x212      c5        -4
    x212      c37       1
    x213      c5        -4
    x213      c38       1
    x214      c5        -2
    x214      c39       1
    x215      c5        -2
    x215      c40       1
    x216      c5        -2
    x216      c41       1
    x217      c5        -1
    x217      c42       1
    x218      c5        -1
    x218      c43       1
    x219      c5        -2
    x219      c44       1
    x220      c5        -2
    x220      c45       1
    x221      c5        -2
    x221      c46       1
    x222      c5        -2
    x222      c47       1
    x223      c5        -2
    x223      c48       1
    x224      c5        -2
    x224      c49       1
    x225      c5        -2
    x225      c50       1
    x226      c5        -2
    x226      c51       1
    x227      c5        -2
    x227      c52       1
    x228      c5        -2
    x228      c53       1
    x229      c5        -2
    x229      c54       1
    x230      c5        -2
    x230      c55       1
    x231      c5        -2
    x231      c56       1
    x232      c5        -2
    x232      c57       1
    x233      c5        -2
    x233      c58       1
    x234      c5        -2
    x234      c59       1
    x235      c5        -2
    x235      c60       1
    x236      c5        -2
    x236      c61       1
    x237      c5        -2
    x237      c62       1
    x238      c5        -2
    x238      c63       1
    x239      c5        -2
    x239      c64       1
    x240      c6        -2
    x240      c17       1
    x241      c6        -2
    x241      c18       1
    x242      c6        -2
    x242      c19       1
    x243      c6        -2
    x243      c20       1
    x244      c6        -2
    x244      c21       1
    x245      c6        -1
    x245      c22       1
    x246      c6        -1
    x246      c23       1
    x247      c6        -1
    x247      c24       1
    x248      c6        -1
    x248      c25       1
    x249      c6        -1
    x249      c30       1
    x250      c6        -1
    x250      c31       1
    x251      c6        -1
    x251      c32       1
    x252      c6        -2
    x252      c33       1
    x253      c6        -2
    x253      c34       1
    x254      c6        -2
    x254      c35       1
    x255      c6        -2
    x255      c36       1
    x256      c6        -2
    x256      c37       1
    x257      c6        -2
    x257      c38       1
    x258      c6        -2
    x258      c39       1
    x259      c6        -2
    x259      c40       1
    x260      c6        -1
    x260      c41       1
    x261      c6        -1
    x261      c42       1
    x262      c6        -2
    x262      c43       1
    x263      c6        -2
    x263      c44       1
    x264      c6        -4
    x264      c45       1
    x265      c6        -4
    x265      c46       1
    x266      c6        -4
    x266      c47       1
    x267      c6        -4
    x267      c48       1
    x268      c6        -4
    x268      c49       1
    x269      c6        -4
    x269      c50       1
    x270      c6        -4
    x270      c51       1
    x271      c6        -4
    x271      c52       1
    x272      c6        -4
    x272      c53       1
    x273      c6        -4
    x273      c54       1
    x274      c6        -2
    x274      c55       1
    x275      c6        -2
    x275      c56       1
    x276      c6        -2
    x276      c57       1
    x277      c6        -4
    x277      c58       1
    x278      c6        -4
    x278      c59       1
    x279      c6        -4
    x279      c60       1
    x280      c6        -6
    x280      c61       1
    x281      c6        -6
    x281      c62       1
    x282      c6        -6
    x282      c63       1
    x283      c6        -6
    x283      c64       1
    x284      c7        -4
    x284      c17       1
    x285      c7        -4
    x285      c18       1
    x286      c7        -4
    x286      c19       1
    x287      c7        -4
    x287      c20       1
    x288      c7        -2
    x288      c21       1
    x289      c7        -1
    x289      c22       1
    x290      c7        -2
    x290      c23       1
    x291      c7        -4
    x291      c24       1
    x292      c7        -4
    x292      c25       1
    x293      c7        -6
    x293      c26       1
    x294      c7        -4
    x294      c27       1
    x295      c7        -4
    x295      c28       1
    x296      c7        -4
    x296      c29       1
    x297      c7        -4
    x297      c30       1
    x298      c7        -4
    x298      c31       1
    x299      c7        -6
    x299      c32       1
    x300      c7        -6
    x300      c33       1
    x301      c7        -6
    x301      c34       1
    x302      c7        -6
    x302      c35       1
    x303      c7        -6
    x303      c36       1
    x304      c7        -6
    x304      c37       1
    x305      c7        -4
    x305      c38       1
    x306      c7        -4
    x306      c39       1
    x307      c7        -4
    x307      c40       1
    x308      c7        -4
    x308      c41       1
    x309      c7        -4
    x309      c42       1
    x310      c7        -4
    x310      c43       1
    x311      c7        -4
    x311      c44       1
    x312      c7        -4
    x312      c45       1
    x313      c7        -4
    x313      c46       1
    x314      c7        -6
    x314      c47       1
    x315      c7        -6
    x315      c48       1
    x316      c7        -6
    x316      c49       1
    x317      c7        -6
    x317      c50       1
    x318      c7        -6
    x318      c51       1
    x319      c7        -6
    x319      c52       1
    x320      c7        -6
    x320      c53       1
    x321      c7        -6
    x321      c54       1
    x322      c7        -4
    x322      c55       1
    x323      c7        -4
    x323      c56       1
    x324      c7        -4
    x324      c57       1
    x325      c7        -4
    x325      c58       1
    x326      c7        -4
    x326      c59       1
    x327      c7        -4
    x327      c60       1
    x328      c7        -4
    x328      c61       1
    x329      c7        -4
    x329      c62       1
    x330      c7        -4
    x330      c63       1
    x331      c7        -4
    x331      c64       1
    x332      c8        -4
    x332      c17       1
    x333      c8        -4
    x333      c18       1
    x334      c8        -4
    x334      c19       1
    x335      c8        -4
    x335      c20       1
    x336      c8        -2
    x336      c21       1
    x337      c8        -4
    x337      c22       1
    x338      c8        -4
    x338      c23       1
    x339      c8        -6
    x339      c24       1
    x340      c8        -6
    x340      c25       1
    x341      c8        -6
    x341      c26       1
    x342      c8        -6
    x342      c27       1
    x343      c8        -8
    x343      c28       1
    x344      c8        -8
    x344      c29       1
    x345      c8        -8
    x345      c30       1
    x346      c8        -8
    x346      c31       1
    x347      c8        -8
    x347      c32       1
    x348      c8        -6
    x348      c33       1
    x349      c8        -6
    x349      c34       1
    x350      c8        -6
    x350      c35       1
    x351      c8        -6
    x351      c36       1
    x352      c8        -4
    x352      c37       1
    x353      c8        -4
    x353      c38       1
    x354      c8        -2
    x354      c39       1
    x355      c8        -2
    x355      c40       1
    x356      c8        -2
    x356      c41       1
    x357      c8        -2
    x357      c42       1
    x358      c8        -4
    x358      c43       1
    x359      c8        -4
    x359      c44       1
    x360      c8        -4
    x360      c45       1
    x361      c8        -4
    x361      c46       1
    x362      c8        -4
    x362      c47       1
    x363      c8        -4
    x363      c48       1
    x364      c8        -4
    x364      c49       1
    x365      c8        -6
    x365      c50       1
    x366      c8        -6
    x366      c51       1
    x367      c8        -6
    x367      c52       1
    x368      c8        -6
    x368      c53       1
    x369      c8        -6
    x369      c54       1
    x370      c8        -6
    x370      c55       1
    x371      c8        -6
    x371      c56       1
    x372      c8        -6
    x372      c57       1
    x373      c8        -6
    x373      c58       1
    x374      c8        -6
    x374      c59       1
    x375      c8        -4
    x375      c60       1
    x376      c8        -4
    x376      c61       1
    x377      c8        -2
    x377      c62       1
    x378      c8        -1
    x378      c63       1
    x379      c8        -1
    x379      c64       1
    x380      c9        -4
    x380      c17       1
    x381      c9        -4
    x381      c18       1
    x382      c9        -6
    x382      c19       1
    x383      c9        -6
    x383      c20       1
    x384      c9        -6
    x384      c21       1
    x385      c9        -6
    x385      c22       1
    x386      c9        -4
    x386      c23       1
    x387      c9        -4
    x387      c24       1
    x388      c9        -2
    x388      c25       1
    x389      c9        -2
    x389      c26       1
    x390      c9        -2
    x390      c27       1
    x391      c9        -2
    x391      c28       1
    x392      c9        -2
    x392      c29       1
    x393      c9        -2
    x393      c30       1
    x394      c9        -4
    x394      c31       1
    x395      c9        -4
    x395      c32       1
    x396      c9        -4
    x396      c33       1
    x397      c9        -4
    x397      c34       1
    x398      c9        -4
    x398      c35       1
    x399      c9        -4
    x399      c36       1
    x400      c9        -4
    x400      c37       1
    x401      c9        -6
    x401      c38       1
    x402      c9        -6
    x402      c39       1
    x403      c9        -6
    x403      c40       1
    x404      c9        -6
    x404      c41       1
    x405      c9        -4
    x405      c42       1
    x406      c9        -4
    x406      c43       1
    x407      c9        -2
    x407      c44       1
    x408      c9        -2
    x408      c45       1
    x409      c9        -4
    x409      c46       1
    x410      c9        -4
    x410      c47       1
    x411      c9        -4
    x411      c48       1
    x412      c9        -4
    x412      c49       1
    x413      c9        -4
    x413      c50       1
    x414      c9        -4
    x414      c51       1
    x415      c9        -4
    x415      c52       1
    x416      c9        -4
    x416      c53       1
    x417      c9        -6
    x417      c54       1
    x418      c9        -6
    x418      c55       1
    x419      c9        -6
    x419      c56       1
    x420      c9        -6
    x420      c57       1
    x421      c9        -6
    x421      c58       1
    x422      c9        -6
    x422      c59       1
    x423      c9        -4
    x423      c60       1
    x424      c9        -4
    x424      c61       1
    x425      c9        -4
    x425      c62       1
    x426      c9        -4
    x426      c63       1
    x427      c9        -4
    x427      c64       1
    x428      c10       -1
    x428      c17       1
    x429      c10       -2
    x429      c18       1
    x430      c10       -2
    x430      c19       1
    x431      c10       -4
    x431      c20       1
    x432      c10       -4
    x432      c21       1
    x433      c10       -4
    x433      c22       1
    x434      c10       -4
    x434      c23       1
    x435      c10       -4
    x435      c24       1
    x436      c10       -4
    x436      c25       1
    x437      c10       -4
    x437      c26       1
    x438      c10       -4
    x438      c27       1
    x439      c10       -4
    x439      c28       1
    x440      c10       -2
    x440      c29       1
    x441      c10       -2
    x441      c30       1
    x442      c10       -2
    x442      c31       1
    x443      c10       -2
    x443      c32       1
    x444      c10       -4
    x444      c33       1
    x445      c10       -4
    x445      c34       1
    x446      c10       -4
    x446      c35       1
    x447      c10       -4
    x447      c36       1
    x448      c10       -4
    x448      c37       1
    x449      c10       -4
    x449      c38       1
    x450      c10       -4
    x450      c39       1
    x451      c10       -4
    x451      c40       1
    x452      c10       -4
    x452      c41       1
    x453      c10       -2
    x453      c42       1
    x454      c10       -1
    x454      c43       1
    x455      c10       -2
    x455      c45       1
    x456      c10       -4
    x456      c46       1
    x457      c10       -4
    x457      c47       1
    x458      c10       -6
    x458      c48       1
    x459      c10       -6
    x459      c49       1
    x460      c10       -6
    x460      c50       1
    x461      c10       -6
    x461      c51       1
    x462      c10       -8
    x462      c52       1
    x463      c10       -8
    x463      c53       1
    x464      c10       -8
    x464      c54       1
    x465      c10       -8
    x465      c55       1
    x466      c10       -8
    x466      c56       1
    x467      c10       -8
    x467      c57       1
    x468      c10       -8
    x468      c58       1
    x469      c10       -6
    x469      c59       1
    x470      c10       -6
    x470      c60       1
    x471      c10       -6
    x471      c61       1
    x472      c10       -6
    x472      c62       1
    x473      c10       -6
    x473      c63       1
    x474      c10       -4
    x474      c64       1
    x475      c11       -4
    x475      c18       1
    x476      c11       -6
    x476      c19       1
    x477      c11       -6
    x477      c20       1
    x478      c11       -4
    x478      c21       1
    x479      c11       -2
    x479      c22       1
    x480      c11       -4
    x480      c23       1
    x481      c11       -4
    x481      c24       1
    x482      c11       -2
    x482      c25       1
    x483      c11       -2
    x483      c26       1
    x484      c11       -4
    x484      c27       1
    x485      c11       -4
    x485      c28       1
    x486      c11       -6
    x486      c29       1
    x487      c11       -6
    x487      c30       1
    x488      c11       -6
    x488      c31       1
    x489      c11       -6
    x489      c32       1
    x490      c11       -6
    x490      c33       1
    x491      c11       -6
    x491      c34       1
    x492      c11       -6
    x492      c35       1
    x493      c11       -4
    x493      c36       1
    x494      c11       -2
    x494      c37       1
    x495      c11       -2
    x495      c38       1
    x496      c11       -4
    x496      c39       1
    x497      c11       -4
    x497      c40       1
    x498      c11       -2
    x498      c41       1
    x499      c11       -2
    x499      c42       1
    x500      c11       -4
    x500      c43       1
    x501      c11       -4
    x501      c44       1
    x502      c11       -4
    x502      c45       1
    x503      c11       -4
    x503      c46       1
    x504      c11       -2
    x504      c47       1
    x505      c11       -2
    x505      c48       1
    x506      c11       -4
    x506      c49       1
    x507      c11       -6
    x507      c50       1
    x508      c11       -4
    x508      c51       1
    x509      c11       -4
    x509      c52       1
    x510      c11       -6
    x510      c53       1
    x511      c11       -6
    x511      c54       1
    x512      c11       -6
    x512      c55       1
    x513      c11       -6
    x513      c56       1
    x514      c11       -4
    x514      c57       1
    x515      c11       -6
    x515      c58       1
    x516      c11       -6
    x516      c59       1
    x517      c11       -6
    x517      c60       1
    x518      c11       -6
    x518      c61       1
    x519      c11       -8
    x519      c62       1
    x520      c11       -8
    x520      c63       1
    x521      c11       -8
    x521      c64       1
    x522      c12       -6
    x522      c17       1
    x523      c12       -6
    x523      c18       1
    x524      c12       -8
    x524      c19       1
    x525      c12       -8
    x525      c20       1
    x526      c12       -8
    x526      c21       1
    x527      c12       -8
    x527      c22       1
    x528      c12       -8
    x528      c23       1
    x529      c12       -6
    x529      c24       1
    x530      c12       -6
    x530      c25       1
    x531      c12       -6
    x531      c26       1
    x532      c12       -4
    x532      c27       1
    x533      c12       -4
    x533      c28       1
    x534      c12       -2
    x534      c29       1
    x535      c12       -2
    x535      c30       1
    x536      c12       -2
    x536      c31       1
    x537      c12       -2
    x537      c32       1
    x538      c12       -2
    x538      c33       1
    x539      c12       -2
    x539      c34       1
    x540      c12       -2
    x540      c35       1
    x541      c12       -2
    x541      c36       1
    x542      c12       -4
    x542      c37       1
    x543      c12       -4
    x543      c38       1
    x544      c12       -4
    x544      c39       1
    x545      c12       -6
    x545      c40       1
    x546      c12       -6
    x546      c41       1
    x547      c12       -6
    x547      c42       1
    x548      c12       -6
    x548      c43       1
    x549      c12       -6
    x549      c44       1
    x550      c12       -6
    x550      c45       1
    x551      c12       -6
    x551      c46       1
    x552      c12       -8
    x552      c47       1
    x553      c12       -8
    x553      c48       1
    x554      c12       -8
    x554      c49       1
    x555      c12       -6
    x555      c50       1
    x556      c12       -6
    x556      c51       1
    x557      c12       -6
    x557      c52       1
    x558      c12       -6
    x558      c53       1
    x559      c12       -6
    x559      c54       1
    x560      c12       -6
    x560      c55       1
    x561      c12       -6
    x561      c56       1
    x562      c12       -8
    x562      c57       1
    x563      c12       -8
    x563      c58       1
    x564      c12       -6
    x564      c59       1
    x565      c12       -6
    x565      c60       1
    x566      c12       -6
    x566      c61       1
    x567      c12       -6
    x567      c62       1
    x568      c12       -4
    x568      c63       1
    x569      c12       -6
    x569      c64       1
    x570      c13       -6
    x570      c17       1
    x571      c13       -6
    x571      c18       1
    x572      c13       -4
    x572      c19       1
    x573      c13       -4
    x573      c20       1
    x574      c13       -6
    x574      c21       1
    x575      c13       -6
    x575      c22       1
    x576      c13       -6
    x576      c23       1
    x577      c13       -6
    x577      c24       1
    x578      c13       -6
    x578      c25       1
    x579      c13       -6
    x579      c26       1
    x580      c13       -6
    x580      c27       1
    x581      c13       -6
    x581      c28       1
    x582      c13       -8
    x582      c29       1
    x583      c13       -8
    x583      c30       1
    x584      c13       -8
    x584      c31       1
    x585      c13       -6
    x585      c32       1
    x586      c13       -6
    x586      c33       1
    x587      c13       -6
    x587      c34       1
    x588      c13       -4
    x588      c35       1
    x589      c13       -2
    x589      c36       1
    x590      c13       -4
    x590      c37       1
    x591      c13       -4
    x591      c38       1
    x592      c13       -4
    x592      c39       1
    x593      c13       -2
    x593      c40       1
    x594      c13       -1
    x594      c41       1
    x595      c13       -1
    x595      c42       1
    x596      c13       -4
    x596      c43       1
    x597      c13       -4
    x597      c44       1
    x598      c13       -4
    x598      c45       1
    x599      c13       -4
    x599      c46       1
    x600      c13       -4
    x600      c47       1
    x601      c13       -6
    x601      c48       1
    x602      c13       -6
    x602      c49       1
    x603      c13       -6
    x603      c50       1
    x604      c13       -6
    x604      c51       1
    x605      c13       -6
    x605      c52       1
    x606      c13       -6
    x606      c53       1
    x607      c13       -6
    x607      c54       1
    x608      c13       -4
    x608      c55       1
    x609      c13       -2
    x609      c56       1
    x610      c13       -2
    x610      c58       1
    x611      c13       -4
    x611      c59       1
    x612      c13       -4
    x612      c60       1
    x613      c13       -4
    x613      c61       1
    x614      c13       -4
    x614      c62       1
    x615      c13       -4
    x615      c63       1
    x616      c13       -4
    x616      c64       1
    x617      c14       -8
    x617      c17       1
    x618      c14       -8
    x618      c18       1
    x619      c14       -8
    x619      c19       1
    x620      c14       -6
    x620      c20       1
    x621      c14       -6
    x621      c21       1
    x622      c14       -6
    x622      c22       1
    x623      c14       -8
    x623      c23       1
    x624      c14       -6
    x624      c24       1
    x625      c14       -6
    x625      c25       1
    x626      c14       -4
    x626      c26       1
    x627      c14       -4
    x627      c27       1
    x628      c14       -4
    x628      c28       1
    x629      c14       -4
    x629      c29       1
    x630      c14       -2
    x630      c30       1
    x631      c14       -6
    x631      c31       1
    x632      c14       -6
    x632      c32       1
    x633      c14       -8
    x633      c33       1
    x634      c14       -8
    x634      c34       1
    x635      c14       -8
    x635      c35       1
    x636      c14       -6
    x636      c36       1
    x637      c14       -6
    x637      c37       1
    x638      c14       -6
    x638      c38       1
    x639      c14       -6
    x639      c39       1
    x640      c14       -6
    x640      c40       1
    x641      c14       -6
    x641      c41       1
    x642      c14       -8
    x642      c42       1
    x643      c14       -8
    x643      c43       1
    x644      c14       -8
    x644      c44       1
    x645      c14       -8
    x645      c45       1
    x646      c14       -8
    x646      c46       1
    x647      c14       -8
    x647      c47       1
    x648      c14       -6
    x648      c48       1
    x649      c14       -6
    x649      c49       1
    x650      c14       -6
    x650      c50       1
    x651      c14       -6
    x651      c51       1
    x652      c14       -2
    x652      c52       1
    x653      c14       -4
    x653      c53       1
    x654      c14       -4
    x654      c54       1
    x655      c14       -4
    x655      c55       1
    x656      c14       -2
    x656      c56       1
    x657      c14       -4
    x657      c57       1
    x658      c14       -6
    x658      c58       1
    x659      c14       -8
    x659      c59       1
    x660      c14       -6
    x660      c60       1
    x661      c14       -6
    x661      c61       1
    x662      c14       -6
    x662      c62       1
    x663      c14       -6
    x663      c63       1
    x664      c14       -6
    x664      c64       1
    x665      c15       -8
    x665      c17       1
    x666      c15       -8
    x666      c18       1
    x667      c15       -8
    x667      c19       1
    x668      c15       -8
    x668      c20       1
    x669      c15       -8
    x669      c21       1
    x670      c15       -8
    x670      c22       1
    x671      c15       -8
    x671      c23       1
    x672      c15       -8
    x672      c24       1
    x673      c15       -8
    x673      c25       1
    x674      c15       -8
    x674      c26       1
    x675      c15       -8
    x675      c27       1
    x676      c15       -8
    x676      c28       1
    x677      c15       -8
    x677      c29       1
    x678      c15       -6
    x678      c30       1
    x679      c15       -6
    x679      c31       1
    x680      c15       -6
    x680      c32       1
    x681      c15       -6
    x681      c33       1
    x682      c15       -8
    x682      c34       1
    x683      c15       -8
    x683      c35       1
    x684      c15       -6
    x684      c36       1
    x685      c15       -6
    x685      c37       1
    x686      c15       -4
    x686      c38       1
    x687      c15       -2
    x687      c40       1
    x688      c15       -4
    x688      c41       1
    x689      c15       -4
    x689      c42       1
    x690      c15       -2
    x690      c43       1
    x691      c15       -2
    x691      c44       1
    x692      c15       -4
    x692      c45       1
    x693      c15       -4
    x693      c46       1
    x694      c15       -4
    x694      c47       1
    x695      c15       -4
    x695      c48       1
    x696      c15       -2
    x696      c49       1
    x697      c15       -2
    x697      c50       1
    x698      c15       -4
    x698      c51       1
    x699      c15       -6
    x699      c52       1
    x700      c15       -6
    x700      c53       1
    x701      c15       -8
    x701      c54       1
    x702      c15       -6
    x702      c55       1
    x703      c15       -6
    x703      c56       1
    x704      c15       -4
    x704      c57       1
    x705      c15       -2
    x705      c58       1
    x706      c15       -2
    x706      c59       1
    x707      c15       -4
    x707      c60       1
    x708      c15       -6
    x708      c61       1
    x709      c15       -6
    x709      c62       1
    x710      c15       -6
    x710      c63       1
    x711      c15       -6
    x711      c64       1
    x712      c16       -8
    x712      c17       1
    x713      c16       -8
    x713      c18       1
    x714      c16       -8
    x714      c19       1
    x715      c16       -8
    x715      c20       1
    x716      c16       -6
    x716      c21       1
    x717      c16       -4
    x717      c22       1
    x718      c16       -6
    x718      c23       1
    x719      c16       -8
    x719      c24       1
    x720      c16       -8
    x720      c25       1
    x721      c16       -8
    x721      c26       1
    x722      c16       -8
    x722      c27       1
    x723      c16       -8
    x723      c28       1
    x724      c16       -8
    x724      c29       1
    x725      c16       -8
    x725      c30       1
    x726      c16       -8
    x726      c31       1
    x727      c16       -8
    x727      c32       1
    x728      c16       -8
    x728      c33       1
    x729      c16       -8
    x729      c34       1
    x730      c16       -8
    x730      c35       1
    x731      c16       -8
    x731      c36       1
    x732      c16       -6
    x732      c37       1
    x733      c16       -6
    x733      c38       1
    x734      c16       -4
    x734      c39       1
    x735      c16       -4
    x735      c40       1
    x736      c16       -6
    x736      c41       1
    x737      c16       -6
    x737      c42       1
    x738      c16       -6
    x738      c43       1
    x739      c16       -6
    x739      c44       1
    x740      c16       -6
    x740      c45       1
    x741      c16       -8
    x741      c46       1
    x742      c16       -8
    x742      c47       1
    x743      c16       -8
    x743      c48       1
    x744      c16       -8
    x744      c49       1
    x745      c16       -8
    x745      c50       1
    x746      c16       -8
    x746      c51       1
    x747      c16       -8
    x747      c52       1
    x748      c16       -6
    x748      c53       1
    x749      c16       -6
    x749      c54       1
    x750      c16       -2
    x750      c55       1
    x751      c16       -6
    x751      c56       1
    x752      c16       -8
    x752      c57       1
    x753      c16       -8
    x753      c58       1
    x754      c16       -8
    x754      c59       1
    x755      c16       -8
    x755      c60       1
    x756      c16       -8
    x756      c61       1
    x757      c16       -8
    x757      c62       1
    x758      c16       -6
    x758      c63       1
    x759      c16       -8
    x759      c64       1
    MARKER    'MARKER'                 'INTEND'
RHS
    RHS1      c17       1
    RHS1      c18       1
    RHS1      c19       1
    RHS1      c20       1
    RHS1      c21       1
    RHS1      c22       1
    RHS1      c23       1
    RHS1      c24       1
    RHS1      c25       1
    RHS1      c26       1
    RHS1      c27       1
    RHS1      c28       1
    RHS1      c29       1
    RHS1      c30       1
    RHS1      c31       1
    RHS1      c32       1
    RHS1      c33       1
    RHS1      c34       1
    RHS1      c35       1
    RHS1      c36       1
    RHS1      c37       1
    RHS1      c38       1
    RHS1      c39       1
    RHS1      c40       1
    RHS1      c41       1
    RHS1      c42       1
    RHS1      c43       1
    RHS1      c44       1
    RHS1      c45       1
    RHS1      c46       1
    RHS1      c47       1
    RHS1      c48       1
    RHS1      c49       1
    RHS1      c50       1
    RHS1      c51       1
    RHS1      c52       1
    RHS1      c53       1
    RHS1      c54       1
    RHS1      c55       1
    RHS1      c56       1
    RHS1      c57       1
    RHS1      c58       1
    RHS1      c59       1
    RHS1      c60       1
    RHS1      c61       1
    RHS1      c62       1
    RHS1      c63       1
    RHS1      c64       1
BOUNDS
 UP BND1      x1        121
 BV BND1      x2      
 BV BND1      x3      
 BV BND1      x4      
 BV BND1      x5      
 BV BND1      x6      
 BV BND1      x7      
 BV BND1      x8      
 BV BND1      x9      
 BV BND1      x10     
 BV BND1      x11     
 BV BND1      x12     
 BV BND1      x13     
 BV BND1      x14     
 BV BND1      x15     
 BV BND1      x16     
 BV BND1      x17     
 BV BND1      x18     
 BV BND1      x19     
 BV BND1      x20     
 BV BND1      x21     
 BV BND1      x22     
 BV BND1      x23     
 BV BND1      x24     
 BV BND1      x25     
 BV BND1      x26     
 BV BND1      x27     
 BV BND1      x28     
 BV BND1      x29     
 BV BND1      x30     
 BV BND1      x31     
 BV BND1      x32     
 BV BND1      x33     
 BV BND1      x34     
 BV BND1      x35     
 BV BND1      x36     
 BV BND1      x37     
 BV BND1      x38     
 BV BND1      x39     
 BV BND1      x40     
 BV BND1      x41     
 BV BND1      x42     
 BV BND1      x43     
 BV BND1      x44     
 BV BND1      x45     
 BV BND1      x46     
 BV BND1      x47     
 BV BND1      x48     
 BV BND1      x49     
 BV BND1      x50     
 BV BND1      x51     
 BV BND1      x52     
 BV BND1      x53     
 BV BND1      x54     
 BV BND1      x55     
 BV BND1      x56     
 BV BND1      x57     
 BV BND1      x58     
 BV BND1      x59     
 BV BND1      x60     
 BV BND1      x61     
 BV BND1      x62     
 BV BND1      x63     
 BV BND1      x64     
 BV BND1      x65     
 BV BND1      x66     
 BV BND1      x67     
 BV BND1      x68     
 BV BND1      x69     
 BV BND1      x70     
 BV BND1      x71     
 BV BND1      x72     
 BV BND1      x73     
 BV BND1      x74     
 BV BND1      x75     
 BV BND1      x76     
 BV BND1      x77     
 BV BND1      x78     
 BV BND1      x79     
 BV BND1      x80     
 BV BND1      x81     
 BV BND1      x82     
 BV BND1      x83     
 BV BND1      x84     
 BV BND1      x85     
 BV BND1      x86     
 BV BND1      x87     
 BV BND1      x88     
 BV BND1      x89     
 BV BND1      x90     
 BV BND1      x91     
 BV BND1      x92     
 BV BND1      x93     
 BV BND1      x94     
 BV BND1      x95     
 BV BND1      x96     
 BV BND1      x97     
 BV BND1      x98     
 BV BND1      x99     
 BV BND1      x100    
 BV BND1      x101    
 BV BND1      x102    
 BV BND1      x103    
 BV BND1      x104    
 BV BND1      x105    
 BV BND1      x106    
 BV BND1      x107    
 BV BND1      x108    
 BV BND1      x109    
 BV BND1      x110    
 BV BND1      x111    
 BV BND1      x112    
 BV BND1      x113    
 BV BND1      x114    
 BV BND1      x115    
 BV BND1      x116    
 BV BND1      x117    
 BV BND1      x118    
 BV BND1      x119    
 BV BND1      x120    
 BV BND1      x121    
 BV BND1      x122    
 BV BND1      x123    
 BV BND1      x124    
 BV BND1      x125    
 BV BND1      x126    
 BV BND1      x127    
 BV BND1      x128    
 BV BND1      x129    
 BV BND1      x130    
 BV BND1      x131    
 BV BND1      x132    
 BV BND1      x133    
 BV BND1      x134    
 BV BND1      x135    
 BV BND1      x136    
 BV BND1      x137    
 BV BND1      x138    
 BV BND1      x139    
 BV BND1      x140    
 BV BND1      x141    
 BV BND1      x142    
 BV BND1      x143    
 BV BND1      x144    
 BV BND1      x145    
 BV BND1      x146    
 BV BND1      x147    
 BV BND1      x148    
 BV BND1      x149    
 BV BND1      x150    
 BV BND1      x151    
 BV BND1      x152    
 BV BND1      x153    
 BV BND1      x154    
 BV BND1      x155    
 BV BND1      x156    
 BV BND1      x157    
 BV BND1      x158    
 BV BND1      x159    
 BV BND1      x160    
 BV BND1      x161    
 BV BND1      x162    
 BV BND1      x163    
 BV BND1      x164    
 BV BND1      x165    
 BV BND1      x166    
 BV BND1      x167    
 BV BND1      x168    
 BV BND1      x169    
 BV BND1      x170    
 BV BND1      x171    
 BV BND1      x172    
 BV BND1      x173    
 BV BND1      x174    
 BV BND1      x175    
 BV BND1      x176    
 BV BND1      x177    
 BV BND1      x178    
 BV BND1      x179    
 BV BND1      x180    
 BV BND1      x181    
 BV BND1      x182    
 BV BND1      x183    
 BV BND1      x184    
 BV BND1      x185    
 BV BND1      x186    
 BV BND1      x187    
 BV BND1      x188    
 BV BND1      x189    
 BV BND1      x190    
 BV BND1      x191    
 BV BND1      x192    
 BV BND1      x193    
 BV BND1      x194    
 BV BND1      x195    
 BV BND1      x196    
 BV BND1      x197    
 BV BND1      x198    
 BV BND1      x199    
 BV BND1      x200    
 BV BND1      x201    
 BV BND1      x202    
 BV BND1      x203    
 BV BND1      x204    
 BV BND1      x205    
 BV BND1      x206    
 BV BND1      x207    
 BV BND1      x208    
 BV BND1      x209    
 BV BND1      x210    
 BV BND1      x211    
 BV BND1      x212    
 BV BND1      x213    
 BV BND1      x214    
 BV BND1      x215    
 BV BND1      x216    
 BV BND1      x217    
 BV BND1      x218    
 BV BND1      x219    
 BV BND1      x220    
 BV BND1      x221    
 BV BND1      x222    
 BV BND1      x223    
 BV BND1      x224    
 BV BND1      x225    
 BV BND1      x226    
 BV BND1      x227    
 BV BND1      x228    
 BV BND1      x229    
 BV BND1      x230    
 BV BND1      x231    
 BV BND1      x232    
 BV BND1      x233    
 BV BND1      x234    
 BV BND1      x235    
 BV BND1      x236    
 BV BND1      x237    
 BV BND1      x238    
 BV BND1      x239    
 BV BND1      x240    
 BV BND1      x241    
 BV BND1      x242    
 BV BND1      x243    
 BV BND1      x244    
 BV BND1      x245    
 BV BND1      x246    
 BV BND1      x247    
 BV BND1      x248    
 BV BND1      x249    
 BV BND1      x250    
 BV BND1      x251    
 BV BND1      x252    
 BV BND1      x253    
 BV BND1      x254    
 BV BND1      x255    
 BV BND1      x256    
 BV BND1      x257    
 BV BND1      x258    
 BV BND1      x259    
 BV BND1      x260    
 BV BND1      x261    
 BV BND1      x262    
 BV BND1      x263    
 BV BND1      x264    
 BV BND1      x265    
 BV BND1      x266    
 BV BND1      x267    
 BV BND1      x268    
 BV BND1      x269    
 BV BND1      x270    
 BV BND1      x271    
 BV BND1      x272    
 BV BND1      x273    
 BV BND1      x274    
 BV BND1      x275    
 BV BND1      x276    
 BV BND1      x277    
 BV BND1      x278    
 BV BND1      x279    
 BV BND1      x280    
 BV BND1      x281    
 BV BND1      x282    
 BV BND1      x283    
 BV BND1      x284    
 BV BND1      x285    
 BV BND1      x286    
 BV BND1      x287    
 BV BND1      x288    
 BV BND1      x289    
 BV BND1      x290    
 BV BND1      x291    
 BV BND1      x292    
 BV BND1      x293    
 BV BND1      x294    
 BV BND1      x295    
 BV BND1      x296    
 BV BND1      x297    
 BV BND1      x298    
 BV BND1      x299    
 BV BND1      x300    
 BV BND1      x301    
 BV BND1      x302    
 BV BND1      x303    
 BV BND1      x304    
 BV BND1      x305    
 BV BND1      x306    
 BV BND1      x307    
 BV BND1      x308    
 BV BND1      x309    
 BV BND1      x310    
 BV BND1      x311    
 BV BND1      x312    
 BV BND1      x313    
 BV BND1      x314    
 BV BND1      x315    
 BV BND1      x316    
 BV BND1      x317    
 BV BND1      x318    
 BV BND1      x319    
 BV BND1      x320    
 BV BND1      x321    
 BV BND1      x322    
 BV BND1      x323    
 BV BND1      x324    
 BV BND1      x325    
 BV BND1      x326    
 BV BND1      x327    
 BV BND1      x328    
 BV BND1      x329    
 BV BND1      x330    
 BV BND1      x331    
 BV BND1      x332    
 BV BND1      x333    
 BV BND1      x334    
 BV BND1      x335    
 BV BND1      x336    
 BV BND1      x337    
 BV BND1      x338    
 BV BND1      x339    
 BV BND1      x340    
 BV BND1      x341    
 BV BND1      x342    
 BV BND1      x343    
 BV BND1      x344    
 BV BND1      x345    
 BV BND1      x346    
 BV BND1      x347    
 BV BND1      x348    
 BV BND1      x349    
 BV BND1      x350    
 BV BND1      x351    
 BV BND1      x352    
 BV BND1      x353    
 BV BND1      x354    
 BV BND1      x355    
 BV BND1      x356    
 BV BND1      x357    
 BV BND1      x358    
 BV BND1      x359    
 BV BND1      x360    
 BV BND1      x361    
 BV BND1      x362    
 BV BND1      x363    
 BV BND1      x364    
 BV BND1      x365    
 BV BND1      x366    
 BV BND1      x367    
 BV BND1      x368    
 BV BND1      x369    
 BV BND1      x370    
 BV BND1      x371    
 BV BND1      x372    
 BV BND1      x373    
 BV BND1      x374    
 BV BND1      x375    
 BV BND1      x376    
 BV BND1      x377    
 BV BND1      x378    
 BV BND1      x379    
 BV BND1      x380    
 BV BND1      x381    
 BV BND1      x382    
 BV BND1      x383    
 BV BND1      x384    
 BV BND1      x385    
 BV BND1      x386    
 BV BND1      x387    
 BV BND1      x388    
 BV BND1      x389    
 BV BND1      x390    
 BV BND1      x391    
 BV BND1      x392    
 BV BND1      x393    
 BV BND1      x394    
 BV BND1      x395    
 BV BND1      x396    
 BV BND1      x397    
 BV BND1      x398    
 BV BND1      x399    
 BV BND1      x400    
 BV BND1      x401    
 BV BND1      x402    
 BV BND1      x403    
 BV BND1      x404    
 BV BND1      x405    
 BV BND1      x406    
 BV BND1      x407    
 BV BND1      x408    
 BV BND1      x409    
 BV BND1      x410    
 BV BND1      x411    
 BV BND1      x412    
 BV BND1      x413    
 BV BND1      x414    
 BV BND1      x415    
 BV BND1      x416    
 BV BND1      x417    
 BV BND1      x418    
 BV BND1      x419    
 BV BND1      x420    
 BV BND1      x421    
 BV BND1      x422    
 BV BND1      x423    
 BV BND1      x424    
 BV BND1      x425    
 BV BND1      x426    
 BV BND1      x427    
 BV BND1      x428    
 BV BND1      x429    
 BV BND1      x430    
 BV BND1      x431    
 BV BND1      x432    
 BV BND1      x433    
 BV BND1      x434    
 BV BND1      x435    
 BV BND1      x436    
 BV BND1      x437    
 BV BND1      x438    
 BV BND1      x439    
 BV BND1      x440    
 BV BND1      x441    
 BV BND1      x442    
 BV BND1      x443    
 BV BND1      x444    
 BV BND1      x445    
 BV BND1      x446    
 BV BND1      x447    
 BV BND1      x448    
 BV BND1      x449    
 BV BND1      x450    
 BV BND1      x451    
 BV BND1      x452    
 BV BND1      x453    
 BV BND1      x454    
 BV BND1      x455    
 BV BND1      x456    
 BV BND1      x457    
 BV BND1      x458    
 BV BND1      x459    
 BV BND1      x460    
 BV BND1      x461    
 BV BND1      x462    
 BV BND1      x463    
 BV BND1      x464    
 BV BND1      x465    
 BV BND1      x466    
 BV BND1      x467    
 BV BND1      x468    
 BV BND1      x469    
 BV BND1      x470    
 BV BND1      x471    
 BV BND1      x472    
 BV BND1      x473    
 BV BND1      x474    
 BV BND1      x475    
 BV BND1      x476    
 BV BND1      x477    
 BV BND1      x478    
 BV BND1      x479    
 BV BND1      x480    
 BV BND1      x481    
 BV BND1      x482    
 BV BND1      x483    
 BV BND1      x484    
 BV BND1      x485    
 BV BND1      x486    
 BV BND1      x487    
 BV BND1      x488    
 BV BND1      x489    
 BV BND1      x490    
 BV BND1      x491    
 BV BND1      x492    
 BV BND1      x493    
 BV BND1      x494    
 BV BND1      x495    
 BV BND1      x496    
 BV BND1      x497    
 BV BND1      x498    
 BV BND1      x499    
 BV BND1      x500    
 BV BND1      x501    
 BV BND1      x502    
 BV BND1      x503    
 BV BND1      x504    
 BV BND1      x505    
 BV BND1      x506    
 BV BND1      x507    
 BV BND1      x508    
 BV BND1      x509    
 BV BND1      x510    
 BV BND1      x511    
 BV BND1      x512    
 BV BND1      x513    
 BV BND1      x514    
 BV BND1      x515    
 BV BND1      x516    
 BV BND1      x517    
 BV BND1      x518    
 BV BND1      x519    
 BV BND1      x520    
 BV BND1      x521    
 BV BND1      x522    
 BV BND1      x523    
 BV BND1      x524    
 BV BND1      x525    
 BV BND1      x526    
 BV BND1      x527    
 BV BND1      x528    
 BV BND1      x529    
 BV BND1      x530    
 BV BND1      x531    
 BV BND1      x532    
 BV BND1      x533    
 BV BND1      x534    
 BV BND1      x535    
 BV BND1      x536    
 BV BND1      x537    
 BV BND1      x538    
 BV BND1      x539    
 BV BND1      x540    
 BV BND1      x541    
 BV BND1      x542    
 BV BND1      x543    
 BV BND1      x544    
 BV BND1      x545    
 BV BND1      x546    
 BV BND1      x547    
 BV BND1      x548    
 BV BND1      x549    
 BV BND1      x550    
 BV BND1      x551    
 BV BND1      x552    
 BV BND1      x553    
 BV BND1      x554    
 BV BND1      x555    
 BV BND1      x556    
 BV BND1      x557    
 BV BND1      x558    
 BV BND1      x559    
 BV BND1      x560    
 BV BND1      x561    
 BV BND1      x562    
 BV BND1      x563    
 BV BND1      x564    
 BV BND1      x565    
 BV BND1      x566    
 BV BND1      x567    
 BV BND1      x568    
 BV BND1      x569    
 BV BND1      x570    
 BV BND1      x571    
 BV BND1      x572    
 BV BND1      x573    
 BV BND1      x574    
 BV BND1      x575    
 BV BND1      x576    
 BV BND1      x577    
 BV BND1      x578    
 BV BND1      x579    
 BV BND1      x580    
 BV BND1      x581    
 BV BND1      x582    
 BV BND1      x583    
 BV BND1      x584    
 BV BND1      x585    
 BV BND1      x586    
 BV BND1      x587    
 BV BND1      x588    
 BV BND1      x589    
 BV BND1      x590    
 BV BND1      x591    
 BV BND1      x592    
 BV BND1      x593    
 BV BND1      x594    
 BV BND1      x595    
 BV BND1      x596    
 BV BND1      x597    
 BV BND1      x598    
 BV BND1      x599    
 BV BND1      x600    
 BV BND1      x601    
 BV BND1      x602    
 BV BND1      x603    
 BV BND1      x604    
 BV BND1      x605    
 BV BND1      x606    
 BV BND1      x607    
 BV BND1      x608    
 BV BND1      x609    
 BV BND1      x610    
 BV BND1      x611    
 BV BND1      x612    
 BV BND1      x613    
 BV BND1      x614    
 BV BND1      x615    
 BV BND1      x616    
 BV BND1      x617    
 BV BND1      x618    
 BV BND1      x619    
 BV BND1      x620    
 BV BND1      x621    
 BV BND1      x622    
 BV BND1      x623    
 BV BND1      x624    
 BV BND1      x625    
 BV BND1      x626    
 BV BND1      x627    
 BV BND1      x628    
 BV BND1      x629    
 BV BND1      x630    
 BV BND1      x631    
 BV BND1      x632    
 BV BND1      x633    
 BV BND1      x634    
 BV BND1      x635    
 BV BND1      x636    
 BV BND1      x637    
 BV BND1      x638    
 BV BND1      x639    
 BV BND1      x640    
 BV BND1      x641    
 BV BND1      x642    
 BV BND1      x643    
 BV BND1      x644    
 BV BND1      x645    
 BV BND1      x646    
 BV BND1      x647    
 BV BND1      x648    
 BV BND1      x649    
 BV BND1      x650    
 BV BND1      x651    
 BV BND1      x652    
 BV BND1      x653    
 BV BND1      x654    
 BV BND1      x655    
 BV BND1      x656    
 BV BND1      x657    
 BV BND1      x658    
 BV BND1      x659    
 BV BND1      x660    
 BV BND1      x661    
 BV BND1      x662    
 BV BND1      x663    
 BV BND1      x664    
 BV BND1      x665    
 BV BND1      x666    
 BV BND1      x667    
 BV BND1      x668    
 BV BND1      x669    
 BV BND1      x670    
 BV BND1      x671    
 BV BND1      x672    
 BV BND1      x673    
 BV BND1      x674    
 BV BND1      x675    
 BV BND1      x676    
 BV BND1      x677    
 BV BND1      x678    
 BV BND1      x679    
 BV BND1      x680    
 BV BND1      x681    
 BV BND1      x682    
 BV BND1      x683    
 BV BND1      x684    
 BV BND1      x685    
 BV BND1      x686    
 BV BND1      x687    
 BV BND1      x688    
 BV BND1      x689    
 BV BND1      x690    
 BV BND1      x691    
 BV BND1      x692    
 BV BND1      x693    
 BV BND1      x694    
 BV BND1      x695    
 BV BND1      x696    
 BV BND1      x697    
 BV BND1      x698    
 BV BND1      x699    
 BV BND1      x700    
 BV BND1      x701    
 BV BND1      x702    
 BV BND1      x703    
 BV BND1      x704    
 BV BND1      x705    
 BV BND1      x706    
 BV BND1      x707    
 BV BND1      x708    
 BV BND1      x709    
 BV BND1      x710    
 BV BND1      x711    
 BV BND1      x712    
 BV BND1      x713    
 BV BND1      x714    
 BV BND1      x715    
 BV BND1      x716    
 BV BND1      x717    
 BV BND1      x718    
 BV BND1      x719    
 BV BND1      x720    
 BV BND1      x721    
 BV BND1      x722    
 BV BND1      x723    
 BV BND1      x724    
 BV BND1      x725    
 BV BND1      x726    
 BV BND1      x727    
 BV BND1      x728    
 BV BND1      x729    
 BV BND1      x730    
 BV BND1      x731    
 BV BND1      x732    
 BV BND1      x733    
 BV BND1      x734    
 BV BND1      x735    
 BV BND1      x736    
 BV BND1      x737    
 BV BND1      x738    
 BV BND1      x739    
 BV BND1      x740    
 BV BND1      x741    
 BV BND1      x742    
 BV BND1      x743    
 BV BND1      x744    
 BV BND1      x745    
 BV BND1      x746    
 BV BND1      x747    
 BV BND1      x748    
 BV BND1      x749    
 BV BND1      x750    
 BV BND1      x751    
 BV BND1      x752    
 BV BND1      x753    
 BV BND1      x754    
 BV BND1      x755    
 BV BND1      x756    
 BV BND1      x757    
 BV BND1      x758    
 BV BND1      x759    
ENDATA
