NAME p80x400b_pre
ROWS
 N  OBJ
 E  CNS...01
 E  CNS...02
 E  CNS...03
 E  CNS...04
 E  CNS...05
 E  CNS...06
 E  CNS...07
 E  CNS...08
 E  CNS...09
 E  CNS...10
 E  CNS...11
 E  CNS...12
 E  CNS...13
 E  CNS...14
 E  CNS...15
 E  CNS...16
 E  CNS...17
 E  CNS...18
 E  CNS...19
 E  CNS...20
 E  CNS...21
 E  CNS...22
 E  CNS...23
 E  CNS...24
 E  CNS...25
 E  CNS...26
 E  CNS...27
 E  CNS...28
 E  CNS...29
 E  CNS...30
 E  CNS...31
 E  CNS...32
 E  CNS...33
 E  CNS...34
 E  CNS...35
 E  CNS...36
 E  CNS...37
 E  CNS...38
 E  CNS...39
 E  CNS...40
 E  CNS...41
 E  CNS...42
 E  CNS...43
 E  CNS...44
 E  CNS...45
 E  CNS...46
 E  CNS...47
 E  CNS...48
 E  CNS...50
 E  CNS...51
 E  CNS...52
 E  CNS...53
 E  CNS...54
 E  CNS...55
 E  CNS...56
 E  CNS...57
 E  CNS...58
 E  CNS...59
 E  CNS...61
 E  CNS...62
 E  CNS...63
 E  CNS...64
 E  CNS...65
 E  CNS...68
 E  CNS...69
 E  CNS...70
 E  CNS...72
 E  CNS...73
 E  CNS...75
 E  CNS...76
 E  CNS...77
 E  CNS...79
 L  UC...001
 L  UC...002
 L  UC...003
 L  UC...004
 L  UC...005
 L  UC...006
 L  UC...007
 L  UC...008
 L  UC...009
 L  UC...010
 L  UC...011
 L  UC...012
 L  UC...013
 L  UC...014
 L  UC...015
 L  UC...016
 L  UC...017
 L  UC...018
 L  UC...019
 L  UC...020
 L  UC...021
 L  UC...022
 L  UC...023
 L  UC...024
 L  UC...025
 L  UC...026
 L  UC...027
 L  UC...028
 L  UC...029
 L  UC...030
 L  UC...031
 L  UC...032
 L  UC...033
 L  UC...034
 L  UC...035
 L  UC...036
 L  UC...037
 L  UC...038
 L  UC...039
 L  UC...040
 L  UC...041
 L  UC...042
 L  UC...044
 L  UC...045
 L  UC...046
 L  UC...047
 L  UC...048
 L  UC...049
 L  UC...050
 L  UC...051
 L  UC...052
 L  UC...055
 L  UC...056
 L  UC...057
 L  UC...058
 L  UC...059
 L  UC...060
 L  UC...061
 L  UC...062
 L  UC...063
 L  UC...064
 L  UC...065
 L  UC...066
 L  UC...067
 L  UC...068
 L  UC...069
 L  UC...070
 L  UC...071
 L  UC...072
 L  UC...073
 L  UC...074
 L  UC...075
 L  UC...076
 L  UC...077
 L  UC...078
 L  UC...079
 L  UC...080
 L  UC...081
 L  UC...082
 L  UC...083
 L  UC...084
 L  UC...085
 L  UC...086
 L  UC...087
 L  UC...088
 L  UC...089
 L  UC...090
 L  UC...091
 L  UC...092
 L  UC...093
 L  UC...094
 L  UC...095
 L  UC...096
 L  UC...097
 L  UC...098
 L  UC...099
 L  UC...100
 L  UC...101
 L  UC...102
 L  UC...103
 L  UC...104
 L  UC...105
 L  UC...106
 L  UC...107
 L  UC...108
 L  UC...109
 L  UC...110
 L  UC...111
 L  UC...112
 L  UC...113
 L  UC...114
 L  UC...115
 L  UC...116
 L  UC...117
 L  UC...118
 L  UC...120
 L  UC...121
 L  UC...122
 L  UC...123
 L  UC...124
 L  UC...125
 L  UC...126
 L  UC...127
 L  UC...128
 L  UC...129
 L  UC...130
 L  UC...131
 L  UC...132
 L  UC...133
 L  UC...134
 L  UC...135
 L  UC...136
 L  UC...137
 L  UC...138
 L  UC...139
 L  UC...140
 L  UC...141
 L  UC...142
 L  UC...143
 L  UC...144
 L  UC...145
 L  UC...146
 L  UC...147
 L  UC...148
 L  UC...149
 L  UC...150
 L  UC...151
 L  UC...152
 L  UC...153
 L  UC...154
 L  UC...155
 L  UC...156
 L  UC...157
 L  UC...158
 L  UC...159
 L  UC...160
 L  UC...161
 L  UC...162
 L  UC...163
 L  UC...164
 L  UC...165
 L  UC...166
 L  UC...167
 L  UC...168
 L  UC...169
 L  UC...170
 L  UC...171
 L  UC...172
 L  UC...174
 L  UC...175
 L  UC...176
 L  UC...177
 L  UC...178
 L  UC...179
 L  UC...180
 L  UC...181
 L  UC...182
 L  UC...183
 L  UC...184
 L  UC...185
 L  UC...186
 L  UC...187
 L  UC...188
 L  UC...189
 L  UC...190
 L  UC...191
 L  UC...192
 L  UC...193
 L  UC...194
 L  UC...195
 L  UC...196
 L  UC...197
 L  UC...198
 L  UC...199
 L  UC...200
 L  UC...201
 L  UC...202
 L  UC...204
 L  UC...205
 L  UC...206
 L  UC...207
 L  UC...208
 L  UC...210
 L  UC...211
 L  UC...212
 L  UC...213
 L  UC...214
 L  UC...215
 L  UC...216
 L  UC...217
 L  UC...218
 L  UC...219
 L  UC...220
 L  UC...221
 L  UC...222
 L  UC...223
 L  UC...224
 L  UC...225
 L  UC...226
 L  UC...227
 L  UC...228
 L  UC...229
 L  UC...230
 L  UC...231
 L  UC...232
 L  UC...233
 L  UC...234
 L  UC...235
 L  UC...236
 L  UC...237
 L  UC...238
 L  UC...239
 L  UC...240
 L  UC...241
 L  UC...242
 L  UC...243
 L  UC...244
 L  UC...245
 L  UC...246
 L  UC...247
 L  UC...248
 L  UC...249
 L  UC...250
 L  UC...251
 L  UC...252
 L  UC...253
 L  UC...254
 L  UC...255
 L  UC...256
 L  UC...257
 L  UC...258
 L  UC...259
 L  UC...260
 L  UC...261
 L  UC...262
 L  UC...263
 L  UC...264
 L  UC...266
 L  UC...267
 L  UC...268
 L  UC...269
 L  UC...270
 L  UC...271
 L  UC...272
 L  UC...273
 L  UC...274
 L  UC...275
 L  UC...276
 L  UC...277
 L  UC...278
 L  UC...279
 L  UC...280
 L  UC...281
 L  UC...282
 L  UC...283
 L  UC...284
 L  UC...285
 L  UC...286
 L  UC...287
 L  UC...288
 L  UC...289
 L  UC...290
 L  UC...291
 L  UC...292
 L  UC...293
 L  UC...295
 L  UC...296
 L  UC...297
 L  UC...298
 L  UC...301
 L  UC...302
 L  UC...303
 L  UC...304
 L  UC...305
 L  UC...306
 L  UC...307
 L  UC...308
 L  UC...309
 L  UC...310
 L  UC...311
 L  UC...312
 L  UC...313
 L  UC...314
 L  UC...315
 L  UC...316
 L  UC...317
 L  UC...318
 L  UC...319
 L  UC...320
 L  UC...321
 L  UC...322
 L  UC...323
 L  UC...324
 L  UC...325
 L  UC...326
 L  UC...327
 L  UC...329
 L  UC...330
 L  UC...331
 L  UC...332
 L  UC...333
 L  UC...334
 L  UC...335
 L  UC...336
 L  UC...337
 L  UC...338
 L  UC...339
 L  UC...340
 L  UC...341
 L  UC...342
 L  UC...343
 L  UC...344
 L  UC...345
 L  UC...346
 L  UC...347
 L  UC...348
 L  UC...349
 L  UC...350
 L  UC...351
 L  UC...352
 L  UC...353
 L  UC...354
 L  UC...355
 L  UC...356
 L  UC...357
 L  UC...358
 L  UC...361
 L  UC...362
 L  UC...363
 L  UC...364
 L  UC...365
 L  UC...366
 L  UC...367
 L  UC...368
 L  UC...369
 L  UC...370
 L  UC...371
 L  UC...372
 L  UC...373
 L  UC...374
 L  UC...375
 L  UC...376
 L  UC...377
 L  UC...378
 L  UC...379
 L  UC...380
 L  UC...381
 L  UC...382
 L  UC...385
 L  UC...386
 L  UC...387
 L  UC...388
 L  UC...389
 L  UC...390
 L  UC...391
 L  UC...392
 L  UC...393
 L  UC...394
 L  UC...395
 L  UC...396
 L  UC...397
 L  UC...398
 L  UC...399
 L  UC...400
COLUMNS
    x....001  OBJ       5
    x....001  CNS...01  -1
    x....001  CNS...14  1
    x....001  UC...001  1
    x....002  CNS...01  1
    x....002  CNS...14  -1
    x....002  UC...002  1
    x....003  OBJ       1
    x....003  CNS...01  -1
    x....003  CNS...79  1
    x....003  UC...003  1
    x....004  OBJ       3
    x....004  CNS...01  1
    x....004  CNS...79  -1
    x....004  UC...004  1
    x....005  OBJ       1
    x....005  CNS...01  -1
    x....005  CNS...03  1
    x....005  UC...005  1
    x....006  CNS...01  1
    x....006  CNS...03  -1
    x....006  UC...006  1
    x....007  OBJ       9
    x....007  CNS...01  -1
    x....007  CNS...18  1
    x....007  UC...007  1
    x....008  OBJ       2
    x....008  CNS...01  1
    x....008  CNS...18  -1
    x....008  UC...008  1
    x....009  OBJ       6
    x....009  CNS...01  -1
    x....009  CNS...09  1
    x....009  UC...009  1
    x....010  OBJ       10
    x....010  CNS...01  1
    x....010  CNS...09  -1
    x....010  UC...010  1
    x....011  OBJ       3
    x....011  CNS...01  -1
    x....011  CNS...39  1
    x....011  UC...011  1
    x....012  OBJ       5
    x....012  CNS...01  1
    x....012  CNS...39  -1
    x....012  UC...012  1
    x....013  CNS...01  -1
    x....013  CNS...42  1
    x....013  UC...013  1
    x....014  CNS...01  1
    x....014  CNS...42  -1
    x....014  UC...014  1
    x....015  OBJ       5
    x....015  CNS...01  -1
    x....015  CNS...75  1
    x....015  UC...015  1
    x....016  CNS...01  1
    x....016  CNS...75  -1
    x....016  UC...016  1
    x....017  OBJ       6
    x....017  CNS...01  -1
    x....017  CNS...32  1
    x....017  UC...017  1
    x....018  OBJ       4
    x....018  CNS...01  1
    x....018  CNS...32  -1
    x....018  UC...018  1
    x....019  OBJ       8
    x....019  CNS...01  -1
    x....019  CNS...08  1
    x....019  UC...019  1
    x....020  OBJ       3
    x....020  CNS...01  1
    x....020  CNS...08  -1
    x....020  UC...020  1
    x....021  OBJ       10
    x....021  CNS...01  -1
    x....021  CNS...50  1
    x....021  UC...021  1
    x....022  OBJ       4
    x....022  CNS...01  1
    x....022  CNS...50  -1
    x....022  UC...022  1
    x....023  OBJ       5
    x....023  CNS...01  -1
    x....023  CNS...28  1
    x....023  UC...023  1
    x....024  OBJ       2
    x....024  CNS...01  1
    x....024  CNS...28  -1
    x....024  UC...024  1
    x....025  OBJ       3
    x....025  CNS...01  -1
    x....025  CNS...35  1
    x....025  UC...025  1
    x....026  OBJ       10
    x....026  CNS...01  1
    x....026  CNS...35  -1
    x....026  UC...026  1
    x....027  OBJ       2
    x....027  CNS...01  -1
    x....027  CNS...23  1
    x....027  UC...027  1
    x....028  CNS...01  1
    x....028  CNS...23  -1
    x....028  UC...028  1
    x....029  OBJ       4
    x....029  CNS...01  -1
    x....029  CNS...26  1
    x....029  UC...029  1
    x....030  OBJ       7
    x....030  CNS...01  1
    x....030  CNS...26  -1
    x....030  UC...030  1
    x....031  OBJ       10
    x....031  CNS...01  -1
    x....031  CNS...15  1
    x....031  UC...031  1
    x....032  OBJ       5
    x....032  CNS...01  1
    x....032  CNS...15  -1
    x....032  UC...032  1
    x....033  OBJ       3
    x....033  CNS...01  -1
    x....033  CNS...07  1
    x....033  UC...033  1
    x....034  CNS...01  1
    x....034  CNS...07  -1
    x....034  UC...034  1
    x....035  OBJ       1
    x....035  CNS...01  -1
    x....035  CNS...76  1
    x....035  UC...035  1
    x....036  OBJ       3
    x....036  CNS...01  1
    x....036  CNS...76  -1
    x....036  UC...036  1
    x....037  OBJ       10
    x....037  CNS...01  -1
    x....037  CNS...05  1
    x....037  UC...037  1
    x....038  OBJ       3
    x....038  CNS...01  1
    x....038  CNS...05  -1
    x....038  UC...038  1
    x....039  OBJ       4
    x....039  CNS...01  -1
    x....039  CNS...06  1
    x....039  UC...039  1
    x....040  CNS...01  1
    x....040  CNS...06  -1
    x....040  UC...040  1
    x....041  OBJ       6
    x....041  CNS...01  -1
    x....041  CNS...16  1
    x....041  UC...041  1
    x....042  OBJ       8
    x....042  CNS...01  1
    x....042  CNS...16  -1
    x....042  UC...042  1
    x....044  OBJ       20
    x....044  CNS...04  -1
    x....044  CNS...01  1
    x....044  UC...044  1
    x....045  CNS...01  -1
    x....045  CNS...04  1
    x....045  UC...045  1
    x....046  OBJ       4
    x....046  CNS...01  1
    x....046  CNS...04  -1
    x....046  UC...046  1
    x....047  OBJ       1
    x....047  CNS...01  -1
    x....047  CNS...27  1
    x....047  UC...047  1
    x....048  OBJ       3
    x....048  CNS...01  1
    x....048  CNS...27  -1
    x....048  UC...048  1
    x....049  OBJ       1
    x....049  CNS...01  -1
    x....049  CNS...10  1
    x....049  UC...049  1
    x....050  OBJ       4
    x....050  CNS...01  1
    x....050  CNS...10  -1
    x....050  UC...050  1
    x....051  OBJ       6
    x....051  CNS...01  -1
    x....051  CNS...29  1
    x....051  UC...051  1
    x....052  OBJ       8
    x....052  CNS...01  1
    x....052  CNS...29  -1
    x....052  UC...052  1
    x....054  OBJ       13
    x....054  UC...335  1
    x....054  CNS...29  -1
    x....054  CNS...01  1
    x....055  OBJ       2
    x....055  CNS...01  -1
    x....055  CNS...53  1
    x....055  UC...055  1
    x....056  OBJ       10
    x....056  CNS...01  1
    x....056  CNS...53  -1
    x....056  UC...056  1
    x....057  OBJ       6
    x....057  CNS...01  -1
    x....057  CNS...30  1
    x....057  UC...057  1
    x....058  OBJ       6
    x....058  CNS...01  1
    x....058  CNS...30  -1
    x....058  UC...058  1
    x....059  OBJ       3
    x....059  CNS...01  -1
    x....059  CNS...58  1
    x....059  UC...059  1
    x....060  OBJ       3
    x....060  CNS...01  1
    x....060  CNS...58  -1
    x....060  UC...060  1
    x....061  OBJ       4
    x....061  CNS...01  -1
    x....061  CNS...22  1
    x....061  UC...061  1
    x....062  OBJ       8
    x....062  CNS...01  1
    x....062  CNS...22  -1
    x....062  UC...062  1
    x....063  OBJ       10
    x....063  CNS...01  -1
    x....063  CNS...41  1
    x....063  UC...063  1
    x....064  OBJ       2
    x....064  CNS...01  1
    x....064  CNS...41  -1
    x....064  UC...064  1
    x....065  OBJ       2
    x....065  CNS...01  1
    x....065  CNS...02  -1
    x....065  UC...065  1
    x....066  OBJ       8
    x....066  CNS...01  -1
    x....066  CNS...02  1
    x....066  UC...066  1
    x....067  OBJ       5
    x....067  CNS...02  -1
    x....067  CNS...41  1
    x....067  UC...067  1
    x....068  OBJ       9
    x....068  CNS...02  1
    x....068  CNS...41  -1
    x....068  UC...068  1
    x....069  OBJ       8
    x....069  CNS...02  -1
    x....069  CNS...22  1
    x....069  UC...069  1
    x....070  OBJ       1
    x....070  CNS...02  1
    x....070  CNS...22  -1
    x....070  UC...070  1
    x....071  OBJ       5
    x....071  CNS...02  -1
    x....071  CNS...48  1
    x....071  UC...071  1
    x....072  OBJ       1
    x....072  CNS...02  1
    x....072  CNS...48  -1
    x....072  UC...072  1
    x....073  OBJ       2
    x....073  CNS...02  -1
    x....073  CNS...10  1
    x....073  UC...073  1
    x....074  OBJ       2
    x....074  CNS...02  1
    x....074  CNS...10  -1
    x....074  UC...074  1
    x....075  OBJ       10
    x....075  CNS...02  -1
    x....075  CNS...04  1
    x....075  UC...075  1
    x....076  OBJ       8
    x....076  CNS...02  1
    x....076  CNS...04  -1
    x....076  UC...076  1
    x....077  OBJ       8
    x....077  CNS...02  -1
    x....077  CNS...03  1
    x....077  UC...077  1
    x....078  OBJ       6
    x....078  CNS...02  1
    x....078  CNS...03  -1
    x....078  UC...078  1
    x....079  OBJ       4
    x....079  CNS...02  -1
    x....079  CNS...13  1
    x....079  UC...079  1
    x....080  OBJ       10
    x....080  CNS...02  1
    x....080  CNS...13  -1
    x....080  UC...080  1
    x....081  OBJ       3
    x....081  CNS...02  -1
    x....081  CNS...12  1
    x....081  UC...081  1
    x....082  OBJ       9
    x....082  CNS...02  1
    x....082  CNS...12  -1
    x....082  UC...082  1
    x....083  OBJ       10
    x....083  CNS...03  -1
    x....083  CNS...04  1
    x....083  UC...083  1
    x....084  OBJ       1
    x....084  CNS...03  1
    x....084  CNS...04  -1
    x....084  UC...084  1
    x....085  OBJ       4
    x....085  CNS...03  -1
    x....085  CNS...62  1
    x....085  UC...085  1
    x....086  OBJ       6
    x....086  CNS...03  1
    x....086  CNS...62  -1
    x....086  UC...086  1
    x....087  OBJ       10
    x....087  CNS...03  -1
    x....087  CNS...05  1
    x....087  UC...087  1
    x....088  CNS...03  1
    x....088  CNS...05  -1
    x....088  UC...088  1
    x....089  OBJ       4
    x....089  CNS...03  -1
    x....089  CNS...19  1
    x....089  UC...089  1
    x....090  OBJ       2
    x....090  CNS...03  1
    x....090  CNS...19  -1
    x....090  UC...090  1
    x....091  OBJ       10
    x....091  CNS...03  -1
    x....091  CNS...09  1
    x....091  UC...091  1
    x....092  OBJ       3
    x....092  CNS...03  1
    x....092  CNS...09  -1
    x....092  UC...092  1
    x....093  OBJ       9
    x....093  CNS...03  -1
    x....093  CNS...18  1
    x....093  UC...093  1
    x....094  OBJ       9
    x....094  CNS...03  1
    x....094  CNS...18  -1
    x....094  UC...094  1
    x....095  OBJ       2
    x....095  CNS...03  -1
    x....095  CNS...79  1
    x....095  UC...095  1
    x....096  OBJ       3
    x....096  CNS...03  1
    x....096  CNS...79  -1
    x....096  UC...096  1
    x....097  OBJ       6
    x....097  CNS...03  -1
    x....097  CNS...14  1
    x....097  UC...097  1
    x....098  OBJ       9
    x....098  CNS...03  1
    x....098  CNS...14  -1
    x....098  UC...098  1
    x....099  OBJ       10
    x....099  CNS...03  -1
    x....099  CNS...64  1
    x....099  UC...099  1
    x....100  OBJ       3
    x....100  CNS...03  1
    x....100  CNS...64  -1
    x....100  UC...100  1
    x....101  OBJ       5
    x....101  CNS...03  -1
    x....101  CNS...34  1
    x....101  UC...101  1
    x....102  OBJ       6
    x....102  CNS...03  1
    x....102  CNS...34  -1
    x....102  UC...102  1
    x....103  OBJ       5
    x....103  CNS...03  -1
    x....103  CNS...17  1
    x....103  UC...103  1
    x....104  OBJ       8
    x....104  CNS...03  1
    x....104  CNS...17  -1
    x....104  UC...104  1
    x....105  OBJ       1
    x....105  CNS...03  -1
    x....105  CNS...51  1
    x....105  UC...105  1
    x....106  OBJ       4
    x....106  CNS...03  1
    x....106  CNS...51  -1
    x....106  UC...106  1
    x....107  OBJ       7
    x....107  CNS...03  -1
    x....107  CNS...12  1
    x....107  UC...107  1
    x....108  OBJ       1
    x....108  CNS...03  1
    x....108  CNS...12  -1
    x....108  UC...108  1
    x....109  CNS...03  -1
    x....109  CNS...43  1
    x....109  UC...109  1
    x....110  OBJ       1
    x....110  CNS...03  1
    x....110  CNS...43  -1
    x....110  UC...110  1
    x....111  OBJ       10
    x....111  CNS...03  -1
    x....111  CNS...40  1
    x....111  UC...111  1
    x....112  OBJ       7
    x....112  CNS...03  1
    x....112  CNS...40  -1
    x....112  UC...112  1
    x....113  OBJ       8
    x....113  CNS...03  -1
    x....113  CNS...13  1
    x....113  UC...113  1
    x....114  OBJ       4
    x....114  CNS...03  1
    x....114  CNS...13  -1
    x....114  UC...114  1
    x....115  OBJ       10
    x....115  CNS...04  -1
    x....115  CNS...10  1
    x....115  UC...115  1
    x....116  OBJ       3
    x....116  CNS...04  1
    x....116  CNS...10  -1
    x....116  UC...116  1
    x....117  OBJ       5
    x....117  CNS...04  -1
    x....117  CNS...27  1
    x....117  UC...117  1
    x....118  OBJ       7
    x....118  CNS...04  1
    x....118  CNS...27  -1
    x....118  UC...118  1
    x....120  OBJ       8
    x....120  CNS...01  -1
    x....120  CNS...04  1
    x....120  UC...120  1
    x....121  OBJ       3
    x....121  CNS...04  -1
    x....121  CNS...16  1
    x....121  UC...121  1
    x....122  OBJ       6
    x....122  CNS...04  1
    x....122  CNS...16  -1
    x....122  UC...122  1
    x....123  OBJ       5
    x....123  CNS...04  -1
    x....123  CNS...33  1
    x....123  UC...123  1
    x....124  OBJ       9
    x....124  CNS...04  1
    x....124  CNS...33  -1
    x....124  UC...124  1
    x....125  OBJ       4
    x....125  CNS...04  -1
    x....125  CNS...44  1
    x....125  UC...125  1
    x....126  OBJ       6
    x....126  CNS...04  1
    x....126  CNS...44  -1
    x....126  UC...126  1
    x....127  OBJ       10
    x....127  CNS...04  -1
    x....127  CNS...55  1
    x....127  UC...127  1
    x....128  OBJ       9
    x....128  CNS...04  1
    x....128  CNS...55  -1
    x....128  UC...128  1
    x....129  OBJ       8
    x....129  CNS...04  -1
    x....129  CNS...63  1
    x....129  UC...129  1
    x....130  OBJ       2
    x....130  CNS...04  1
    x....130  CNS...63  -1
    x....130  UC...130  1
    x....131  OBJ       6
    x....131  CNS...04  -1
    x....131  CNS...06  1
    x....131  UC...131  1
    x....132  OBJ       9
    x....132  CNS...04  1
    x....132  CNS...06  -1
    x....132  UC...132  1
    x....133  OBJ       6
    x....133  CNS...04  -1
    x....133  CNS...72  1
    x....133  UC...133  1
    x....134  CNS...04  1
    x....134  CNS...72  -1
    x....134  UC...134  1
    x....135  OBJ       1
    x....135  CNS...04  -1
    x....135  CNS...69  1
    x....135  UC...135  1
    x....136  OBJ       10
    x....136  CNS...04  1
    x....136  CNS...69  -1
    x....136  UC...136  1
    x....137  OBJ       4
    x....137  CNS...04  -1
    x....137  CNS...59  1
    x....137  UC...137  1
    x....138  OBJ       7
    x....138  CNS...04  1
    x....138  CNS...59  -1
    x....138  UC...138  1
    x....139  OBJ       6
    x....139  CNS...04  -1
    x....139  CNS...05  1
    x....139  UC...139  1
    x....140  OBJ       7
    x....140  CNS...04  1
    x....140  CNS...05  -1
    x....140  UC...140  1
    x....141  OBJ       1
    x....141  CNS...04  -1
    x....141  CNS...62  1
    x....141  UC...141  1
    x....142  OBJ       3
    x....142  CNS...04  1
    x....142  CNS...62  -1
    x....142  UC...142  1
    x....143  OBJ       6
    x....143  CNS...05  -1
    x....143  CNS...76  1
    x....143  UC...143  1
    x....144  OBJ       8
    x....144  CNS...05  1
    x....144  CNS...76  -1
    x....144  UC...144  1
    x....145  OBJ       3
    x....145  CNS...05  -1
    x....145  CNS...07  1
    x....145  UC...145  1
    x....146  OBJ       1
    x....146  CNS...05  1
    x....146  CNS...07  -1
    x....146  UC...146  1
    x....147  OBJ       2
    x....147  CNS...05  -1
    x....147  CNS...62  1
    x....147  UC...147  1
    x....148  OBJ       7
    x....148  CNS...05  1
    x....148  CNS...62  -1
    x....148  UC...148  1
    x....149  OBJ       1
    x....149  CNS...05  -1
    x....149  CNS...59  1
    x....149  UC...149  1
    x....150  OBJ       7
    x....150  CNS...05  1
    x....150  CNS...59  -1
    x....150  UC...150  1
    x....151  OBJ       1
    x....151  CNS...05  -1
    x....151  CNS...06  1
    x....151  UC...151  1
    x....152  OBJ       3
    x....152  CNS...05  1
    x....152  CNS...06  -1
    x....152  UC...152  1
    x....153  OBJ       2
    x....153  CNS...06  -1
    x....153  CNS...63  1
    x....153  UC...153  1
    x....154  OBJ       5
    x....154  CNS...06  1
    x....154  CNS...63  -1
    x....154  UC...154  1
    x....155  OBJ       5
    x....155  CNS...06  -1
    x....155  CNS...55  1
    x....155  UC...155  1
    x....156  OBJ       3
    x....156  CNS...06  1
    x....156  CNS...55  -1
    x....156  UC...156  1
    x....157  OBJ       2
    x....157  CNS...06  -1
    x....157  CNS...44  1
    x....157  UC...157  1
    x....158  OBJ       6
    x....158  CNS...06  1
    x....158  CNS...44  -1
    x....158  UC...158  1
    x....159  OBJ       6
    x....159  CNS...06  -1
    x....159  CNS...46  1
    x....159  UC...159  1
    x....160  OBJ       4
    x....160  CNS...06  1
    x....160  CNS...46  -1
    x....160  UC...160  1
    x....161  OBJ       2
    x....161  CNS...06  -1
    x....161  CNS...16  1
    x....161  UC...161  1
    x....162  OBJ       7
    x....162  CNS...06  1
    x....162  CNS...16  -1
    x....162  UC...162  1
    x....163  OBJ       8
    x....163  CNS...06  -1
    x....163  CNS...59  1
    x....163  UC...163  1
    x....164  OBJ       2
    x....164  CNS...06  1
    x....164  CNS...59  -1
    x....164  UC...164  1
    x....165  CNS...06  -1
    x....165  CNS...69  1
    x....165  UC...165  1
    x....166  OBJ       4
    x....166  CNS...06  1
    x....166  CNS...69  -1
    x....166  UC...166  1
    x....167  OBJ       4
    x....167  CNS...06  -1
    x....167  CNS...72  1
    x....167  UC...167  1
    x....168  OBJ       8
    x....168  CNS...06  1
    x....168  CNS...72  -1
    x....168  UC...168  1
    x....169  OBJ       1
    x....169  CNS...07  -1
    x....169  CNS...76  1
    x....169  UC...169  1
    x....170  OBJ       2
    x....170  CNS...07  1
    x....170  CNS...76  -1
    x....170  UC...170  1
    x....171  OBJ       8
    x....171  CNS...07  -1
    x....171  CNS...15  1
    x....171  UC...171  1
    x....172  OBJ       3
    x....172  CNS...07  1
    x....172  CNS...15  -1
    x....172  UC...172  1
    x....174  OBJ       9
    x....174  CNS...15  -1
    x....174  CNS...07  1
    x....174  UC...174  1
    x....175  OBJ       3
    x....175  CNS...07  -1
    x....175  CNS...11  1
    x....175  UC...175  1
    x....176  OBJ       3
    x....176  CNS...07  1
    x....176  CNS...11  -1
    x....176  UC...176  1
    x....177  OBJ       2
    x....177  CNS...07  -1
    x....177  CNS...65  1
    x....177  UC...177  1
    x....178  OBJ       7
    x....178  CNS...07  1
    x....178  CNS...65  -1
    x....178  UC...178  1
    x....179  OBJ       4
    x....179  CNS...07  -1
    x....179  CNS...52  1
    x....179  UC...179  1
    x....180  OBJ       1
    x....180  CNS...07  1
    x....180  CNS...52  -1
    x....180  UC...180  1
    x....181  OBJ       6
    x....181  CNS...07  -1
    x....181  CNS...54  1
    x....181  UC...181  1
    x....182  OBJ       10
    x....182  CNS...07  1
    x....182  CNS...54  -1
    x....182  UC...182  1
    x....183  OBJ       9
    x....183  CNS...07  -1
    x....183  CNS...56  1
    x....183  UC...183  1
    x....184  OBJ       2
    x....184  CNS...07  1
    x....184  CNS...56  -1
    x....184  UC...184  1
    x....185  OBJ       9
    x....185  CNS...07  -1
    x....185  CNS...36  1
    x....185  UC...185  1
    x....186  OBJ       8
    x....186  CNS...07  1
    x....186  CNS...36  -1
    x....186  UC...186  1
    x....187  OBJ       3
    x....187  CNS...07  -1
    x....187  CNS...20  1
    x....187  UC...187  1
    x....188  CNS...07  1
    x....188  CNS...20  -1
    x....188  UC...188  1
    x....189  OBJ       4
    x....189  CNS...07  -1
    x....189  CNS...08  1
    x....189  UC...189  1
    x....190  OBJ       10
    x....190  CNS...07  1
    x....190  CNS...08  -1
    x....190  UC...190  1
    x....191  OBJ       7
    x....191  CNS...08  -1
    x....191  CNS...20  1
    x....191  UC...191  1
    x....192  OBJ       10
    x....192  CNS...08  1
    x....192  CNS...20  -1
    x....192  UC...192  1
    x....193  OBJ       7
    x....193  CNS...08  -1
    x....193  CNS...11  1
    x....193  UC...193  1
    x....194  OBJ       8
    x....194  CNS...08  1
    x....194  CNS...11  -1
    x....194  UC...194  1
    x....195  OBJ       1
    x....195  CNS...08  -1
    x....195  CNS...23  1
    x....195  UC...195  1
    x....196  OBJ       4
    x....196  CNS...08  1
    x....196  CNS...23  -1
    x....196  UC...196  1
    x....197  OBJ       3
    x....197  CNS...08  -1
    x....197  CNS...28  1
    x....197  UC...197  1
    x....198  OBJ       2
    x....198  CNS...08  1
    x....198  CNS...28  -1
    x....198  UC...198  1
    x....199  OBJ       3
    x....199  CNS...08  -1
    x....199  CNS...57  1
    x....199  UC...199  1
    x....200  OBJ       7
    x....200  CNS...08  1
    x....200  CNS...57  -1
    x....200  UC...200  1
    x....201  OBJ       5
    x....201  CNS...08  -1
    x....201  CNS...09  1
    x....201  UC...201  1
    x....202  OBJ       8
    x....202  CNS...08  1
    x....202  CNS...09  -1
    x....202  UC...202  1
    x....204  OBJ       12
    x....204  CNS...09  -1
    x....204  CNS...08  1
    x....204  UC...204  1
    x....205  OBJ       6
    x....205  CNS...08  -1
    x....205  CNS...31  1
    x....205  UC...205  1
    x....206  OBJ       2
    x....206  CNS...08  1
    x....206  CNS...31  -1
    x....206  UC...206  1
    x....207  OBJ       7
    x....207  CNS...08  -1
    x....207  CNS...21  1
    x....207  UC...207  1
    x....208  OBJ       6
    x....208  CNS...08  1
    x....208  CNS...21  -1
    x....208  UC...208  1
    x....210  OBJ       18
    x....210  CNS...08  -1
    x....210  CNS...09  1
    x....210  UC...210  1
    x....211  OBJ       3
    x....211  CNS...09  -1
    x....211  CNS...57  1
    x....211  UC...211  1
    x....212  CNS...09  1
    x....212  CNS...57  -1
    x....212  UC...212  1
    x....213  OBJ       9
    x....213  CNS...09  -1
    x....213  CNS...32  1
    x....213  UC...213  1
    x....214  OBJ       10
    x....214  CNS...09  1
    x....214  CNS...32  -1
    x....214  UC...214  1
    x....215  OBJ       9
    x....215  CNS...09  -1
    x....215  CNS...39  1
    x....215  UC...215  1
    x....216  OBJ       2
    x....216  CNS...09  1
    x....216  CNS...39  -1
    x....216  UC...216  1
    x....217  OBJ       9
    x....217  CNS...09  -1
    x....217  CNS...18  1
    x....217  UC...217  1
    x....218  OBJ       4
    x....218  CNS...09  1
    x....218  CNS...18  -1
    x....218  UC...218  1
    x....219  OBJ       2
    x....219  CNS...10  -1
    x....219  CNS...48  1
    x....219  UC...219  1
    x....220  CNS...10  1
    x....220  CNS...48  -1
    x....220  UC...220  1
    x....221  OBJ       10
    x....221  CNS...10  -1
    x....221  CNS...22  1
    x....221  UC...221  1
    x....222  OBJ       5
    x....222  CNS...10  1
    x....222  CNS...22  -1
    x....222  UC...222  1
    x....223  OBJ       2
    x....223  CNS...10  -1
    x....223  CNS...27  1
    x....223  UC...223  1
    x....224  OBJ       4
    x....224  CNS...10  1
    x....224  CNS...27  -1
    x....224  UC...224  1
    x....225  CNS...11  -1
    x....225  CNS...24  1
    x....225  UC...225  1
    x....226  OBJ       2
    x....226  CNS...11  1
    x....226  CNS...24  -1
    x....226  UC...226  1
    x....227  OBJ       7
    x....227  CNS...11  -1
    x....227  CNS...23  1
    x....227  UC...227  1
    x....228  OBJ       8
    x....228  CNS...11  1
    x....228  CNS...23  -1
    x....228  UC...228  1
    x....229  OBJ       1
    x....229  CNS...11  -1
    x....229  CNS...77  1
    x....229  UC...229  1
    x....230  OBJ       7
    x....230  CNS...11  1
    x....230  CNS...77  -1
    x....230  UC...230  1
    x....231  OBJ       4
    x....231  CNS...11  -1
    x....231  CNS...25  1
    x....231  UC...231  1
    x....232  OBJ       10
    x....232  CNS...11  1
    x....232  CNS...25  -1
    x....232  UC...232  1
    x....233  CNS...11  -1
    x....233  CNS...52  1
    x....233  UC...233  1
    x....234  OBJ       9
    x....234  CNS...11  1
    x....234  CNS...52  -1
    x....234  UC...234  1
    x....235  CNS...11  -1
    x....235  CNS...65  1
    x....235  UC...235  1
    x....236  OBJ       2
    x....236  CNS...11  1
    x....236  CNS...65  -1
    x....236  UC...236  1
    x....237  OBJ       9
    x....237  CNS...11  -1
    x....237  CNS...15  1
    x....237  UC...237  1
    x....238  OBJ       9
    x....238  CNS...11  1
    x....238  CNS...15  -1
    x....238  UC...238  1
    x....239  OBJ       1
    x....239  CNS...11  -1
    x....239  CNS...38  1
    x....239  UC...239  1
    x....240  OBJ       1
    x....240  CNS...11  1
    x....240  CNS...38  -1
    x....240  UC...240  1
    x....241  OBJ       9
    x....241  CNS...12  -1
    x....241  CNS...13  1
    x....241  UC...241  1
    x....242  OBJ       6
    x....242  CNS...12  1
    x....242  CNS...13  -1
    x....242  UC...242  1
    x....243  OBJ       7
    x....243  CNS...12  -1
    x....243  CNS...40  1
    x....243  UC...243  1
    x....244  OBJ       10
    x....244  CNS...12  1
    x....244  CNS...40  -1
    x....244  UC...244  1
    x....245  OBJ       1
    x....245  CNS...12  -1
    x....245  CNS...43  1
    x....245  UC...245  1
    x....246  OBJ       8
    x....246  CNS...12  1
    x....246  CNS...43  -1
    x....246  UC...246  1
    x....247  OBJ       4
    x....247  CNS...12  -1
    x....247  CNS...51  1
    x....247  UC...247  1
    x....248  OBJ       3
    x....248  CNS...12  1
    x....248  CNS...51  -1
    x....248  UC...248  1
    x....249  CNS...12  -1
    x....249  CNS...17  1
    x....249  UC...249  1
    x....250  OBJ       10
    x....250  CNS...12  1
    x....250  CNS...17  -1
    x....250  UC...250  1
    x....251  OBJ       10
    x....251  CNS...13  -1
    x....251  CNS...61  1
    x....251  UC...251  1
    x....252  OBJ       1
    x....252  CNS...13  1
    x....252  CNS...61  -1
    x....252  UC...252  1
    x....253  OBJ       3
    x....253  CNS...14  -1
    x....253  CNS...17  1
    x....253  UC...253  1
    x....254  OBJ       7
    x....254  CNS...14  1
    x....254  CNS...17  -1
    x....254  UC...254  1
    x....255  OBJ       4
    x....255  CNS...14  -1
    x....255  CNS...37  1
    x....255  UC...255  1
    x....256  OBJ       5
    x....256  CNS...14  1
    x....256  CNS...37  -1
    x....256  UC...256  1
    x....257  OBJ       1
    x....257  CNS...14  -1
    x....257  CNS...34  1
    x....257  UC...257  1
    x....258  OBJ       4
    x....258  CNS...14  1
    x....258  CNS...34  -1
    x....258  UC...258  1
    x....259  OBJ       1
    x....259  CNS...14  -1
    x....259  CNS...64  1
    x....259  UC...259  1
    x....260  OBJ       8
    x....260  CNS...14  1
    x....260  CNS...64  -1
    x....260  UC...260  1
    x....261  OBJ       8
    x....261  CNS...14  -1
    x....261  CNS...79  1
    x....261  UC...261  1
    x....262  OBJ       9
    x....262  CNS...14  1
    x....262  CNS...79  -1
    x....262  UC...262  1
    x....263  OBJ       6
    x....263  CNS...15  -1
    x....263  CNS...38  1
    x....263  UC...263  1
    x....264  OBJ       9
    x....264  CNS...15  1
    x....264  CNS...38  -1
    x....264  UC...264  1
    x....266  OBJ       13
    x....266  CNS...07  -1
    x....266  CNS...15  1
    x....266  UC...266  1
    x....267  OBJ       7
    x....267  CNS...16  -1
    x....267  CNS...46  1
    x....267  UC...267  1
    x....268  OBJ       4
    x....268  CNS...16  1
    x....268  CNS...46  -1
    x....268  UC...268  1
    x....269  OBJ       3
    x....269  CNS...16  -1
    x....269  CNS...33  1
    x....269  UC...269  1
    x....270  CNS...16  1
    x....270  CNS...33  -1
    x....270  UC...270  1
    x....271  OBJ       9
    x....271  CNS...17  -1
    x....271  CNS...51  1
    x....271  UC...271  1
    x....272  OBJ       10
    x....272  CNS...17  1
    x....272  CNS...51  -1
    x....272  UC...272  1
    x....273  OBJ       6
    x....273  CNS...17  -1
    x....273  CNS...34  1
    x....273  UC...273  1
    x....274  OBJ       8
    x....274  CNS...17  1
    x....274  CNS...34  -1
    x....274  UC...274  1
    x....275  OBJ       1
    x....275  CNS...17  -1
    x....275  CNS...37  1
    x....275  UC...275  1
    x....276  OBJ       4
    x....276  CNS...17  1
    x....276  CNS...37  -1
    x....276  UC...276  1
    x....277  OBJ       8
    x....277  CNS...19  -1
    x....277  CNS...21  1
    x....277  UC...277  1
    x....278  OBJ       7
    x....278  CNS...19  1
    x....278  CNS...21  -1
    x....278  UC...278  1
    x....279  OBJ       2
    x....279  CNS...19  -1
    x....279  CNS...31  1
    x....279  UC...279  1
    x....280  OBJ       4
    x....280  CNS...19  1
    x....280  CNS...31  -1
    x....280  UC...280  1
    x....281  OBJ       6
    x....281  CNS...20  -1
    x....281  CNS...36  1
    x....281  UC...281  1
    x....282  OBJ       5
    x....282  CNS...20  1
    x....282  CNS...36  -1
    x....282  UC...282  1
    x....283  OBJ       8
    x....283  CNS...20  -1
    x....283  CNS...25  1
    x....283  UC...283  1
    x....284  OBJ       2
    x....284  CNS...20  1
    x....284  CNS...25  -1
    x....284  UC...284  1
    x....285  OBJ       8
    x....285  CNS...20  -1
    x....285  CNS...77  1
    x....285  UC...285  1
    x....286  OBJ       6
    x....286  CNS...20  1
    x....286  CNS...77  -1
    x....286  UC...286  1
    x....287  CNS...21  -1
    x....287  CNS...31  1
    x....287  UC...287  1
    x....288  OBJ       9
    x....288  CNS...21  1
    x....288  CNS...31  -1
    x....288  UC...288  1
    x....289  OBJ       7
    x....289  CNS...22  -1
    x....289  CNS...30  1
    x....289  UC...289  1
    x....290  OBJ       1
    x....290  CNS...22  1
    x....290  CNS...30  -1
    x....290  UC...290  1
    x....291  OBJ       6
    x....291  CNS...22  -1
    x....291  CNS...47  1
    x....291  UC...291  1
    x....292  OBJ       3
    x....292  CNS...22  1
    x....292  CNS...47  -1
    x....292  UC...292  1
    x....294  OBJ       9
    x....294  UC...327  1
    x....294  CNS...29  -1
    x....294  CNS...22  1
    x....295  OBJ       2
    x....295  CNS...22  -1
    x....295  CNS...29  1
    x....295  UC...295  1
    x....296  OBJ       1
    x....296  CNS...22  1
    x....296  CNS...29  -1
    x....296  UC...296  1
    x....297  OBJ       10
    x....297  CNS...22  -1
    x....297  CNS...48  1
    x....297  UC...297  1
    x....298  OBJ       6
    x....298  CNS...22  1
    x....298  CNS...48  -1
    x....298  UC...298  1
    x....300  OBJ       12
    x....300  UC...363  1
    x....300  CNS...35  -1
    x....300  CNS...23  1
    x....301  OBJ       2
    x....301  CNS...23  -1
    x....301  CNS...35  1
    x....301  UC...301  1
    x....302  OBJ       9
    x....302  CNS...23  1
    x....302  CNS...35  -1
    x....302  UC...302  1
    x....303  OBJ       7
    x....303  CNS...23  -1
    x....303  CNS...28  1
    x....303  UC...303  1
    x....304  OBJ       8
    x....304  CNS...23  1
    x....304  CNS...28  -1
    x....304  UC...304  1
    x....305  OBJ       7
    x....305  CNS...23  -1
    x....305  CNS...24  1
    x....305  UC...305  1
    x....306  OBJ       9
    x....306  CNS...23  1
    x....306  CNS...24  -1
    x....306  UC...306  1
    x....307  OBJ       2
    x....307  CNS...23  -1
    x....307  CNS...26  1
    x....307  UC...307  1
    x....308  OBJ       5
    x....308  CNS...23  1
    x....308  CNS...26  -1
    x....308  UC...308  1
    x....309  CNS...24  -1
    x....309  CNS...26  1
    x....309  UC...309  1
    x....310  OBJ       2
    x....310  CNS...24  1
    x....310  CNS...26  -1
    x....310  UC...310  1
    x....311  CNS...25  -1
    x....311  CNS...68  1
    x....311  UC...311  1
    x....312  OBJ       7
    x....312  CNS...25  1
    x....312  CNS...68  -1
    x....312  UC...312  1
    x....313  OBJ       1
    x....313  CNS...25  -1
    x....313  CNS...36  1
    x....313  UC...313  1
    x....314  OBJ       10
    x....314  CNS...25  1
    x....314  CNS...36  -1
    x....314  UC...314  1
    x....315  OBJ       5
    x....315  CNS...25  -1
    x....315  CNS...56  1
    x....315  UC...315  1
    x....316  OBJ       10
    x....316  CNS...25  1
    x....316  CNS...56  -1
    x....316  UC...316  1
    x....317  OBJ       10
    x....317  CNS...25  -1
    x....317  CNS...54  1
    x....317  UC...317  1
    x....318  OBJ       8
    x....318  CNS...25  1
    x....318  CNS...54  -1
    x....318  UC...318  1
    x....319  OBJ       3
    x....319  CNS...25  -1
    x....319  CNS...52  1
    x....319  UC...319  1
    x....320  OBJ       3
    x....320  CNS...25  1
    x....320  CNS...52  -1
    x....320  UC...320  1
    x....321  OBJ       4
    x....321  CNS...25  -1
    x....321  CNS...77  1
    x....321  UC...321  1
    x....322  OBJ       5
    x....322  CNS...25  1
    x....322  CNS...77  -1
    x....322  UC...322  1
    x....323  OBJ       7
    x....323  CNS...28  -1
    x....323  CNS...50  1
    x....323  UC...323  1
    x....324  OBJ       1
    x....324  CNS...28  1
    x....324  CNS...50  -1
    x....324  UC...324  1
    x....325  OBJ       2
    x....325  CNS...28  -1
    x....325  CNS...35  1
    x....325  UC...325  1
    x....326  OBJ       2
    x....326  CNS...28  1
    x....326  CNS...35  -1
    x....326  UC...326  1
    x....328  OBJ       7
    x....328  UC...293  1
    x....328  CNS...22  -1
    x....328  CNS...29  1
    x....329  OBJ       7
    x....329  CNS...29  -1
    x....329  CNS...47  1
    x....329  UC...329  1
    x....330  OBJ       9
    x....330  CNS...29  1
    x....330  CNS...47  -1
    x....330  UC...330  1
    x....331  OBJ       2
    x....331  CNS...29  -1
    x....331  CNS...30  1
    x....331  UC...331  1
    x....332  OBJ       6
    x....332  CNS...29  1
    x....332  CNS...30  -1
    x....332  UC...332  1
    x....333  OBJ       10
    x....333  CNS...29  -1
    x....333  CNS...53  1
    x....333  UC...333  1
    x....334  OBJ       7
    x....334  CNS...29  1
    x....334  CNS...53  -1
    x....334  UC...334  1
    x....336  OBJ       10
    x....336  CNS...01  -1
    x....336  CNS...29  1
    x....336  UC...336  1
    x....337  CNS...30  -1
    x....337  CNS...53  1
    x....337  UC...337  1
    x....338  OBJ       5
    x....338  CNS...30  1
    x....338  CNS...53  -1
    x....338  UC...338  1
    x....339  OBJ       5
    x....339  CNS...30  -1
    x....339  CNS...47  1
    x....339  UC...339  1
    x....340  OBJ       9
    x....340  CNS...30  1
    x....340  CNS...47  -1
    x....340  UC...340  1
    x....341  OBJ       2
    x....341  CNS...30  -1
    x....341  CNS...58  1
    x....341  UC...341  1
    x....342  OBJ       5
    x....342  CNS...30  1
    x....342  CNS...58  -1
    x....342  UC...342  1
    x....343  OBJ       10
    x....343  CNS...32  -1
    x....343  CNS...57  1
    x....343  UC...343  1
    x....344  OBJ       4
    x....344  CNS...32  1
    x....344  CNS...57  -1
    x....344  UC...344  1
    x....345  OBJ       6
    x....345  CNS...32  -1
    x....345  CNS...75  1
    x....345  UC...345  1
    x....346  OBJ       4
    x....346  CNS...32  1
    x....346  CNS...75  -1
    x....346  UC...346  1
    x....347  OBJ       7
    x....347  CNS...32  -1
    x....347  CNS...42  1
    x....347  UC...347  1
    x....348  OBJ       7
    x....348  CNS...32  1
    x....348  CNS...42  -1
    x....348  UC...348  1
    x....349  OBJ       2
    x....349  CNS...32  -1
    x....349  CNS...39  1
    x....349  UC...349  1
    x....350  OBJ       2
    x....350  CNS...32  1
    x....350  CNS...39  -1
    x....350  UC...350  1
    x....351  OBJ       4
    x....351  CNS...33  -1
    x....351  CNS...46  1
    x....351  UC...351  1
    x....352  OBJ       10
    x....352  CNS...33  1
    x....352  CNS...46  -1
    x....352  UC...352  1
    x....353  CNS...33  -1
    x....353  CNS...44  1
    x....353  UC...353  1
    x....354  OBJ       3
    x....354  CNS...33  1
    x....354  CNS...44  -1
    x....354  UC...354  1
    x....355  OBJ       2
    x....355  CNS...34  -1
    x....355  CNS...45  1
    x....355  UC...355  1
    x....356  OBJ       9
    x....356  CNS...34  1
    x....356  CNS...45  -1
    x....356  UC...356  1
    x....357  OBJ       3
    x....357  CNS...34  -1
    x....357  CNS...37  1
    x....357  UC...357  1
    x....358  OBJ       7
    x....358  CNS...34  1
    x....358  CNS...37  -1
    x....358  UC...358  1
    x....361  OBJ       8
    x....361  CNS...34  -1
    x....361  CNS...64  1
    x....361  UC...361  1
    x....362  OBJ       4
    x....362  CNS...34  1
    x....362  CNS...64  -1
    x....362  UC...362  1
    x....364  OBJ       7
    x....364  CNS...23  -1
    x....364  CNS...35  1
    x....364  UC...364  1
    x....365  OBJ       6
    x....365  CNS...36  -1
    x....365  CNS...56  1
    x....365  UC...365  1
    x....366  OBJ       3
    x....366  CNS...36  1
    x....366  CNS...56  -1
    x....366  UC...366  1
    x....367  OBJ       4
    x....367  CNS...36  -1
    x....367  CNS...68  1
    x....367  UC...367  1
    x....368  OBJ       1
    x....368  CNS...36  1
    x....368  CNS...68  -1
    x....368  UC...368  1
    x....369  OBJ       9
    x....369  CNS...37  -1
    x....369  CNS...45  1
    x....369  UC...369  1
    x....370  OBJ       10
    x....370  CNS...37  1
    x....370  CNS...45  -1
    x....370  UC...370  1
    x....371  OBJ       10
    x....371  CNS...39  -1
    x....371  CNS...42  1
    x....371  UC...371  1
    x....372  OBJ       2
    x....372  CNS...39  1
    x....372  CNS...42  -1
    x....372  UC...372  1
    x....373  CNS...40  -1
    x....373  CNS...43  1
    x....373  UC...373  1
    x....374  OBJ       10
    x....374  CNS...40  1
    x....374  CNS...43  -1
    x....374  UC...374  1
    x....375  OBJ       5
    x....375  CNS...40  -1
    x....375  CNS...73  1
    x....375  UC...375  1
    x....376  OBJ       1
    x....376  CNS...40  1
    x....376  CNS...73  -1
    x....376  UC...376  1
    x....377  OBJ       3
    x....377  CNS...40  -1
    x....377  CNS...70  1
    x....377  UC...377  1
    x....378  OBJ       4
    x....378  CNS...40  1
    x....378  CNS...70  -1
    x....378  UC...378  1
    x....379  OBJ       6
    x....379  CNS...42  -1
    x....379  CNS...75  1
    x....379  UC...379  1
    x....380  OBJ       4
    x....380  CNS...42  1
    x....380  CNS...75  -1
    x....380  UC...380  1
    x....381  OBJ       10
    x....381  CNS...44  -1
    x....381  CNS...55  1
    x....381  UC...381  1
    x....382  OBJ       7
    x....382  CNS...44  1
    x....382  CNS...55  -1
    x....382  UC...382  1
    x....385  OBJ       7
    x....385  CNS...52  -1
    x....385  CNS...65  1
    x....385  UC...385  1
    x....386  OBJ       7
    x....386  CNS...52  1
    x....386  CNS...65  -1
    x....386  UC...386  1
    x....387  CNS...52  -1
    x....387  CNS...54  1
    x....387  UC...387  1
    x....388  OBJ       7
    x....388  CNS...52  1
    x....388  CNS...54  -1
    x....388  UC...388  1
    x....389  OBJ       9
    x....389  CNS...55  -1
    x....389  CNS...63  1
    x....389  UC...389  1
    x....390  OBJ       10
    x....390  CNS...55  1
    x....390  CNS...63  -1
    x....390  UC...390  1
    x....391  OBJ       2
    x....391  CNS...59  -1
    x....391  CNS...69  1
    x....391  UC...391  1
    x....392  OBJ       9
    x....392  CNS...59  1
    x....392  CNS...69  -1
    x....392  UC...392  1
    x....393  OBJ       2
    x....393  CNS...61  -1
    x....393  CNS...70  1
    x....393  UC...393  1
    x....394  CNS...61  1
    x....394  CNS...70  -1
    x....394  UC...394  1
    x....395  OBJ       3
    x....395  CNS...61  -1
    x....395  CNS...73  1
    x....395  UC...395  1
    x....396  OBJ       7
    x....396  CNS...61  1
    x....396  CNS...73  -1
    x....396  UC...396  1
    x....397  OBJ       6
    x....397  CNS...69  -1
    x....397  CNS...72  1
    x....397  UC...397  1
    x....398  OBJ       6
    x....398  CNS...69  1
    x....398  CNS...72  -1
    x....398  UC...398  1
    x....399  OBJ       3
    x....399  CNS...70  -1
    x....399  CNS...73  1
    x....399  UC...399  1
    x....400  OBJ       3
    x....400  CNS...70  1
    x....400  CNS...73  -1
    x....400  UC...400  1
    MARKER    'MARKER'                 'INTORG'
    y....001  OBJ       900
    y....001  UC...001  -800
    y....002  OBJ       770
    y....002  UC...002  -800
    y....003  OBJ       640
    y....003  UC...003  -800
    y....004  OBJ       770
    y....004  UC...004  -800
    y....005  OBJ       560
    y....005  UC...005  -800
    y....006  OBJ       710
    y....006  UC...006  -800
    y....007  OBJ       950
    y....007  UC...007  -800
    y....008  OBJ       930
    y....008  UC...008  -800
    y....009  OBJ       570
    y....009  UC...009  -800
    y....010  OBJ       1000
    y....010  UC...010  -800
    y....011  OBJ       510
    y....011  UC...011  -800
    y....012  OBJ       810
    y....012  UC...012  -800
    y....013  OBJ       770
    y....013  UC...013  -800
    y....014  OBJ       700
    y....014  UC...014  -800
    y....015  OBJ       930
    y....015  UC...015  -800
    y....016  OBJ       760
    y....016  UC...016  -800
    y....017  OBJ       610
    y....017  UC...017  -800
    y....018  OBJ       500
    y....018  UC...018  -800
    y....019  OBJ       570
    y....019  UC...019  -800
    y....020  OBJ       850
    y....020  UC...020  -800
    y....021  OBJ       950
    y....021  UC...021  -800
    y....022  OBJ       790
    y....022  UC...022  -800
    y....023  OBJ       910
    y....023  UC...023  -800
    y....024  OBJ       900
    y....024  UC...024  -800
    y....025  OBJ       840
    y....025  UC...025  -800
    y....026  OBJ       670
    y....026  UC...026  -800
    y....027  OBJ       860
    y....027  UC...027  -800
    y....028  OBJ       900
    y....028  UC...028  -800
    y....029  OBJ       900
    y....029  UC...029  -800
    y....030  OBJ       930
    y....030  UC...030  -800
    y....031  OBJ       900
    y....031  UC...031  -800
    y....032  OBJ       730
    y....032  UC...032  -800
    y....033  OBJ       890
    y....033  UC...033  -800
    y....034  OBJ       860
    y....034  UC...034  -800
    y....035  OBJ       900
    y....035  UC...035  -800
    y....036  OBJ       660
    y....036  UC...036  -800
    y....037  OBJ       680
    y....037  UC...037  -800
    y....038  OBJ       940
    y....038  UC...038  -800
    y....039  OBJ       640
    y....039  UC...039  -800
    y....040  OBJ       540
    y....040  UC...040  -800
    y....041  OBJ       980
    y....041  UC...041  -800
    y....042  OBJ       810
    y....042  UC...042  -800
    y....044  OBJ       1760
    y....044  UC...044  -800
    y....045  OBJ       760
    y....045  UC...045  -800
    y....046  OBJ       850
    y....046  UC...046  -800
    y....047  OBJ       980
    y....047  UC...047  -800
    y....048  OBJ       870
    y....048  UC...048  -800
    y....049  OBJ       1000
    y....049  UC...049  -800
    y....050  OBJ       610
    y....050  UC...050  -800
    y....051  OBJ       640
    y....051  UC...051  -800
    y....052  OBJ       520
    y....052  UC...052  -800
    y....055  OBJ       640
    y....055  UC...055  -800
    y....056  OBJ       840
    y....056  UC...056  -800
    y....057  OBJ       940
    y....057  UC...057  -800
    y....058  OBJ       560
    y....058  UC...058  -800
    y....059  OBJ       570
    y....059  UC...059  -800
    y....060  OBJ       620
    y....060  UC...060  -800
    y....061  OBJ       570
    y....061  UC...061  -800
    y....062  OBJ       680
    y....062  UC...062  -800
    y....063  OBJ       820
    y....063  UC...063  -800
    y....064  OBJ       500
    y....064  UC...064  -800
    y....065  OBJ       520
    y....065  UC...065  -800
    y....066  OBJ       860
    y....066  UC...066  -800
    y....067  OBJ       980
    y....067  UC...067  -800
    y....068  OBJ       930
    y....068  UC...068  -800
    y....069  OBJ       620
    y....069  UC...069  -800
    y....070  OBJ       930
    y....070  UC...070  -800
    y....071  OBJ       640
    y....071  UC...071  -800
    y....072  OBJ       860
    y....072  UC...072  -800
    y....073  OBJ       740
    y....073  UC...073  -800
    y....074  OBJ       920
    y....074  UC...074  -800
    y....075  OBJ       780
    y....075  UC...075  -800
    y....076  OBJ       600
    y....076  UC...076  -800
    y....077  OBJ       620
    y....077  UC...077  -800
    y....078  OBJ       920
    y....078  UC...078  -800
    y....079  OBJ       810
    y....079  UC...079  -800
    y....080  OBJ       920
    y....080  UC...080  -800
    y....081  OBJ       820
    y....081  UC...081  -800
    y....082  OBJ       940
    y....082  UC...082  -800
    y....083  OBJ       880
    y....083  UC...083  -800
    y....084  OBJ       1000
    y....084  UC...084  -800
    y....085  OBJ       520
    y....085  UC...085  -800
    y....086  OBJ       560
    y....086  UC...086  -800
    y....087  OBJ       740
    y....087  UC...087  -800
    y....088  OBJ       540
    y....088  UC...088  -800
    y....089  OBJ       740
    y....089  UC...089  -800
    y....090  OBJ       500
    y....090  UC...090  -800
    y....091  OBJ       900
    y....091  UC...091  -800
    y....092  OBJ       600
    y....092  UC...092  -800
    y....093  OBJ       630
    y....093  UC...093  -800
    y....094  OBJ       960
    y....094  UC...094  -800
    y....095  OBJ       760
    y....095  UC...095  -800
    y....096  OBJ       640
    y....096  UC...096  -800
    y....097  OBJ       750
    y....097  UC...097  -800
    y....098  OBJ       640
    y....098  UC...098  -800
    y....099  OBJ       950
    y....099  UC...099  -800
    y....100  OBJ       840
    y....100  UC...100  -800
    y....101  OBJ       850
    y....101  UC...101  -800
    y....102  OBJ       640
    y....102  UC...102  -800
    y....103  OBJ       830
    y....103  UC...103  -800
    y....104  OBJ       800
    y....104  UC...104  -800
    y....105  OBJ       760
    y....105  UC...105  -800
    y....106  OBJ       680
    y....106  UC...106  -800
    y....107  OBJ       830
    y....107  UC...107  -800
    y....108  OBJ       530
    y....108  UC...108  -800
    y....109  OBJ       540
    y....109  UC...109  -800
    y....110  OBJ       790
    y....110  UC...110  -800
    y....111  OBJ       550
    y....111  UC...111  -800
    y....112  OBJ       900
    y....112  UC...112  -800
    y....113  OBJ       600
    y....113  UC...113  -800
    y....114  OBJ       790
    y....114  UC...114  -800
    y....115  OBJ       770
    y....115  UC...115  -800
    y....116  OBJ       930
    y....116  UC...116  -800
    y....117  OBJ       740
    y....117  UC...117  -800
    y....118  OBJ       590
    y....118  UC...118  -800
    y....120  OBJ       1620
    y....120  UC...120  -800
    y....121  OBJ       830
    y....121  UC...121  -800
    y....122  OBJ       860
    y....122  UC...122  -800
    y....123  OBJ       960
    y....123  UC...123  -800
    y....124  OBJ       610
    y....124  UC...124  -800
    y....125  OBJ       890
    y....125  UC...125  -800
    y....126  OBJ       850
    y....126  UC...126  -800
    y....127  OBJ       990
    y....127  UC...127  -800
    y....128  OBJ       720
    y....128  UC...128  -800
    y....129  OBJ       700
    y....129  UC...129  -800
    y....130  OBJ       650
    y....130  UC...130  -800
    y....131  OBJ       780
    y....131  UC...131  -800
    y....132  OBJ       930
    y....132  UC...132  -800
    y....133  OBJ       850
    y....133  UC...133  -800
    y....134  OBJ       940
    y....134  UC...134  -800
    y....135  OBJ       550
    y....135  UC...135  -800
    y....136  OBJ       750
    y....136  UC...136  -800
    y....137  OBJ       980
    y....137  UC...137  -800
    y....138  OBJ       760
    y....138  UC...138  -800
    y....139  OBJ       750
    y....139  UC...139  -800
    y....140  OBJ       620
    y....140  UC...140  -800
    y....141  OBJ       820
    y....141  UC...141  -800
    y....142  OBJ       590
    y....142  UC...142  -800
    y....143  OBJ       980
    y....143  UC...143  -800
    y....144  OBJ       810
    y....144  UC...144  -800
    y....145  OBJ       720
    y....145  UC...145  -800
    y....146  OBJ       520
    y....146  UC...146  -800
    y....147  OBJ       1000
    y....147  UC...147  -800
    y....148  OBJ       620
    y....148  UC...148  -800
    y....149  OBJ       530
    y....149  UC...149  -800
    y....150  OBJ       940
    y....150  UC...150  -800
    y....151  OBJ       980
    y....151  UC...151  -800
    y....152  OBJ       950
    y....152  UC...152  -800
    y....153  OBJ       950
    y....153  UC...153  -800
    y....154  OBJ       540
    y....154  UC...154  -800
    y....155  OBJ       970
    y....155  UC...155  -800
    y....156  OBJ       530
    y....156  UC...156  -800
    y....157  OBJ       700
    y....157  UC...157  -800
    y....158  OBJ       530
    y....158  UC...158  -800
    y....159  OBJ       540
    y....159  UC...159  -800
    y....160  OBJ       500
    y....160  UC...160  -800
    y....161  OBJ       860
    y....161  UC...161  -800
    y....162  OBJ       550
    y....162  UC...162  -800
    y....163  OBJ       990
    y....163  UC...163  -800
    y....164  OBJ       760
    y....164  UC...164  -800
    y....165  OBJ       710
    y....165  UC...165  -800
    y....166  OBJ       710
    y....166  UC...166  -800
    y....167  OBJ       890
    y....167  UC...167  -800
    y....168  OBJ       730
    y....168  UC...168  -800
    y....169  OBJ       940
    y....169  UC...169  -800
    y....170  OBJ       710
    y....170  UC...170  -800
    y....171  OBJ       750
    y....171  UC...171  -800
    y....172  OBJ       680
    y....172  UC...172  -800
    y....174  OBJ       1840
    y....174  UC...174  -800
    y....175  OBJ       540
    y....175  UC...175  -800
    y....176  OBJ       850
    y....176  UC...176  -800
    y....177  OBJ       1000
    y....177  UC...177  -800
    y....178  OBJ       760
    y....178  UC...178  -800
    y....179  OBJ       930
    y....179  UC...179  -800
    y....180  OBJ       730
    y....180  UC...180  -800
    y....181  OBJ       880
    y....181  UC...181  -800
    y....182  OBJ       660
    y....182  UC...182  -800
    y....183  OBJ       850
    y....183  UC...183  -800
    y....184  OBJ       900
    y....184  UC...184  -800
    y....185  OBJ       610
    y....185  UC...185  -800
    y....186  OBJ       580
    y....186  UC...186  -800
    y....187  OBJ       970
    y....187  UC...187  -800
    y....188  OBJ       700
    y....188  UC...188  -800
    y....189  OBJ       650
    y....189  UC...189  -800
    y....190  OBJ       550
    y....190  UC...190  -800
    y....191  OBJ       900
    y....191  UC...191  -800
    y....192  OBJ       740
    y....192  UC...192  -800
    y....193  OBJ       850
    y....193  UC...193  -800
    y....194  OBJ       620
    y....194  UC...194  -800
    y....195  OBJ       970
    y....195  UC...195  -800
    y....196  OBJ       860
    y....196  UC...196  -800
    y....197  OBJ       940
    y....197  UC...197  -800
    y....198  OBJ       780
    y....198  UC...198  -800
    y....199  OBJ       680
    y....199  UC...199  -800
    y....200  OBJ       830
    y....200  UC...200  -800
    y....201  OBJ       790
    y....201  UC...201  -800
    y....202  OBJ       640
    y....202  UC...202  -800
    y....204  OBJ       1660
    y....204  UC...204  -800
    y....205  OBJ       890
    y....205  UC...205  -800
    y....206  OBJ       990
    y....206  UC...206  -800
    y....207  OBJ       720
    y....207  UC...207  -800
    y....208  OBJ       520
    y....208  UC...208  -800
    y....210  OBJ       1790
    y....210  UC...210  -800
    y....211  OBJ       930
    y....211  UC...211  -800
    y....212  OBJ       790
    y....212  UC...212  -800
    y....213  OBJ       760
    y....213  UC...213  -800
    y....214  OBJ       780
    y....214  UC...214  -800
    y....215  OBJ       800
    y....215  UC...215  -800
    y....216  OBJ       510
    y....216  UC...216  -800
    y....217  OBJ       700
    y....217  UC...217  -800
    y....218  OBJ       560
    y....218  UC...218  -800
    y....219  OBJ       900
    y....219  UC...219  -800
    y....220  OBJ       730
    y....220  UC...220  -800
    y....221  OBJ       880
    y....221  UC...221  -800
    y....222  OBJ       590
    y....222  UC...222  -800
    y....223  OBJ       540
    y....223  UC...223  -800
    y....224  OBJ       620
    y....224  UC...224  -800
    y....225  OBJ       930
    y....225  UC...225  -800
    y....226  OBJ       860
    y....226  UC...226  -800
    y....227  OBJ       760
    y....227  UC...227  -800
    y....228  OBJ       910
    y....228  UC...228  -800
    y....229  OBJ       980
    y....229  UC...229  -800
    y....230  OBJ       660
    y....230  UC...230  -800
    y....231  OBJ       700
    y....231  UC...231  -800
    y....232  OBJ       930
    y....232  UC...232  -800
    y....233  OBJ       930
    y....233  UC...233  -800
    y....234  OBJ       970
    y....234  UC...234  -800
    y....235  OBJ       920
    y....235  UC...235  -800
    y....236  OBJ       650
    y....236  UC...236  -800
    y....237  OBJ       940
    y....237  UC...237  -800
    y....238  OBJ       720
    y....238  UC...238  -800
    y....239  OBJ       620
    y....239  UC...239  -800
    y....240  OBJ       570
    y....240  UC...240  -800
    y....241  OBJ       990
    y....241  UC...241  -800
    y....242  OBJ       630
    y....242  UC...242  -800
    y....243  OBJ       700
    y....243  UC...243  -800
    y....244  OBJ       900
    y....244  UC...244  -800
    y....245  OBJ       590
    y....245  UC...245  -800
    y....246  OBJ       610
    y....246  UC...246  -800
    y....247  OBJ       540
    y....247  UC...247  -800
    y....248  OBJ       540
    y....248  UC...248  -800
    y....249  OBJ       940
    y....249  UC...249  -800
    y....250  OBJ       930
    y....250  UC...250  -800
    y....251  OBJ       830
    y....251  UC...251  -800
    y....252  OBJ       990
    y....252  UC...252  -800
    y....253  OBJ       950
    y....253  UC...253  -800
    y....254  OBJ       870
    y....254  UC...254  -800
    y....255  OBJ       630
    y....255  UC...255  -800
    y....256  OBJ       580
    y....256  UC...256  -800
    y....257  OBJ       500
    y....257  UC...257  -800
    y....258  OBJ       540
    y....258  UC...258  -800
    y....259  OBJ       800
    y....259  UC...259  -800
    y....260  OBJ       650
    y....260  UC...260  -800
    y....261  OBJ       820
    y....261  UC...261  -800
    y....262  OBJ       840
    y....262  UC...262  -800
    y....263  OBJ       510
    y....263  UC...263  -800
    y....264  OBJ       960
    y....264  UC...264  -800
    y....266  OBJ       1520
    y....266  UC...266  -800
    y....267  OBJ       830
    y....267  UC...267  -800
    y....268  OBJ       890
    y....268  UC...268  -800
    y....269  OBJ       890
    y....269  UC...269  -800
    y....270  OBJ       930
    y....270  UC...270  -800
    y....271  OBJ       710
    y....271  UC...271  -800
    y....272  OBJ       520
    y....272  UC...272  -800
    y....273  OBJ       590
    y....273  UC...273  -800
    y....274  OBJ       580
    y....274  UC...274  -800
    y....275  OBJ       750
    y....275  UC...275  -800
    y....276  OBJ       600
    y....276  UC...276  -800
    y....277  OBJ       740
    y....277  UC...277  -800
    y....278  OBJ       700
    y....278  UC...278  -800
    y....279  OBJ       590
    y....279  UC...279  -800
    y....280  OBJ       610
    y....280  UC...280  -800
    y....281  OBJ       690
    y....281  UC...281  -800
    y....282  OBJ       500
    y....282  UC...282  -800
    y....283  OBJ       810
    y....283  UC...283  -800
    y....284  OBJ       800
    y....284  UC...284  -800
    y....285  OBJ       790
    y....285  UC...285  -800
    y....286  OBJ       990
    y....286  UC...286  -800
    y....287  OBJ       710
    y....287  UC...287  -800
    y....288  OBJ       740
    y....288  UC...288  -800
    y....289  OBJ       860
    y....289  UC...289  -800
    y....290  OBJ       700
    y....290  UC...290  -800
    y....291  OBJ       950
    y....291  UC...291  -800
    y....292  OBJ       830
    y....292  UC...292  -800
    y....293  OBJ       1540
    y....293  UC...293  -800
    y....295  OBJ       740
    y....295  UC...295  -800
    y....296  OBJ       760
    y....296  UC...296  -800
    y....297  OBJ       850
    y....297  UC...297  -800
    y....298  OBJ       500
    y....298  UC...298  -800
    y....301  OBJ       990
    y....301  UC...301  -800
    y....302  OBJ       730
    y....302  UC...302  -800
    y....303  OBJ       920
    y....303  UC...303  -800
    y....304  OBJ       590
    y....304  UC...304  -800
    y....305  OBJ       500
    y....305  UC...305  -800
    y....306  OBJ       740
    y....306  UC...306  -800
    y....307  OBJ       930
    y....307  UC...307  -800
    y....308  OBJ       920
    y....308  UC...308  -800
    y....309  OBJ       820
    y....309  UC...309  -800
    y....310  OBJ       820
    y....310  UC...310  -800
    y....311  OBJ       630
    y....311  UC...311  -800
    y....312  OBJ       630
    y....312  UC...312  -800
    y....313  OBJ       760
    y....313  UC...313  -800
    y....314  OBJ       990
    y....314  UC...314  -800
    y....315  OBJ       830
    y....315  UC...315  -800
    y....316  OBJ       690
    y....316  UC...316  -800
    y....317  OBJ       560
    y....317  UC...317  -800
    y....318  OBJ       530
    y....318  UC...318  -800
    y....319  OBJ       670
    y....319  UC...319  -800
    y....320  OBJ       690
    y....320  UC...320  -800
    y....321  OBJ       830
    y....321  UC...321  -800
    y....322  OBJ       940
    y....322  UC...322  -800
    y....323  OBJ       560
    y....323  UC...323  -800
    y....324  OBJ       900
    y....324  UC...324  -800
    y....325  OBJ       800
    y....325  UC...325  -800
    y....326  OBJ       620
    y....326  UC...326  -800
    y....327  OBJ       1570
    y....327  UC...327  -800
    y....329  OBJ       710
    y....329  UC...329  -800
    y....330  OBJ       840
    y....330  UC...330  -800
    y....331  OBJ       940
    y....331  UC...331  -800
    y....332  OBJ       630
    y....332  UC...332  -800
    y....333  OBJ       680
    y....333  UC...333  -800
    y....334  OBJ       890
    y....334  UC...334  -800
    y....335  OBJ       1900
    y....335  UC...335  -800
    y....336  OBJ       1240
    y....336  UC...336  -800
    y....337  OBJ       900
    y....337  UC...337  -800
    y....338  OBJ       530
    y....338  UC...338  -800
    y....339  OBJ       720
    y....339  UC...339  -800
    y....340  OBJ       810
    y....340  UC...340  -800
    y....341  OBJ       830
    y....341  UC...341  -800
    y....342  OBJ       670
    y....342  UC...342  -800
    y....343  OBJ       730
    y....343  UC...343  -800
    y....344  OBJ       880
    y....344  UC...344  -800
    y....345  OBJ       760
    y....345  UC...345  -800
    y....346  OBJ       980
    y....346  UC...346  -800
    y....347  OBJ       700
    y....347  UC...347  -800
    y....348  OBJ       550
    y....348  UC...348  -800
    y....349  OBJ       970
    y....349  UC...349  -800
    y....350  OBJ       880
    y....350  UC...350  -800
    y....351  OBJ       730
    y....351  UC...351  -800
    y....352  OBJ       750
    y....352  UC...352  -800
    y....353  OBJ       1000
    y....353  UC...353  -800
    y....354  OBJ       690
    y....354  UC...354  -800
    y....355  OBJ       630
    y....355  UC...355  -800
    y....356  OBJ       810
    y....356  UC...356  -800
    y....357  OBJ       900
    y....357  UC...357  -800
    y....358  OBJ       890
    y....358  UC...358  -800
    y....361  OBJ       890
    y....361  UC...361  -800
    y....362  OBJ       620
    y....362  UC...362  -800
    y....363  OBJ       1300
    y....363  UC...363  -800
    y....364  OBJ       1290
    y....364  UC...364  -800
    y....365  OBJ       700
    y....365  UC...365  -800
    y....366  OBJ       680
    y....366  UC...366  -800
    y....367  OBJ       520
    y....367  UC...367  -800
    y....368  OBJ       940
    y....368  UC...368  -800
    y....369  OBJ       870
    y....369  UC...369  -800
    y....370  OBJ       720
    y....370  UC...370  -800
    y....371  OBJ       800
    y....371  UC...371  -800
    y....372  OBJ       920
    y....372  UC...372  -800
    y....373  OBJ       930
    y....373  UC...373  -800
    y....374  OBJ       880
    y....374  UC...374  -800
    y....375  OBJ       940
    y....375  UC...375  -800
    y....376  OBJ       500
    y....376  UC...376  -800
    y....377  OBJ       600
    y....377  UC...377  -800
    y....378  OBJ       1000
    y....378  UC...378  -800
    y....379  OBJ       570
    y....379  UC...379  -800
    y....380  OBJ       610
    y....380  UC...380  -800
    y....381  OBJ       710
    y....381  UC...381  -800
    y....382  OBJ       670
    y....382  UC...382  -800
    y....385  OBJ       670
    y....385  UC...385  -800
    y....386  OBJ       1000
    y....386  UC...386  -800
    y....387  OBJ       860
    y....387  UC...387  -800
    y....388  OBJ       590
    y....388  UC...388  -800
    y....389  OBJ       740
    y....389  UC...389  -800
    y....390  OBJ       940
    y....390  UC...390  -800
    y....391  OBJ       800
    y....391  UC...391  -800
    y....392  OBJ       880
    y....392  UC...392  -800
    y....393  OBJ       860
    y....393  UC...393  -800
    y....394  OBJ       770
    y....394  UC...394  -800
    y....395  OBJ       1000
    y....395  UC...395  -800
    y....396  OBJ       700
    y....396  UC...396  -800
    y....397  OBJ       980
    y....397  UC...397  -800
    y....398  OBJ       760
    y....398  UC...398  -800
    y....399  OBJ       880
    y....399  UC...399  -800
    y....400  OBJ       580
    y....400  UC...400  -800
    MARKER    'MARKER'                 'INTEND'
RHS
    RHS1      CNS...01  -10
    RHS1      CNS...02  10
    RHS1      CNS...04  -19
    RHS1      CNS...05  -13
    RHS1      CNS...06  -8
    RHS1      CNS...07  -25
    RHS1      CNS...08  17
    RHS1      CNS...10  -39
    RHS1      CNS...13  -24
    RHS1      CNS...15  -30
    RHS1      CNS...16  -34
    RHS1      CNS...17  -13
    RHS1      CNS...18  -15
    RHS1      CNS...20  169
    RHS1      CNS...23  -9
    RHS1      CNS...27  15
    RHS1      CNS...30  -44
    RHS1      CNS...32  -51
    RHS1      CNS...35  42
    RHS1      CNS...37  48
    RHS1      CNS...38  -15
    RHS1      CNS...39  -29
    RHS1      CNS...41  -11
    RHS1      CNS...43  -14
    RHS1      CNS...44  13
    RHS1      CNS...45  -31
    RHS1      CNS...46  -45
    RHS1      CNS...47  -26
    RHS1      CNS...48  89
    RHS1      CNS...50  -45
    RHS1      CNS...52  -62
    RHS1      CNS...55  -5
    RHS1      CNS...56  -25
    RHS1      CNS...57  127
    RHS1      CNS...58  -48
    RHS1      CNS...61  -24
    RHS1      CNS...62  44
    RHS1      CNS...65  20
    RHS1      CNS...68  -13
    RHS1      CNS...69  -52
    RHS1      CNS...70  40
    RHS1      CNS...72  -21
    RHS1      CNS...73  42
    RHS1      CNS...75  74
    RHS1      CNS...76  50
BOUNDS
 UP BND1      x....001  800
 UP BND1      x....002  800
 UP BND1      x....003  800
 UP BND1      x....004  800
 UP BND1      x....005  800
 UP BND1      x....006  800
 UP BND1      x....007  800
 UP BND1      x....008  800
 UP BND1      x....009  800
 UP BND1      x....010  800
 UP BND1      x....011  800
 UP BND1      x....012  800
 UP BND1      x....013  800
 UP BND1      x....014  800
 UP BND1      x....015  800
 UP BND1      x....016  800
 UP BND1      x....017  800
 UP BND1      x....018  800
 UP BND1      x....019  800
 UP BND1      x....020  800
 UP BND1      x....021  800
 UP BND1      x....022  800
 UP BND1      x....023  800
 UP BND1      x....024  800
 UP BND1      x....025  800
 UP BND1      x....026  800
 UP BND1      x....027  800
 UP BND1      x....028  800
 UP BND1      x....029  800
 UP BND1      x....030  800
 UP BND1      x....031  800
 UP BND1      x....032  800
 UP BND1      x....033  800
 UP BND1      x....034  800
 UP BND1      x....035  800
 UP BND1      x....036  800
 UP BND1      x....037  800
 UP BND1      x....038  800
 UP BND1      x....039  800
 UP BND1      x....040  800
 UP BND1      x....041  800
 UP BND1      x....042  800
 UP BND1      x....044  800
 UP BND1      x....045  800
 UP BND1      x....046  800
 UP BND1      x....047  800
 UP BND1      x....048  800
 UP BND1      x....049  800
 UP BND1      x....050  800
 UP BND1      x....051  800
 UP BND1      x....052  800
 UP BND1      x....054  800
 UP BND1      x....055  800
 UP BND1      x....056  800
 UP BND1      x....057  800
 UP BND1      x....058  800
 UP BND1      x....059  800
 UP BND1      x....060  800
 UP BND1      x....061  800
 UP BND1      x....062  800
 UP BND1      x....063  800
 UP BND1      x....064  800
 UP BND1      x....065  800
 UP BND1      x....066  800
 UP BND1      x....067  800
 UP BND1      x....068  800
 UP BND1      x....069  800
 UP BND1      x....070  800
 UP BND1      x....071  800
 UP BND1      x....072  800
 UP BND1      x....073  800
 UP BND1      x....074  800
 UP BND1      x....075  800
 UP BND1      x....076  800
 UP BND1      x....077  800
 UP BND1      x....078  800
 UP BND1      x....079  800
 UP BND1      x....080  800
 UP BND1      x....081  800
 UP BND1      x....082  800
 UP BND1      x....083  800
 UP BND1      x....084  800
 UP BND1      x....085  800
 UP BND1      x....086  800
 UP BND1      x....087  800
 UP BND1      x....088  800
 UP BND1      x....089  800
 UP BND1      x....090  800
 UP BND1      x....091  800
 UP BND1      x....092  800
 UP BND1      x....093  800
 UP BND1      x....094  800
 UP BND1      x....095  800
 UP BND1      x....096  800
 UP BND1      x....097  800
 UP BND1      x....098  800
 UP BND1      x....099  800
 UP BND1      x....100  800
 UP BND1      x....101  800
 UP BND1      x....102  800
 UP BND1      x....103  800
 UP BND1      x....104  800
 UP BND1      x....105  800
 UP BND1      x....106  800
 UP BND1      x....107  800
 UP BND1      x....108  800
 UP BND1      x....109  800
 UP BND1      x....110  800
 UP BND1      x....111  800
 UP BND1      x....112  800
 UP BND1      x....113  800
 UP BND1      x....114  800
 UP BND1      x....115  800
 UP BND1      x....116  800
 UP BND1      x....117  800
 UP BND1      x....118  800
 UP BND1      x....120  800
 UP BND1      x....121  800
 UP BND1      x....122  800
 UP BND1      x....123  800
 UP BND1      x....124  800
 UP BND1      x....125  800
 UP BND1      x....126  800
 UP BND1      x....127  800
 UP BND1      x....128  800
 UP BND1      x....129  800
 UP BND1      x....130  800
 UP BND1      x....131  800
 UP BND1      x....132  800
 UP BND1      x....133  800
 UP BND1      x....134  800
 UP BND1      x....135  800
 UP BND1      x....136  800
 UP BND1      x....137  800
 UP BND1      x....138  800
 UP BND1      x....139  800
 UP BND1      x....140  800
 UP BND1      x....141  800
 UP BND1      x....142  800
 UP BND1      x....143  800
 UP BND1      x....144  800
 UP BND1      x....145  800
 UP BND1      x....146  800
 UP BND1      x....147  800
 UP BND1      x....148  800
 UP BND1      x....149  800
 UP BND1      x....150  800
 UP BND1      x....151  800
 UP BND1      x....152  800
 UP BND1      x....153  800
 UP BND1      x....154  800
 UP BND1      x....155  800
 UP BND1      x....156  800
 UP BND1      x....157  800
 UP BND1      x....158  800
 UP BND1      x....159  800
 UP BND1      x....160  800
 UP BND1      x....161  800
 UP BND1      x....162  800
 UP BND1      x....163  800
 UP BND1      x....164  800
 UP BND1      x....165  800
 UP BND1      x....166  800
 UP BND1      x....167  800
 UP BND1      x....168  800
 UP BND1      x....169  800
 UP BND1      x....170  800
 UP BND1      x....171  800
 UP BND1      x....172  800
 UP BND1      x....174  800
 UP BND1      x....175  800
 UP BND1      x....176  800
 UP BND1      x....177  800
 UP BND1      x....178  800
 UP BND1      x....179  800
 UP BND1      x....180  800
 UP BND1      x....181  800
 UP BND1      x....182  800
 UP BND1      x....183  800
 UP BND1      x....184  800
 UP BND1      x....185  800
 UP BND1      x....186  800
 UP BND1      x....187  800
 UP BND1      x....188  800
 UP BND1      x....189  800
 UP BND1      x....190  800
 UP BND1      x....191  800
 UP BND1      x....192  800
 UP BND1      x....193  800
 UP BND1      x....194  800
 UP BND1      x....195  800
 UP BND1      x....196  800
 UP BND1      x....197  800
 UP BND1      x....198  800
 UP BND1      x....199  800
 UP BND1      x....200  800
 UP BND1      x....201  800
 UP BND1      x....202  800
 UP BND1      x....204  800
 UP BND1      x....205  800
 UP BND1      x....206  800
 UP BND1      x....207  800
 UP BND1      x....208  800
 UP BND1      x....210  800
 UP BND1      x....211  800
 UP BND1      x....212  800
 UP BND1      x....213  800
 UP BND1      x....214  800
 UP BND1      x....215  800
 UP BND1      x....216  800
 UP BND1      x....217  800
 UP BND1      x....218  800
 UP BND1      x....219  800
 UP BND1      x....220  800
 UP BND1      x....221  800
 UP BND1      x....222  800
 UP BND1      x....223  800
 UP BND1      x....224  800
 UP BND1      x....225  800
 UP BND1      x....226  800
 UP BND1      x....227  800
 UP BND1      x....228  800
 UP BND1      x....229  800
 UP BND1      x....230  800
 UP BND1      x....231  800
 UP BND1      x....232  800
 UP BND1      x....233  800
 UP BND1      x....234  800
 UP BND1      x....235  800
 UP BND1      x....236  800
 UP BND1      x....237  800
 UP BND1      x....238  800
 UP BND1      x....239  800
 UP BND1      x....240  800
 UP BND1      x....241  800
 UP BND1      x....242  800
 UP BND1      x....243  800
 UP BND1      x....244  800
 UP BND1      x....245  800
 UP BND1      x....246  800
 UP BND1      x....247  800
 UP BND1      x....248  800
 UP BND1      x....249  800
 UP BND1      x....250  800
 UP BND1      x....251  800
 UP BND1      x....252  800
 UP BND1      x....253  800
 UP BND1      x....254  800
 UP BND1      x....255  800
 UP BND1      x....256  800
 UP BND1      x....257  800
 UP BND1      x....258  800
 UP BND1      x....259  800
 UP BND1      x....260  800
 UP BND1      x....261  800
 UP BND1      x....262  800
 UP BND1      x....263  800
 UP BND1      x....264  800
 UP BND1      x....266  800
 UP BND1      x....267  800
 UP BND1      x....268  800
 UP BND1      x....269  800
 UP BND1      x....270  800
 UP BND1      x....271  800
 UP BND1      x....272  800
 UP BND1      x....273  800
 UP BND1      x....274  800
 UP BND1      x....275  800
 UP BND1      x....276  800
 UP BND1      x....277  800
 UP BND1      x....278  800
 UP BND1      x....279  800
 UP BND1      x....280  800
 UP BND1      x....281  800
 UP BND1      x....282  800
 UP BND1      x....283  800
 UP BND1      x....284  800
 UP BND1      x....285  800
 UP BND1      x....286  800
 UP BND1      x....287  800
 UP BND1      x....288  800
 UP BND1      x....289  800
 UP BND1      x....290  800
 UP BND1      x....291  800
 UP BND1      x....292  800
 UP BND1      x....294  800
 UP BND1      x....295  800
 UP BND1      x....296  800
 UP BND1      x....297  800
 UP BND1      x....298  800
 UP BND1      x....300  800
 UP BND1      x....301  800
 UP BND1      x....302  800
 UP BND1      x....303  800
 UP BND1      x....304  800
 UP BND1      x....305  800
 UP BND1      x....306  800
 UP BND1      x....307  800
 UP BND1      x....308  800
 UP BND1      x....309  800
 UP BND1      x....310  800
 UP BND1      x....311  800
 UP BND1      x....312  800
 UP BND1      x....313  800
 UP BND1      x....314  800
 UP BND1      x....315  800
 UP BND1      x....316  800
 UP BND1      x....317  800
 UP BND1      x....318  800
 UP BND1      x....319  800
 UP BND1      x....320  800
 UP BND1      x....321  800
 UP BND1      x....322  800
 UP BND1      x....323  800
 UP BND1      x....324  800
 UP BND1      x....325  800
 UP BND1      x....326  800
 UP BND1      x....328  800
 UP BND1      x....329  800
 UP BND1      x....330  800
 UP BND1      x....331  800
 UP BND1      x....332  800
 UP BND1      x....333  800
 UP BND1      x....334  800
 UP BND1      x....336  800
 UP BND1      x....337  800
 UP BND1      x....338  800
 UP BND1      x....339  800
 UP BND1      x....340  800
 UP BND1      x....341  800
 UP BND1      x....342  800
 UP BND1      x....343  800
 UP BND1      x....344  800
 UP BND1      x....345  800
 UP BND1      x....346  800
 UP BND1      x....347  800
 UP BND1      x....348  800
 UP BND1      x....349  800
 UP BND1      x....350  800
 UP BND1      x....351  800
 UP BND1      x....352  800
 UP BND1      x....353  800
 UP BND1      x....354  800
 UP BND1      x....355  800
 UP BND1      x....356  800
 UP BND1      x....357  800
 UP BND1      x....358  800
 UP BND1      x....361  800
 UP BND1      x....362  800
 UP BND1      x....364  800
 UP BND1      x....365  800
 UP BND1      x....366  800
 UP BND1      x....367  800
 UP BND1      x....368  800
 UP BND1      x....369  800
 UP BND1      x....370  800
 UP BND1      x....371  800
 UP BND1      x....372  800
 UP BND1      x....373  800
 UP BND1      x....374  800
 UP BND1      x....375  800
 UP BND1      x....376  800
 UP BND1      x....377  800
 UP BND1      x....378  800
 UP BND1      x....379  800
 UP BND1      x....380  800
 UP BND1      x....381  800
 UP BND1      x....382  800
 UP BND1      x....385  800
 UP BND1      x....386  800
 UP BND1      x....387  800
 UP BND1      x....388  800
 UP BND1      x....389  800
 UP BND1      x....390  800
 UP BND1      x....391  800
 UP BND1      x....392  800
 UP BND1      x....393  800
 UP BND1      x....394  800
 UP BND1      x....395  800
 UP BND1      x....396  800
 UP BND1      x....397  800
 UP BND1      x....398  800
 UP BND1      x....399  800
 UP BND1      x....400  800
 BV BND1      y....001
 BV BND1      y....002
 BV BND1      y....003
 BV BND1      y....004
 BV BND1      y....005
 BV BND1      y....006
 BV BND1      y....007
 BV BND1      y....008
 BV BND1      y....009
 BV BND1      y....010
 BV BND1      y....011
 BV BND1      y....012
 BV BND1      y....013
 BV BND1      y....014
 BV BND1      y....015
 BV BND1      y....016
 BV BND1      y....017
 BV BND1      y....018
 BV BND1      y....019
 BV BND1      y....020
 BV BND1      y....021
 BV BND1      y....022
 BV BND1      y....023
 BV BND1      y....024
 BV BND1      y....025
 BV BND1      y....026
 BV BND1      y....027
 BV BND1      y....028
 BV BND1      y....029
 BV BND1      y....030
 BV BND1      y....031
 BV BND1      y....032
 BV BND1      y....033
 BV BND1      y....034
 BV BND1      y....035
 BV BND1      y....036
 BV BND1      y....037
 BV BND1      y....038
 BV BND1      y....039
 BV BND1      y....040
 BV BND1      y....041
 BV BND1      y....042
 BV BND1      y....044
 BV BND1      y....045
 BV BND1      y....046
 BV BND1      y....047
 BV BND1      y....048
 BV BND1      y....049
 BV BND1      y....050
 BV BND1      y....051
 BV BND1      y....052
 BV BND1      y....055
 BV BND1      y....056
 BV BND1      y....057
 BV BND1      y....058
 BV BND1      y....059
 BV BND1      y....060
 BV BND1      y....061
 BV BND1      y....062
 BV BND1      y....063
 BV BND1      y....064
 BV BND1      y....065
 BV BND1      y....066
 BV BND1      y....067
 BV BND1      y....068
 BV BND1      y....069
 BV BND1      y....070
 BV BND1      y....071
 BV BND1      y....072
 BV BND1      y....073
 BV BND1      y....074
 BV BND1      y....075
 BV BND1      y....076
 BV BND1      y....077
 BV BND1      y....078
 BV BND1      y....079
 BV BND1      y....080
 BV BND1      y....081
 BV BND1      y....082
 BV BND1      y....083
 BV BND1      y....084
 BV BND1      y....085
 BV BND1      y....086
 BV BND1      y....087
 BV BND1      y....088
 BV BND1      y....089
 BV BND1      y....090
 BV BND1      y....091
 BV BND1      y....092
 BV BND1      y....093
 BV BND1      y....094
 BV BND1      y....095
 BV BND1      y....096
 BV BND1      y....097
 BV BND1      y....098
 BV BND1      y....099
 BV BND1      y....100
 BV BND1      y....101
 BV BND1      y....102
 BV BND1      y....103
 BV BND1      y....104
 BV BND1      y....105
 BV BND1      y....106
 BV BND1      y....107
 BV BND1      y....108
 BV BND1      y....109
 BV BND1      y....110
 BV BND1      y....111
 BV BND1      y....112
 BV BND1      y....113
 BV BND1      y....114
 BV BND1      y....115
 BV BND1      y....116
 BV BND1      y....117
 BV BND1      y....118
 BV BND1      y....120
 BV BND1      y....121
 BV BND1      y....122
 BV BND1      y....123
 BV BND1      y....124
 BV BND1      y....125
 BV BND1      y....126
 BV BND1      y....127
 BV BND1      y....128
 BV BND1      y....129
 BV BND1      y....130
 BV BND1      y....131
 BV BND1      y....132
 BV BND1      y....133
 BV BND1      y....134
 BV BND1      y....135
 BV BND1      y....136
 BV BND1      y....137
 BV BND1      y....138
 BV BND1      y....139
 BV BND1      y....140
 BV BND1      y....141
 BV BND1      y....142
 BV BND1      y....143
 BV BND1      y....144
 BV BND1      y....145
 BV BND1      y....146
 BV BND1      y....147
 BV BND1      y....148
 BV BND1      y....149
 BV BND1      y....150
 BV BND1      y....151
 BV BND1      y....152
 BV BND1      y....153
 BV BND1      y....154
 BV BND1      y....155
 BV BND1      y....156
 BV BND1      y....157
 BV BND1      y....158
 BV BND1      y....159
 BV BND1      y....160
 BV BND1      y....161
 BV BND1      y....162
 BV BND1      y....163
 BV BND1      y....164
 BV BND1      y....165
 BV BND1      y....166
 BV BND1      y....167
 BV BND1      y....168
 BV BND1      y....169
 BV BND1      y....170
 BV BND1      y....171
 BV BND1      y....172
 BV BND1      y....174
 BV BND1      y....175
 BV BND1      y....176
 BV BND1      y....177
 BV BND1      y....178
 BV BND1      y....179
 BV BND1      y....180
 BV BND1      y....181
 BV BND1      y....182
 BV BND1      y....183
 BV BND1      y....184
 BV BND1      y....185
 BV BND1      y....186
 BV BND1      y....187
 BV BND1      y....188
 BV BND1      y....189
 BV BND1      y....190
 BV BND1      y....191
 BV BND1      y....192
 BV BND1      y....193
 BV BND1      y....194
 BV BND1      y....195
 BV BND1      y....196
 BV BND1      y....197
 BV BND1      y....198
 BV BND1      y....199
 BV BND1      y....200
 BV BND1      y....201
 BV BND1      y....202
 BV BND1      y....204
 BV BND1      y....205
 BV BND1      y....206
 BV BND1      y....207
 BV BND1      y....208
 BV BND1      y....210
 BV BND1      y....211
 BV BND1      y....212
 BV BND1      y....213
 BV BND1      y....214
 BV BND1      y....215
 BV BND1      y....216
 BV BND1      y....217
 BV BND1      y....218
 BV BND1      y....219
 BV BND1      y....220
 BV BND1      y....221
 BV BND1      y....222
 BV BND1      y....223
 BV BND1      y....224
 BV BND1      y....225
 BV BND1      y....226
 BV BND1      y....227
 BV BND1      y....228
 BV BND1      y....229
 BV BND1      y....230
 BV BND1      y....231
 BV BND1      y....232
 BV BND1      y....233
 BV BND1      y....234
 BV BND1      y....235
 BV BND1      y....236
 BV BND1      y....237
 BV BND1      y....238
 BV BND1      y....239
 BV BND1      y....240
 BV BND1      y....241
 BV BND1      y....242
 BV BND1      y....243
 BV BND1      y....244
 BV BND1      y....245
 BV BND1      y....246
 BV BND1      y....247
 BV BND1      y....248
 BV BND1      y....249
 BV BND1      y....250
 BV BND1      y....251
 BV BND1      y....252
 BV BND1      y....253
 BV BND1      y....254
 BV BND1      y....255
 BV BND1      y....256
 BV BND1      y....257
 BV BND1      y....258
 BV BND1      y....259
 BV BND1      y....260
 BV BND1      y....261
 BV BND1      y....262
 BV BND1      y....263
 BV BND1      y....264
 BV BND1      y....266
 BV BND1      y....267
 BV BND1      y....268
 BV BND1      y....269
 BV BND1      y....270
 BV BND1      y....271
 BV BND1      y....272
 BV BND1      y....273
 BV BND1      y....274
 BV BND1      y....275
 BV BND1      y....276
 BV BND1      y....277
 BV BND1      y....278
 BV BND1      y....279
 BV BND1      y....280
 BV BND1      y....281
 BV BND1      y....282
 BV BND1      y....283
 BV BND1      y....284
 BV BND1      y....285
 BV BND1      y....286
 BV BND1      y....287
 BV BND1      y....288
 BV BND1      y....289
 BV BND1      y....290
 BV BND1      y....291
 BV BND1      y....292
 BV BND1      y....293
 BV BND1      y....295
 BV BND1      y....296
 BV BND1      y....297
 BV BND1      y....298
 BV BND1      y....301
 BV BND1      y....302
 BV BND1      y....303
 BV BND1      y....304
 BV BND1      y....305
 BV BND1      y....306
 BV BND1      y....307
 BV BND1      y....308
 BV BND1      y....309
 BV BND1      y....310
 BV BND1      y....311
 BV BND1      y....312
 BV BND1      y....313
 BV BND1      y....314
 BV BND1      y....315
 BV BND1      y....316
 BV BND1      y....317
 BV BND1      y....318
 BV BND1      y....319
 BV BND1      y....320
 BV BND1      y....321
 BV BND1      y....322
 BV BND1      y....323
 BV BND1      y....324
 BV BND1      y....325
 BV BND1      y....326
 BV BND1      y....327
 BV BND1      y....329
 BV BND1      y....330
 BV BND1      y....331
 BV BND1      y....332
 BV BND1      y....333
 BV BND1      y....334
 BV BND1      y....335
 BV BND1      y....336
 BV BND1      y....337
 BV BND1      y....338
 BV BND1      y....339
 BV BND1      y....340
 BV BND1      y....341
 BV BND1      y....342
 BV BND1      y....343
 BV BND1      y....344
 BV BND1      y....345
 BV BND1      y....346
 BV BND1      y....347
 BV BND1      y....348
 BV BND1      y....349
 BV BND1      y....350
 BV BND1      y....351
 BV BND1      y....352
 BV BND1      y....353
 BV BND1      y....354
 BV BND1      y....355
 BV BND1      y....356
 BV BND1      y....357
 BV BND1      y....358
 BV BND1      y....361
 BV BND1      y....362
 BV BND1      y....363
 BV BND1      y....364
 BV BND1      y....365
 BV BND1      y....366
 BV BND1      y....367
 BV BND1      y....368
 BV BND1      y....369
 BV BND1      y....370
 BV BND1      y....371
 BV BND1      y....372
 BV BND1      y....373
 BV BND1      y....374
 BV BND1      y....375
 BV BND1      y....376
 BV BND1      y....377
 BV BND1      y....378
 BV BND1      y....379
 BV BND1      y....380
 BV BND1      y....381
 BV BND1      y....382
 BV BND1      y....385
 BV BND1      y....386
 BV BND1      y....387
 BV BND1      y....388
 BV BND1      y....389
 BV BND1      y....390
 BV BND1      y....391
 BV BND1      y....392
 BV BND1      y....393
 BV BND1      y....394
 BV BND1      y....395
 BV BND1      y....396
 BV BND1      y....397
 BV BND1      y....398
 BV BND1      y....399
 BV BND1      y....400
ENDATA
