NAME pigeon-11_pre
ROWS
 N  OBJ
 E  c23_1a_0a
 E  c23_1a_0g1
 E  c23_1a_1a
 E  c23_1a_1g1
 E  c23_1a_2a
 E  c23_1a_2g1
 E  c23_1a_3a
 E  c23_1a_3g1
 E  c23_1a_4a
 E  c23_1a_4g1
 E  c23_1a_5a
 E  c23_1a_5g1
 E  c23_1a_6a
 E  c23_1a_6g1
 E  c23_1a_7a
 E  c23_1a_7g1
 E  c23_1a_8a
 E  c23_1a_8g1
 E  c23_1a_9a
 E  c23_1a_9g1
 E  c23_1a_10a
 E  c23_1a_10g1
 E  c23_2_0_0a
 E  c23_2_0_1a
 E  c23_2_0_2a
 E  c23_2_1_0a
 E  c23_2_1_1a
 E  c23_2_1_2a
 E  c23_2_2_0a
 E  c23_2_2_1a
 E  c23_2_2_2a
 E  c23_2_3_0a
 E  c23_2_3_1a
 E  c23_2_3_2a
 E  c23_2_4_0a
 E  c23_2_4_1a
 E  c23_2_4_2a
 E  c23_2_5_0a
 E  c23_2_5_1a
 E  c23_2_5_2a
 E  c23_2_6_0a
 E  c23_2_6_1a
 E  c23_2_6_2a
 E  c23_2_7_0a
 E  c23_2_7_1a
 E  c23_2_7_2a
 E  c23_2_8_0a
 E  c23_2_8_1a
 E  c23_2_8_2a
 E  c23_2_9_0a
 E  c23_2_9_1a
 E  c23_2_9_2a
 E  c23_2_10_0a
 E  c23_2_10_1a
 E  c23_2_10_2a
 L  c24_0_1_0a1
 L  c24_0_1_0b1
 L  c24_0_1_1a1
 L  c24_0_1_1b1
 L  c24_0_1_2a1
 L  c24_0_1_2b1
 L  c24_1_0_0a1
 L  c24_1_0_0b1
 L  c24_1_0_1a1
 L  c24_1_0_1b1
 L  c24_1_0_2a1
 L  c24_1_0_2b1
 L  c24_2_0_0a1
 L  c24_2_0_0b1
 L  c24_2_0_1a1
 L  c24_2_0_1b1
 L  c24_2_0_2a1
 L  c24_2_0_2b1
 L  c24_3_0_0a1
 L  c24_3_0_0b1
 L  c24_3_0_1a1
 L  c24_3_0_1b1
 L  c24_3_0_2a1
 L  c24_3_0_2b1
 L  c24_4_0_0a1
 L  c24_4_0_0b1
 L  c24_4_0_1a1
 L  c24_4_0_1b1
 L  c24_4_0_2a1
 L  c24_4_0_2b1
 L  c24_5_0_0a1
 L  c24_5_0_0b1
 L  c24_5_0_1a1
 L  c24_5_0_1b1
 L  c24_5_0_2a1
 L  c24_5_0_2b1
 L  c24_6_0_0a1
 L  c24_6_0_0b1
 L  c24_6_0_1a1
 L  c24_6_0_1b1
 L  c24_6_0_2a1
 L  c24_6_0_2b1
 L  c24_7_0_0a1
 L  c24_7_0_0b1
 L  c24_7_0_1a1
 L  c24_7_0_1b1
 L  c24_7_0_2a1
 L  c24_7_0_2b1
 L  c24_8_0_0a1
 L  c24_8_0_0b1
 L  c24_8_0_1a1
 L  c24_8_0_1b1
 L  c24_8_0_2a1
 L  c24_8_0_2b1
 L  c24_9_0_0a1
 L  c24_9_0_0b1
 L  c24_9_0_1a1
 L  c24_9_0_1b1
 L  c24_9_0_2a1
 L  c24_9_0_2b1
 L  c24_10_0_0a1
 L  c24_10_0_0b1
 L  c24_10_0_1a1
 L  c24_10_0_1b1
 L  c24_10_0_2a1
 L  c24_10_0_2b1
 L  c25_0_1_1a
 L  c25_0_1_1b
 L  c25_0_1_2b
 L  c25_0_2_1a
 L  c25_0_2_2a
 L  c25_0_3_0a
 L  c25_0_3_0b
 L  c25_0_3_1a
 L  c25_0_4_0a
 L  c25_0_5_0b
 L  c25_0_5_1a
 L  c25_0_5_1b
 L  c25_0_5_2a
 L  c25_0_6_0b
 L  c25_0_7_1a
 L  c25_0_7_2b
 L  c25_0_8_0a
 L  c25_0_8_0b
 L  c25_0_8_1a
 L  c25_0_8_1b
 L  c25_0_8_2a
 L  c25_0_8_2b
 L  c25_0_9_0a
 L  c25_0_9_0b
 L  c25_0_9_2a
 L  c25_0_9_2b
 L  c25_0_10_1a
 L  c25_0_10_2a
 L  c25_0_10_2b
 L  c25_1_0_0a
 L  c25_1_0_0b
 L  c25_1_0_2b
 L  c25_1_2_2a
 L  c25_1_3_0b
 L  c25_1_3_1b
 L  c25_1_3_2a
 L  c25_1_3_2b
 L  c25_1_4_0b
 L  c25_1_4_1a
 L  c25_1_4_2a
 L  c25_1_4_2b
 L  c25_1_5_0b
 L  c25_1_5_2a
 L  c25_1_5_2b
 L  c25_1_6_0a
 L  c25_1_6_0b
 L  c25_1_6_1a
 L  c25_1_6_1b
 L  c25_1_7_0a
 L  c25_1_7_0b
 L  c25_1_7_1a
 L  c25_1_7_1b
 L  c25_1_7_2a
 L  c25_1_7_2b
 L  c25_1_8_1b
 L  c25_1_8_2a
 L  c25_1_9_2b
 L  c25_1_10_0a
 L  c25_1_10_1b
 L  c25_1_10_2a
 L  c25_2_0_0a
 L  c25_2_0_0b
 L  c25_2_0_1a
 L  c25_2_0_2a
 L  c25_2_1_0a
 L  c25_2_1_0b
 L  c25_2_1_1a
 L  c25_2_1_1b
 L  c25_2_1_2a
 L  c25_2_3_0a
 L  c25_2_3_0b
 L  c25_2_3_1a
 L  c25_2_3_1b
 L  c25_2_3_2a
 L  c25_2_4_0a
 L  c25_2_4_0b
 L  c25_2_4_1a
 L  c25_2_5_0a
 L  c25_2_5_0b
 L  c25_2_5_1a
 L  c25_2_5_1b
 L  c25_2_5_2a
 L  c25_2_5_2b
 L  c25_2_6_0a
 L  c25_2_6_2a
 L  c25_2_6_2b
 L  c25_2_7_1a
 L  c25_2_7_1b
 L  c25_2_7_2b
 L  c25_2_8_0a
 L  c25_2_8_0b
 L  c25_2_8_2a
 L  c25_2_9_0b
 L  c25_2_9_2b
 L  c25_2_10_0a
 L  c25_2_10_0b
 L  c25_2_10_1b
 L  c25_2_10_2b
 L  c25_3_0_1a
 L  c25_3_0_2a
 L  c25_3_0_2b
 L  c25_3_1_0b
 L  c25_3_1_1b
 L  c25_3_2_2a
 L  c25_3_4_1a
 L  c25_3_4_2b
 L  c25_3_5_1a
 L  c25_3_5_1b
 L  c25_3_5_2a
 L  c25_3_6_0a
 L  c25_3_6_2a
 L  c25_3_6_2b
 L  c25_3_7_0b
 L  c25_3_7_1a
 L  c25_3_7_1b
 L  c25_3_7_2b
 L  c25_3_8_0a
 L  c25_3_8_1b
 L  c25_3_8_2a
 L  c25_3_8_2b
 L  c25_3_9_0b
 L  c25_3_9_2a
 L  c25_3_10_0a
 L  c25_4_0_0a
 L  c25_4_0_1a
 L  c25_4_0_1b
 L  c25_4_0_2a
 L  c25_4_0_2b
 L  c25_4_1_0b
 L  c25_4_1_1a
 L  c25_4_2_1a
 L  c25_4_2_2a
 L  c25_4_2_2b
 L  c25_4_3_0a
 L  c25_4_3_0b
 L  c25_4_3_1a
 L  c25_4_3_2b
 L  c25_4_5_0a
 L  c25_4_5_0b
 L  c25_4_5_2a
 L  c25_4_5_2b
 L  c25_4_6_0a
 L  c25_4_6_1a
 L  c25_4_6_1b
 L  c25_4_6_2b
 L  c25_4_7_0a
 L  c25_4_7_0b
 L  c25_4_8_1a
 L  c25_4_8_2a
 L  c25_4_8_2b
 L  c25_4_9_0a
 L  c25_4_10_0b
 L  c25_4_10_1a
 L  c25_4_10_2b
 L  c25_5_0_0b
 L  c25_5_0_2a
 L  c25_5_1_0b
 L  c25_5_1_1a
 L  c25_5_1_1b
 L  c25_5_3_0a
 L  c25_5_3_0b
 L  c25_5_3_2a
 L  c25_5_4_1a
 L  c25_5_4_1b
 L  c25_5_6_0b
 L  c25_5_6_1a
 L  c25_5_6_1b
 L  c25_5_6_2b
 L  c25_5_7_0b
 L  c25_5_7_1b
 L  c25_5_7_2a
 L  c25_5_8_0a
 L  c25_5_8_1a
 L  c25_5_8_1b
 L  c25_5_8_2a
 L  c25_5_9_2a
 L  c25_5_10_0a
 L  c25_5_10_1a
 L  c25_5_10_2a
 L  c25_5_10_2b
 L  c25_6_0_0b
 L  c25_6_0_1a
 L  c25_6_0_1b
 L  c25_6_0_2a
 L  c25_6_0_2b
 L  c25_6_1_2a
 L  c25_6_1_2b
 L  c25_6_2_0a
 L  c25_6_2_1a
 L  c25_6_2_1b
 L  c25_6_3_0a
 L  c25_6_3_1a
 L  c25_6_3_1b
 L  c25_6_4_0a
 L  c25_6_4_2b
 L  c25_6_5_0b
 L  c25_6_5_2b
 L  c25_6_7_0b
 L  c25_6_7_1a
 L  c25_6_7_2a
 L  c25_6_7_2b
 L  c25_6_8_0b
 L  c25_6_8_1a
 L  c25_6_8_1b
 L  c25_6_9_0a
 L  c25_6_9_2a
 L  c25_6_10_1a
 L  c25_6_10_2b
 L  c25_7_0_0a
 L  c25_7_0_0b
 L  c25_7_0_1a
 L  c25_7_0_2b
 L  c25_7_2_0a
 L  c25_7_2_0b
 L  c25_7_2_2b
 L  c25_7_3_0b
 L  c25_7_3_2b
 L  c25_7_4_1a
 L  c25_7_4_1b
 L  c25_7_4_2a
 L  c25_7_4_2b
 L  c25_7_5_0b
 L  c25_7_5_1b
 L  c25_7_5_2a
 L  c25_7_6_0b
 L  c25_7_6_1a
 L  c25_7_8_0a
 L  c25_7_8_0b
 L  c25_7_8_1a
 L  c25_7_9_0a
 L  c25_7_9_0b
 L  c25_7_9_1b
 L  c25_7_9_2a
 L  c25_7_9_2b
 L  c25_7_10_0a
 L  c25_7_10_2a
 L  c25_8_1_0a
 L  c25_8_1_0b
 L  c25_8_1_1b
 L  c25_8_1_2a
 L  c25_8_2_1a
 L  c25_8_2_1b
 L  c25_8_2_2a
 L  c25_8_3_0a
 L  c25_8_3_1b
 L  c25_8_4_0a
 L  c25_8_4_0b
 L  c25_8_4_1a
 L  c25_8_5_0a
 L  c25_8_5_2a
 L  c25_8_6_0b
 L  c25_8_6_2a
 L  c25_8_6_2b
 L  c25_8_7_1a
 L  c25_8_7_2a
 L  c25_8_7_2b
 L  c25_8_9_0a
 L  c25_8_10_0b
 L  c25_8_10_1a
 L  c25_8_10_2b
 L  c25_9_0_1a
 L  c25_9_0_1b
 L  c25_9_1_0a
 L  c25_9_1_0b
 L  c25_9_1_1a
 L  c25_9_1_1b
 L  c25_9_1_2b
 L  c25_9_2_0b
 L  c25_9_2_1a
 L  c25_9_2_1b
 L  c25_9_2_2b
 L  c25_9_3_0b
 L  c25_9_3_1a
 L  c25_9_3_1b
 L  c25_9_3_2a
 L  c25_9_4_0a
 L  c25_9_4_1a
 L  c25_9_4_1b
 L  c25_9_4_2a
 L  c25_9_4_2b
 L  c25_9_5_0a
 L  c25_9_5_0b
 L  c25_9_5_1a
 L  c25_9_5_1b
 L  c25_9_5_2a
 L  c25_9_6_0a
 L  c25_9_6_1a
 L  c25_9_6_1b
 L  c25_9_6_2a
 L  c25_9_7_1b
 L  c25_9_8_0a
 L  c25_9_8_1a
 L  c25_9_8_1b
 L  c25_9_8_2a
 L  c25_9_8_2b
 L  c25_9_10_0a
 L  c25_9_10_2a
 L  c25_9_10_2b
 L  c25_10_0_0a
 L  c25_10_0_0b
 L  c25_10_0_1a
 L  c25_10_1_0a
 L  c25_10_1_1b
 L  c25_10_1_2a
 L  c25_10_2_1b
 L  c25_10_2_2b
 L  c25_10_3_0a
 L  c25_10_3_1a
 L  c25_10_3_1b
 L  c25_10_3_2a
 L  c25_10_3_2b
 L  c25_10_4_0b
 L  c25_10_4_1a
 L  c25_10_4_2b
 L  c25_10_5_0a
 L  c25_10_5_1a
 L  c25_10_6_0a
 L  c25_10_6_0b
 L  c25_10_6_1a
 L  c25_10_6_2b
 L  c25_10_7_0a
 L  c25_10_7_1a
 L  c25_10_7_1b
 L  c25_10_7_2a
 L  c25_10_8_0b
 L  c25_10_8_1a
 L  c25_10_8_2b
 L  c25_10_9_0a
 L  c25_10_9_1a
 L  c25_10_9_1b
 L  c26_1_0_1a
 L  c26_2_0_1a
 L  c26_2_0_2a
 L  c26_1_0_3a
 L  c26_2_0_3a
 L  c26_3_0_3a
 L  c26_1_0_4a
 L  c26_2_0_4a
 L  c26_3_0_4a
 L  c26_1_0_5a
 L  c26_2_0_5a
 L  c26_1_0_6a
 L  c26_2_0_6a
 L  c26_2_0_7a
 L  c26_3_0_7a
 L  c26_2_0_8a
 L  c26_1_0_9a
 L  c26_3_0_9a
 L  c26_2_0_10a
 L  c26_3_0_10a
 L  c26_3_1_0a
 L  c26_1_1_2a
 L  c26_2_1_2a
 L  c26_2_1_3a
 L  c26_3_1_4a
 L  c26_1_1_6a
 L  c26_3_1_6a
 L  c26_1_1_7a
 L  c26_1_1_8a
 L  c26_3_1_8a
 L  c26_2_1_9a
 L  c26_1_1_10a
 L  c26_2_2_0a
 L  c26_3_2_0a
 L  c26_3_2_1a
 L  c26_2_2_3a
 L  c26_3_2_3a
 L  c26_2_2_4a
 L  c26_3_2_4a
 L  c26_1_2_5a
 L  c26_1_2_6a
 L  c26_3_2_8a
 L  c26_1_2_10a
 L  c26_2_2_10a
 L  c26_3_2_10a
 L  c26_2_3_1a
 L  c26_3_3_1a
 L  c26_2_3_2a
 L  c26_1_3_4a
 L  c26_2_3_4a
 L  c26_3_3_4a
 L  c26_3_3_5a
 L  c26_2_3_6a
 L  c26_1_3_7a
 L  c26_3_3_7a
 L  c26_1_3_8a
 L  c26_1_3_9a
 L  c26_2_3_9a
 L  c26_3_3_9a
 L  c26_1_3_10a
 L  c26_3_3_10a
 L  c26_1_4_1a
 L  c26_2_4_1a
 L  c26_2_4_2a
 L  c26_1_4_5a
 L  c26_2_4_5a
 L  c26_2_4_7a
 L  c26_3_4_7a
 L  c26_2_4_8a
 L  c26_1_4_9a
 L  c26_2_4_9a
 L  c26_3_4_9a
 L  c26_2_4_10a
 L  c26_3_5_0a
 L  c26_1_5_1a
 L  c26_2_5_1a
 L  c26_3_5_1a
 L  c26_1_5_2a
 L  c26_3_5_2a
 L  c26_1_5_3a
 L  c26_2_5_3a
 L  c26_3_5_4a
 L  c26_2_5_6a
 L  c26_3_5_6a
 L  c26_1_5_7a
 L  c26_2_5_7a
 L  c26_3_5_9a
 L  c26_1_5_10a
 L  c26_3_5_10a
 L  c26_3_6_0a
 L  c26_1_6_1a
 L  c26_1_6_2a
 L  c26_3_6_2a
 L  c26_2_6_3a
 L  c26_3_6_3a
 L  c26_1_6_4a
 L  c26_2_6_4a
 L  c26_3_6_4a
 L  c26_2_6_5a
 L  c26_1_6_7a
 L  c26_1_6_8a
 L  c26_2_6_8a
 L  c26_3_6_9a
 L  c26_2_6_10a
 L  c26_2_7_0a
 L  c26_1_7_1a
 L  c26_3_7_1a
 L  c26_1_7_2a
 L  c26_2_7_2a
 L  c26_3_7_2a
 L  c26_1_7_3a
 L  c26_2_7_4a
 L  c26_3_7_5a
 L  c26_1_7_6a
 L  c26_3_7_6a
 L  c26_2_7_8a
 L  c26_3_7_8a
 L  c26_2_7_9a
 L  c26_3_7_9a
 L  c26_2_7_10a
 L  c26_2_8_0a
 L  c26_3_8_0a
 L  c26_1_8_1a
 L  c26_1_8_2a
 L  c26_2_8_2a
 L  c26_1_8_3a
 L  c26_3_8_3a
 L  c26_2_8_4a
 L  c26_3_8_4a
 L  c26_1_8_5a
 L  c26_2_8_5a
 L  c26_3_8_5a
 L  c26_3_8_6a
 L  c26_2_8_7a
 L  c26_3_8_9a
 L  c26_1_8_10a
 L  c26_1_9_0a
 L  c26_2_9_1a
 L  c26_3_9_1a
 L  c26_1_9_2a
 L  c26_2_9_2a
 L  c26_3_9_2a
 L  c26_1_9_5a
 L  c26_2_9_5a
 L  c26_1_9_6a
 L  c26_2_9_6a
 L  c26_2_9_7a
 L  c26_1_9_8a
 L  c26_2_9_8a
 L  c26_1_9_10a
 L  c26_3_9_10a
 L  c26_2_10_0a
 L  c26_1_10_1a
 L  c26_3_10_1a
 L  c26_1_10_3a
 L  c26_2_10_4a
 L  c26_3_10_4a
 L  c26_1_10_5a
 L  c26_2_10_6a
 L  c26_3_10_6a
 L  c26_2_10_7a
 L  c26_3_10_7a
 L  c26_1_10_8a
 L  c26_3_10_8a
 L  c26_1_10_9a
 L  R595716 
 L  R595718 
 L  R595721 
 L  R595725 
 L  R595730 
 L  R595736 
 L  R595743 
 L  R595751 
 L  R595760 
 L  R595770 
 L  R595781 
COLUMNS
    pse_X_0_x  c24_0_1_0a1  -1
    pse_X_0_x  c24_0_1_0b1  1
    pse_X_0_x  c25_0_3_0a  -1
    pse_X_0_x  c25_0_3_0b  1
    pse_X_0_x  c25_0_4_0a  -1
    pse_X_0_x  c25_0_5_0b  1
    pse_X_0_x  c25_0_6_0b  1
    pse_X_0_x  c25_0_8_0a  -1
    pse_X_0_x  c25_0_8_0b  1
    pse_X_0_x  c25_0_9_0a  -1
    pse_X_0_x  c25_0_9_0b  1
    pse_X_0_x  c25_1_0_0a  1
    pse_X_0_x  c25_1_0_0b  -1
    pse_X_0_x  c25_2_0_0a  1
    pse_X_0_x  c25_2_0_0b  -1
    pse_X_0_x  c25_4_0_0a  1
    pse_X_0_x  c25_5_0_0b  -1
    pse_X_0_x  c25_6_0_0b  -1
    pse_X_0_x  c25_7_0_0a  1
    pse_X_0_x  c25_7_0_0b  -1
    pse_X_0_x  c25_10_0_0a  1
    pse_X_0_x  c25_10_0_0b  -1
    pse_X_0_y  c24_0_1_1a1  -1
    pse_X_0_y  c24_0_1_1b1  1
    pse_X_0_y  c25_0_1_1a  -1
    pse_X_0_y  c25_0_1_1b  1
    pse_X_0_y  c25_0_2_1a  -1
    pse_X_0_y  c25_0_3_1a  -1
    pse_X_0_y  c25_0_5_1a  -1
    pse_X_0_y  c25_0_5_1b  1
    pse_X_0_y  c25_0_7_1a  -1
    pse_X_0_y  c25_0_8_1a  -1
    pse_X_0_y  c25_0_8_1b  1
    pse_X_0_y  c25_0_10_1a  -1
    pse_X_0_y  c25_2_0_1a  1
    pse_X_0_y  c25_3_0_1a  1
    pse_X_0_y  c25_4_0_1a  1
    pse_X_0_y  c25_4_0_1b  -1
    pse_X_0_y  c25_6_0_1a  1
    pse_X_0_y  c25_6_0_1b  -1
    pse_X_0_y  c25_7_0_1a  1
    pse_X_0_y  c25_9_0_1a  1
    pse_X_0_y  c25_9_0_1b  -1
    pse_X_0_y  c25_10_0_1a  1
    pse_X_0_z  c24_0_1_2a1  -1
    pse_X_0_z  c24_0_1_2b1  1
    pse_X_0_z  c25_0_1_2b  1
    pse_X_0_z  c25_0_2_2a  -1
    pse_X_0_z  c25_0_5_2a  -1
    pse_X_0_z  c25_0_7_2b  1
    pse_X_0_z  c25_0_8_2a  -1
    pse_X_0_z  c25_0_8_2b  1
    pse_X_0_z  c25_0_9_2a  -1
    pse_X_0_z  c25_0_9_2b  1
    pse_X_0_z  c25_0_10_2a  -1
    pse_X_0_z  c25_0_10_2b  1
    pse_X_0_z  c25_1_0_2b  -1
    pse_X_0_z  c25_2_0_2a  1
    pse_X_0_z  c25_3_0_2a  1
    pse_X_0_z  c25_3_0_2b  -1
    pse_X_0_z  c25_4_0_2a  1
    pse_X_0_z  c25_4_0_2b  -1
    pse_X_0_z  c25_5_0_2a  1
    pse_X_0_z  c25_6_0_2a  1
    pse_X_0_z  c25_6_0_2b  -1
    pse_X_0_z  c25_7_0_2b  -1
    pse_X_1_x  c24_1_0_0a1  -1
    pse_X_1_x  c24_1_0_0b1  1
    pse_X_1_x  c25_1_0_0a  -1
    pse_X_1_x  c25_1_0_0b  1
    pse_X_1_x  c25_1_3_0b  1
    pse_X_1_x  c25_1_4_0b  1
    pse_X_1_x  c25_1_5_0b  1
    pse_X_1_x  c25_1_6_0a  -1
    pse_X_1_x  c25_1_6_0b  1
    pse_X_1_x  c25_1_7_0a  -1
    pse_X_1_x  c25_1_7_0b  1
    pse_X_1_x  c25_1_10_0a  -1
    pse_X_1_x  c25_2_1_0a  1
    pse_X_1_x  c25_2_1_0b  -1
    pse_X_1_x  c25_3_1_0b  -1
    pse_X_1_x  c25_4_1_0b  -1
    pse_X_1_x  c25_5_1_0b  -1
    pse_X_1_x  c25_8_1_0a  1
    pse_X_1_x  c25_8_1_0b  -1
    pse_X_1_x  c25_9_1_0a  1
    pse_X_1_x  c25_9_1_0b  -1
    pse_X_1_x  c25_10_1_0a  1
    pse_X_1_y  c24_1_0_1a1  -1
    pse_X_1_y  c24_1_0_1b1  1
    pse_X_1_y  c25_0_1_1a  1
    pse_X_1_y  c25_0_1_1b  -1
    pse_X_1_y  c25_1_3_1b  1
    pse_X_1_y  c25_1_4_1a  -1
    pse_X_1_y  c25_1_6_1a  -1
    pse_X_1_y  c25_1_6_1b  1
    pse_X_1_y  c25_1_7_1a  -1
    pse_X_1_y  c25_1_7_1b  1
    pse_X_1_y  c25_1_8_1b  1
    pse_X_1_y  c25_1_10_1b  1
    pse_X_1_y  c25_2_1_1a  1
    pse_X_1_y  c25_2_1_1b  -1
    pse_X_1_y  c25_3_1_1b  -1
    pse_X_1_y  c25_4_1_1a  1
    pse_X_1_y  c25_5_1_1a  1
    pse_X_1_y  c25_5_1_1b  -1
    pse_X_1_y  c25_8_1_1b  -1
    pse_X_1_y  c25_9_1_1a  1
    pse_X_1_y  c25_9_1_1b  -1
    pse_X_1_y  c25_10_1_1b  -1
    pse_X_1_z  c24_1_0_2a1  -1
    pse_X_1_z  c24_1_0_2b1  1
    pse_X_1_z  c25_0_1_2b  -1
    pse_X_1_z  c25_1_0_2b  1
    pse_X_1_z  c25_1_2_2a  -1
    pse_X_1_z  c25_1_3_2a  -1
    pse_X_1_z  c25_1_3_2b  1
    pse_X_1_z  c25_1_4_2a  -1
    pse_X_1_z  c25_1_4_2b  1
    pse_X_1_z  c25_1_5_2a  -1
    pse_X_1_z  c25_1_5_2b  1
    pse_X_1_z  c25_1_7_2a  -1
    pse_X_1_z  c25_1_7_2b  1
    pse_X_1_z  c25_1_8_2a  -1
    pse_X_1_z  c25_1_9_2b  1
    pse_X_1_z  c25_1_10_2a  -1
    pse_X_1_z  c25_2_1_2a  1
    pse_X_1_z  c25_6_1_2a  1
    pse_X_1_z  c25_6_1_2b  -1
    pse_X_1_z  c25_8_1_2a  1
    pse_X_1_z  c25_9_1_2b  -1
    pse_X_1_z  c25_10_1_2a  1
    pse_X_2_x  c24_2_0_0a1  -1
    pse_X_2_x  c24_2_0_0b1  1
    pse_X_2_x  c25_2_0_0a  -1
    pse_X_2_x  c25_2_0_0b  1
    pse_X_2_x  c25_2_1_0a  -1
    pse_X_2_x  c25_2_1_0b  1
    pse_X_2_x  c25_2_3_0a  -1
    pse_X_2_x  c25_2_3_0b  1
    pse_X_2_x  c25_2_4_0a  -1
    pse_X_2_x  c25_2_4_0b  1
    pse_X_2_x  c25_2_5_0a  -1
    pse_X_2_x  c25_2_5_0b  1
    pse_X_2_x  c25_2_6_0a  -1
    pse_X_2_x  c25_2_8_0a  -1
    pse_X_2_x  c25_2_8_0b  1
    pse_X_2_x  c25_2_9_0b  1
    pse_X_2_x  c25_2_10_0a  -1
    pse_X_2_x  c25_2_10_0b  1
    pse_X_2_x  c25_6_2_0a  1
    pse_X_2_x  c25_7_2_0a  1
    pse_X_2_x  c25_7_2_0b  -1
    pse_X_2_x  c25_9_2_0b  -1
    pse_X_2_y  c24_2_0_1a1  -1
    pse_X_2_y  c24_2_0_1b1  1
    pse_X_2_y  c25_0_2_1a  1
    pse_X_2_y  c25_2_0_1a  -1
    pse_X_2_y  c25_2_1_1a  -1
    pse_X_2_y  c25_2_1_1b  1
    pse_X_2_y  c25_2_3_1a  -1
    pse_X_2_y  c25_2_3_1b  1
    pse_X_2_y  c25_2_4_1a  -1
    pse_X_2_y  c25_2_5_1a  -1
    pse_X_2_y  c25_2_5_1b  1
    pse_X_2_y  c25_2_7_1a  -1
    pse_X_2_y  c25_2_7_1b  1
    pse_X_2_y  c25_2_10_1b  1
    pse_X_2_y  c25_4_2_1a  1
    pse_X_2_y  c25_6_2_1a  1
    pse_X_2_y  c25_6_2_1b  -1
    pse_X_2_y  c25_8_2_1a  1
    pse_X_2_y  c25_8_2_1b  -1
    pse_X_2_y  c25_9_2_1a  1
    pse_X_2_y  c25_9_2_1b  -1
    pse_X_2_y  c25_10_2_1b  -1
    pse_X_2_z  c24_2_0_2a1  -1
    pse_X_2_z  c24_2_0_2b1  1
    pse_X_2_z  c25_0_2_2a  1
    pse_X_2_z  c25_1_2_2a  1
    pse_X_2_z  c25_2_0_2a  -1
    pse_X_2_z  c25_2_1_2a  -1
    pse_X_2_z  c25_2_3_2a  -1
    pse_X_2_z  c25_2_5_2a  -1
    pse_X_2_z  c25_2_5_2b  1
    pse_X_2_z  c25_2_6_2a  -1
    pse_X_2_z  c25_2_6_2b  1
    pse_X_2_z  c25_2_7_2b  1
    pse_X_2_z  c25_2_8_2a  -1
    pse_X_2_z  c25_2_9_2b  1
    pse_X_2_z  c25_2_10_2b  1
    pse_X_2_z  c25_3_2_2a  1
    pse_X_2_z  c25_4_2_2a  1
    pse_X_2_z  c25_4_2_2b  -1
    pse_X_2_z  c25_7_2_2b  -1
    pse_X_2_z  c25_8_2_2a  1
    pse_X_2_z  c25_9_2_2b  -1
    pse_X_2_z  c25_10_2_2b  -1
    C9        c24_3_0_0a1  -1
    C9        c24_3_0_0b1  1
    C9        c25_0_3_0a  1
    C9        c25_0_3_0b  -1
    C9        c25_1_3_0b  -1
    C9        c25_2_3_0a  1
    C9        c25_2_3_0b  -1
    C9        c25_3_1_0b  1
    C9        c25_3_6_0a  -1
    C9        c25_3_7_0b  1
    C9        c25_3_8_0a  -1
    C9        c25_3_9_0b  1
    C9        c25_3_10_0a  -1
    C9        c25_4_3_0a  1
    C9        c25_4_3_0b  -1
    C9        c25_5_3_0a  1
    C9        c25_5_3_0b  -1
    C9        c25_6_3_0a  1
    C9        c25_7_3_0b  -1
    C9        c25_8_3_0a  1
    C9        c25_9_3_0b  -1
    C9        c25_10_3_0a  1
    C10       c24_3_0_1a1  -1
    C10       c24_3_0_1b1  1
    C10       c25_0_3_1a  1
    C10       c25_1_3_1b  -1
    C10       c25_2_3_1a  1
    C10       c25_2_3_1b  -1
    C10       c25_3_0_1a  -1
    C10       c25_3_1_1b  1
    C10       c25_3_4_1a  -1
    C10       c25_3_5_1a  -1
    C10       c25_3_5_1b  1
    C10       c25_3_7_1a  -1
    C10       c25_3_7_1b  1
    C10       c25_3_8_1b  1
    C10       c25_4_3_1a  1
    C10       c25_6_3_1a  1
    C10       c25_6_3_1b  -1
    C10       c25_8_3_1b  -1
    C10       c25_9_3_1a  1
    C10       c25_9_3_1b  -1
    C10       c25_10_3_1a  1
    C10       c25_10_3_1b  -1
    C11       c24_3_0_2a1  -1
    C11       c24_3_0_2b1  1
    C11       c25_1_3_2a  1
    C11       c25_1_3_2b  -1
    C11       c25_2_3_2a  1
    C11       c25_3_0_2a  -1
    C11       c25_3_0_2b  1
    C11       c25_3_2_2a  -1
    C11       c25_3_4_2b  1
    C11       c25_3_5_2a  -1
    C11       c25_3_6_2a  -1
    C11       c25_3_6_2b  1
    C11       c25_3_7_2b  1
    C11       c25_3_8_2a  -1
    C11       c25_3_8_2b  1
    C11       c25_3_9_2a  -1
    C11       c25_4_3_2b  -1
    C11       c25_5_3_2a  1
    C11       c25_7_3_2b  -1
    C11       c25_9_3_2a  1
    C11       c25_10_3_2a  1
    C11       c25_10_3_2b  -1
    C12       c24_4_0_0a1  -1
    C12       c24_4_0_0b1  1
    C12       c25_0_4_0a  1
    C12       c25_1_4_0b  -1
    C12       c25_2_4_0a  1
    C12       c25_2_4_0b  -1
    C12       c25_4_0_0a  -1
    C12       c25_4_1_0b  1
    C12       c25_4_3_0a  -1
    C12       c25_4_3_0b  1
    C12       c25_4_5_0a  -1
    C12       c25_4_5_0b  1
    C12       c25_4_6_0a  -1
    C12       c25_4_7_0a  -1
    C12       c25_4_7_0b  1
    C12       c25_4_9_0a  -1
    C12       c25_4_10_0b  1
    C12       c25_6_4_0a  1
    C12       c25_8_4_0a  1
    C12       c25_8_4_0b  -1
    C12       c25_9_4_0a  1
    C12       c25_10_4_0b  -1
    C13       c24_4_0_1a1  -1
    C13       c24_4_0_1b1  1
    C13       c25_1_4_1a  1
    C13       c25_2_4_1a  1
    C13       c25_3_4_1a  1
    C13       c25_4_0_1a  -1
    C13       c25_4_0_1b  1
    C13       c25_4_1_1a  -1
    C13       c25_4_2_1a  -1
    C13       c25_4_3_1a  -1
    C13       c25_4_6_1a  -1
    C13       c25_4_6_1b  1
    C13       c25_4_8_1a  -1
    C13       c25_4_10_1a  -1
    C13       c25_5_4_1a  1
    C13       c25_5_4_1b  -1
    C13       c25_7_4_1a  1
    C13       c25_7_4_1b  -1
    C13       c25_8_4_1a  1
    C13       c25_9_4_1a  1
    C13       c25_9_4_1b  -1
    C13       c25_10_4_1a  1
    C14       c24_4_0_2a1  -1
    C14       c24_4_0_2b1  1
    C14       c25_1_4_2a  1
    C14       c25_1_4_2b  -1
    C14       c25_3_4_2b  -1
    C14       c25_4_0_2a  -1
    C14       c25_4_0_2b  1
    C14       c25_4_2_2a  -1
    C14       c25_4_2_2b  1
    C14       c25_4_3_2b  1
    C14       c25_4_5_2a  -1
    C14       c25_4_5_2b  1
    C14       c25_4_6_2b  1
    C14       c25_4_8_2a  -1
    C14       c25_4_8_2b  1
    C14       c25_4_10_2b  1
    C14       c25_6_4_2b  -1
    C14       c25_7_4_2a  1
    C14       c25_7_4_2b  -1
    C14       c25_9_4_2a  1
    C14       c25_9_4_2b  -1
    C14       c25_10_4_2b  -1
    C15       c24_5_0_0a1  -1
    C15       c24_5_0_0b1  1
    C15       c25_0_5_0b  -1
    C15       c25_1_5_0b  -1
    C15       c25_2_5_0a  1
    C15       c25_2_5_0b  -1
    C15       c25_4_5_0a  1
    C15       c25_4_5_0b  -1
    C15       c25_5_0_0b  1
    C15       c25_5_1_0b  1
    C15       c25_5_3_0a  -1
    C15       c25_5_3_0b  1
    C15       c25_5_6_0b  1
    C15       c25_5_7_0b  1
    C15       c25_5_8_0a  -1
    C15       c25_5_10_0a  -1
    C15       c25_6_5_0b  -1
    C15       c25_7_5_0b  -1
    C15       c25_8_5_0a  1
    C15       c25_9_5_0a  1
    C15       c25_9_5_0b  -1
    C15       c25_10_5_0a  1
    C16       c24_5_0_1a1  -1
    C16       c24_5_0_1b1  1
    C16       c25_0_5_1a  1
    C16       c25_0_5_1b  -1
    C16       c25_2_5_1a  1
    C16       c25_2_5_1b  -1
    C16       c25_3_5_1a  1
    C16       c25_3_5_1b  -1
    C16       c25_5_1_1a  -1
    C16       c25_5_1_1b  1
    C16       c25_5_4_1a  -1
    C16       c25_5_4_1b  1
    C16       c25_5_6_1a  -1
    C16       c25_5_6_1b  1
    C16       c25_5_7_1b  1
    C16       c25_5_8_1a  -1
    C16       c25_5_8_1b  1
    C16       c25_5_10_1a  -1
    C16       c25_7_5_1b  -1
    C16       c25_9_5_1a  1
    C16       c25_9_5_1b  -1
    C16       c25_10_5_1a  1
    C17       c24_5_0_2a1  -1
    C17       c24_5_0_2b1  1
    C17       c25_0_5_2a  1
    C17       c25_1_5_2a  1
    C17       c25_1_5_2b  -1
    C17       c25_2_5_2a  1
    C17       c25_2_5_2b  -1
    C17       c25_3_5_2a  1
    C17       c25_4_5_2a  1
    C17       c25_4_5_2b  -1
    C17       c25_5_0_2a  -1
    C17       c25_5_3_2a  -1
    C17       c25_5_6_2b  1
    C17       c25_5_7_2a  -1
    C17       c25_5_8_2a  -1
    C17       c25_5_9_2a  -1
    C17       c25_5_10_2a  -1
    C17       c25_5_10_2b  1
    C17       c25_6_5_2b  -1
    C17       c25_7_5_2a  1
    C17       c25_8_5_2a  1
    C17       c25_9_5_2a  1
    C18       c24_6_0_0a1  -1
    C18       c24_6_0_0b1  1
    C18       c25_0_6_0b  -1
    C18       c25_1_6_0a  1
    C18       c25_1_6_0b  -1
    C18       c25_2_6_0a  1
    C18       c25_3_6_0a  1
    C18       c25_4_6_0a  1
    C18       c25_5_6_0b  -1
    C18       c25_6_0_0b  1
    C18       c25_6_2_0a  -1
    C18       c25_6_3_0a  -1
    C18       c25_6_4_0a  -1
    C18       c25_6_5_0b  1
    C18       c25_6_7_0b  1
    C18       c25_6_8_0b  1
    C18       c25_6_9_0a  -1
    C18       c25_7_6_0b  -1
    C18       c25_8_6_0b  -1
    C18       c25_9_6_0a  1
    C18       c25_10_6_0a  1
    C18       c25_10_6_0b  -1
    C19       c24_6_0_1a1  -1
    C19       c24_6_0_1b1  1
    C19       c25_1_6_1a  1
    C19       c25_1_6_1b  -1
    C19       c25_4_6_1a  1
    C19       c25_4_6_1b  -1
    C19       c25_5_6_1a  1
    C19       c25_5_6_1b  -1
    C19       c25_6_0_1a  -1
    C19       c25_6_0_1b  1
    C19       c25_6_2_1a  -1
    C19       c25_6_2_1b  1
    C19       c25_6_3_1a  -1
    C19       c25_6_3_1b  1
    C19       c25_6_7_1a  -1
    C19       c25_6_8_1a  -1
    C19       c25_6_8_1b  1
    C19       c25_6_10_1a  -1
    C19       c25_7_6_1a  1
    C19       c25_9_6_1a  1
    C19       c25_9_6_1b  -1
    C19       c25_10_6_1a  1
    C20       c24_6_0_2a1  -1
    C20       c24_6_0_2b1  1
    C20       c25_2_6_2a  1
    C20       c25_2_6_2b  -1
    C20       c25_3_6_2a  1
    C20       c25_3_6_2b  -1
    C20       c25_4_6_2b  -1
    C20       c25_5_6_2b  -1
    C20       c25_6_0_2a  -1
    C20       c25_6_0_2b  1
    C20       c25_6_1_2a  -1
    C20       c25_6_1_2b  1
    C20       c25_6_4_2b  1
    C20       c25_6_5_2b  1
    C20       c25_6_7_2a  -1
    C20       c25_6_7_2b  1
    C20       c25_6_9_2a  -1
    C20       c25_6_10_2b  1
    C20       c25_8_6_2a  1
    C20       c25_8_6_2b  -1
    C20       c25_9_6_2a  1
    C20       c25_10_6_2b  -1
    C21       c24_7_0_0a1  -1
    C21       c24_7_0_0b1  1
    C21       c25_1_7_0a  1
    C21       c25_1_7_0b  -1
    C21       c25_3_7_0b  -1
    C21       c25_4_7_0a  1
    C21       c25_4_7_0b  -1
    C21       c25_5_7_0b  -1
    C21       c25_6_7_0b  -1
    C21       c25_7_0_0a  -1
    C21       c25_7_0_0b  1
    C21       c25_7_2_0a  -1
    C21       c25_7_2_0b  1
    C21       c25_7_3_0b  1
    C21       c25_7_5_0b  1
    C21       c25_7_6_0b  1
    C21       c25_7_8_0a  -1
    C21       c25_7_8_0b  1
    C21       c25_7_9_0a  -1
    C21       c25_7_9_0b  1
    C21       c25_7_10_0a  -1
    C21       c25_10_7_0a  1
    C22       c24_7_0_1a1  -1
    C22       c24_7_0_1b1  1
    C22       c25_0_7_1a  1
    C22       c25_1_7_1a  1
    C22       c25_1_7_1b  -1
    C22       c25_2_7_1a  1
    C22       c25_2_7_1b  -1
    C22       c25_3_7_1a  1
    C22       c25_3_7_1b  -1
    C22       c25_5_7_1b  -1
    C22       c25_6_7_1a  1
    C22       c25_7_0_1a  -1
    C22       c25_7_4_1a  -1
    C22       c25_7_4_1b  1
    C22       c25_7_5_1b  1
    C22       c25_7_6_1a  -1
    C22       c25_7_8_1a  -1
    C22       c25_7_9_1b  1
    C22       c25_8_7_1a  1
    C22       c25_9_7_1b  -1
    C22       c25_10_7_1a  1
    C22       c25_10_7_1b  -1
    C23       c24_7_0_2a1  -1
    C23       c24_7_0_2b1  1
    C23       c25_0_7_2b  -1
    C23       c25_1_7_2a  1
    C23       c25_1_7_2b  -1
    C23       c25_2_7_2b  -1
    C23       c25_3_7_2b  -1
    C23       c25_5_7_2a  1
    C23       c25_6_7_2a  1
    C23       c25_6_7_2b  -1
    C23       c25_7_0_2b  1
    C23       c25_7_2_2b  1
    C23       c25_7_3_2b  1
    C23       c25_7_4_2a  -1
    C23       c25_7_4_2b  1
    C23       c25_7_5_2a  -1
    C23       c25_7_9_2a  -1
    C23       c25_7_9_2b  1
    C23       c25_7_10_2a  -1
    C23       c25_8_7_2a  1
    C23       c25_8_7_2b  -1
    C23       c25_10_7_2a  1
    C24       c24_8_0_0a1  -1
    C24       c24_8_0_0b1  1
    C24       c25_0_8_0a  1
    C24       c25_0_8_0b  -1
    C24       c25_2_8_0a  1
    C24       c25_2_8_0b  -1
    C24       c25_3_8_0a  1
    C24       c25_5_8_0a  1
    C24       c25_6_8_0b  -1
    C24       c25_7_8_0a  1
    C24       c25_7_8_0b  -1
    C24       c25_8_1_0a  -1
    C24       c25_8_1_0b  1
    C24       c25_8_3_0a  -1
    C24       c25_8_4_0a  -1
    C24       c25_8_4_0b  1
    C24       c25_8_5_0a  -1
    C24       c25_8_6_0b  1
    C24       c25_8_9_0a  -1
    C24       c25_8_10_0b  1
    C24       c25_9_8_0a  1
    C24       c25_10_8_0b  -1
    C25       c24_8_0_1a1  -1
    C25       c24_8_0_1b1  1
    C25       c25_0_8_1a  1
    C25       c25_0_8_1b  -1
    C25       c25_1_8_1b  -1
    C25       c25_3_8_1b  -1
    C25       c25_4_8_1a  1
    C25       c25_5_8_1a  1
    C25       c25_5_8_1b  -1
    C25       c25_6_8_1a  1
    C25       c25_6_8_1b  -1
    C25       c25_7_8_1a  1
    C25       c25_8_1_1b  1
    C25       c25_8_2_1a  -1
    C25       c25_8_2_1b  1
    C25       c25_8_3_1b  1
    C25       c25_8_4_1a  -1
    C25       c25_8_7_1a  -1
    C25       c25_8_10_1a  -1
    C25       c25_9_8_1a  1
    C25       c25_9_8_1b  -1
    C25       c25_10_8_1a  1
    C26       c24_8_0_2a1  -1
    C26       c24_8_0_2b1  1
    C26       c25_0_8_2a  1
    C26       c25_0_8_2b  -1
    C26       c25_1_8_2a  1
    C26       c25_2_8_2a  1
    C26       c25_3_8_2a  1
    C26       c25_3_8_2b  -1
    C26       c25_4_8_2a  1
    C26       c25_4_8_2b  -1
    C26       c25_5_8_2a  1
    C26       c25_8_1_2a  -1
    C26       c25_8_2_2a  -1
    C26       c25_8_5_2a  -1
    C26       c25_8_6_2a  -1
    C26       c25_8_6_2b  1
    C26       c25_8_7_2a  -1
    C26       c25_8_7_2b  1
    C26       c25_8_10_2b  1
    C26       c25_9_8_2a  1
    C26       c25_9_8_2b  -1
    C26       c25_10_8_2b  -1
    C27       c24_9_0_0a1  -1
    C27       c24_9_0_0b1  1
    C27       c25_0_9_0a  1
    C27       c25_0_9_0b  -1
    C27       c25_2_9_0b  -1
    C27       c25_3_9_0b  -1
    C27       c25_4_9_0a  1
    C27       c25_6_9_0a  1
    C27       c25_7_9_0a  1
    C27       c25_7_9_0b  -1
    C27       c25_8_9_0a  1
    C27       c25_9_1_0a  -1
    C27       c25_9_1_0b  1
    C27       c25_9_2_0b  1
    C27       c25_9_3_0b  1
    C27       c25_9_4_0a  -1
    C27       c25_9_5_0a  -1
    C27       c25_9_5_0b  1
    C27       c25_9_6_0a  -1
    C27       c25_9_8_0a  -1
    C27       c25_9_10_0a  -1
    C27       c25_10_9_0a  1
    C28       c24_9_0_1a1  -1
    C28       c24_9_0_1b1  1
    C28       c25_7_9_1b  -1
    C28       c25_9_0_1a  -1
    C28       c25_9_0_1b  1
    C28       c25_9_1_1a  -1
    C28       c25_9_1_1b  1
    C28       c25_9_2_1a  -1
    C28       c25_9_2_1b  1
    C28       c25_9_3_1a  -1
    C28       c25_9_3_1b  1
    C28       c25_9_4_1a  -1
    C28       c25_9_4_1b  1
    C28       c25_9_5_1a  -1
    C28       c25_9_5_1b  1
    C28       c25_9_6_1a  -1
    C28       c25_9_6_1b  1
    C28       c25_9_7_1b  1
    C28       c25_9_8_1a  -1
    C28       c25_9_8_1b  1
    C28       c25_10_9_1a  1
    C28       c25_10_9_1b  -1
    C29       c24_9_0_2a1  -1
    C29       c24_9_0_2b1  1
    C29       c25_0_9_2a  1
    C29       c25_0_9_2b  -1
    C29       c25_1_9_2b  -1
    C29       c25_2_9_2b  -1
    C29       c25_3_9_2a  1
    C29       c25_5_9_2a  1
    C29       c25_6_9_2a  1
    C29       c25_7_9_2a  1
    C29       c25_7_9_2b  -1
    C29       c25_9_1_2b  1
    C29       c25_9_2_2b  1
    C29       c25_9_3_2a  -1
    C29       c25_9_4_2a  -1
    C29       c25_9_4_2b  1
    C29       c25_9_5_2a  -1
    C29       c25_9_6_2a  -1
    C29       c25_9_8_2a  -1
    C29       c25_9_8_2b  1
    C29       c25_9_10_2a  -1
    C29       c25_9_10_2b  1
    C30       c24_10_0_0a1  -1
    C30       c24_10_0_0b1  1
    C30       c25_1_10_0a  1
    C30       c25_2_10_0a  1
    C30       c25_2_10_0b  -1
    C30       c25_3_10_0a  1
    C30       c25_4_10_0b  -1
    C30       c25_5_10_0a  1
    C30       c25_7_10_0a  1
    C30       c25_8_10_0b  -1
    C30       c25_9_10_0a  1
    C30       c25_10_0_0a  -1
    C30       c25_10_0_0b  1
    C30       c25_10_1_0a  -1
    C30       c25_10_3_0a  -1
    C30       c25_10_4_0b  1
    C30       c25_10_5_0a  -1
    C30       c25_10_6_0a  -1
    C30       c25_10_6_0b  1
    C30       c25_10_7_0a  -1
    C30       c25_10_8_0b  1
    C30       c25_10_9_0a  -1
    C31       c24_10_0_1a1  -1
    C31       c24_10_0_1b1  1
    C31       c25_0_10_1a  1
    C31       c25_1_10_1b  -1
    C31       c25_2_10_1b  -1
    C31       c25_4_10_1a  1
    C31       c25_5_10_1a  1
    C31       c25_6_10_1a  1
    C31       c25_8_10_1a  1
    C31       c25_10_0_1a  -1
    C31       c25_10_1_1b  1
    C31       c25_10_2_1b  1
    C31       c25_10_3_1a  -1
    C31       c25_10_3_1b  1
    C31       c25_10_4_1a  -1
    C31       c25_10_5_1a  -1
    C31       c25_10_6_1a  -1
    C31       c25_10_7_1a  -1
    C31       c25_10_7_1b  1
    C31       c25_10_8_1a  -1
    C31       c25_10_9_1a  -1
    C31       c25_10_9_1b  1
    C32       c24_10_0_2a1  -1
    C32       c24_10_0_2b1  1
    C32       c25_0_10_2a  1
    C32       c25_0_10_2b  -1
    C32       c25_1_10_2a  1
    C32       c25_2_10_2b  -1
    C32       c25_4_10_2b  -1
    C32       c25_5_10_2a  1
    C32       c25_5_10_2b  -1
    C32       c25_6_10_2b  -1
    C32       c25_7_10_2a  1
    C32       c25_8_10_2b  -1
    C32       c25_9_10_2a  1
    C32       c25_9_10_2b  -1
    C32       c25_10_1_2a  -1
    C32       c25_10_2_2b  1
    C32       c25_10_3_2a  -1
    C32       c25_10_3_2b  1
    C32       c25_10_4_2b  1
    C32       c25_10_6_2b  1
    C32       c25_10_7_2a  -1
    C32       c25_10_8_2b  1
    MARKER    'MARKER'                 'INTORG'
    delta_0_0_0  OBJ       -1000
    delta_0_0_0  c23_1a_0a  -1
    delta_0_0_0  c23_1a_0g1  1
    delta_0_0_0  c23_2_0_0a  1
    delta_0_0_0  c24_0_1_0a1  5
    delta_0_0_0  c24_0_1_0b1  -6
    delta_0_0_0  c25_0_3_0a  5
    delta_0_0_0  c25_0_3_0b  -6
    delta_0_0_0  c25_0_4_0a  5
    delta_0_0_0  c25_0_5_0b  -6
    delta_0_0_0  c25_0_6_0b  -6
    delta_0_0_0  c25_0_8_0a  5
    delta_0_0_0  c25_0_8_0b  -6
    delta_0_0_0  c25_0_9_0a  5
    delta_0_0_0  c25_0_9_0b  -6
    delta_0_0_0  c25_1_0_0a  -6
    delta_0_0_0  c25_1_0_0b  5
    delta_0_0_0  c25_2_0_0a  -6
    delta_0_0_0  c25_2_0_0b  5
    delta_0_0_0  c25_4_0_0a  -6
    delta_0_0_0  c25_5_0_0b  5
    delta_0_0_0  c25_6_0_0b  5
    delta_0_0_0  c25_7_0_0a  -6
    delta_0_0_0  c25_7_0_0b  5
    delta_0_0_0  c25_10_0_0a  -6
    delta_0_0_0  c25_10_0_0b  5
    delta_0_0_0  c26_1_0_1a  -1
    delta_0_0_0  c26_1_0_3a  -1
    delta_0_0_0  c26_3_0_3a  1
    delta_0_0_0  c26_1_0_4a  -1
    delta_0_0_0  c26_3_0_4a  1
    delta_0_0_0  c26_1_0_5a  -1
    delta_0_0_0  c26_1_0_6a  -1
    delta_0_0_0  c26_3_0_7a  1
    delta_0_0_0  c26_1_0_9a  -1
    delta_0_0_0  c26_3_0_9a  1
    delta_0_0_0  c26_3_0_10a  1
    delta_0_0_0  c26_3_1_0a  1
    delta_0_0_0  c26_2_2_0a  -1
    delta_0_0_0  c26_3_2_0a  1
    delta_0_0_0  c26_3_5_0a  1
    delta_0_0_0  c26_3_6_0a  1
    delta_0_0_0  c26_2_7_0a  -1
    delta_0_0_0  c26_2_8_0a  -1
    delta_0_0_0  c26_3_8_0a  1
    delta_0_0_0  c26_2_10_0a  -1
    delta_0_0_0  R595716   1
    delta_0_0_1  OBJ       -1000
    delta_0_0_1  c23_1a_0a  -1
    delta_0_0_1  c23_1a_0g1  -1
    delta_0_0_1  c23_2_0_1a  1
    delta_0_0_1  c24_0_1_1a1  5
    delta_0_0_1  c24_0_1_1b1  -95
    delta_0_0_1  c25_0_1_1a  5
    delta_0_0_1  c25_0_1_1b  -95
    delta_0_0_1  c25_0_2_1a  5
    delta_0_0_1  c25_0_3_1a  5
    delta_0_0_1  c25_0_5_1a  5
    delta_0_0_1  c25_0_5_1b  -95
    delta_0_0_1  c25_0_7_1a  5
    delta_0_0_1  c25_0_8_1a  5
    delta_0_0_1  c25_0_8_1b  -95
    delta_0_0_1  c25_0_10_1a  5
    delta_0_0_1  c25_2_0_1a  -95
    delta_0_0_1  c25_3_0_1a  -95
    delta_0_0_1  c25_4_0_1a  -95
    delta_0_0_1  c25_4_0_1b  5
    delta_0_0_1  c25_6_0_1a  -95
    delta_0_0_1  c25_6_0_1b  5
    delta_0_0_1  c25_7_0_1a  -95
    delta_0_0_1  c25_9_0_1a  -95
    delta_0_0_1  c25_9_0_1b  5
    delta_0_0_1  c25_10_0_1a  -95
    delta_0_0_1  c26_1_0_1a  -1
    delta_0_0_1  c26_1_0_3a  -1
    delta_0_0_1  c26_3_0_3a  1
    delta_0_0_1  c26_1_0_4a  -1
    delta_0_0_1  c26_3_0_4a  1
    delta_0_0_1  c26_1_0_5a  -1
    delta_0_0_1  c26_1_0_6a  -1
    delta_0_0_1  c26_3_0_7a  1
    delta_0_0_1  c26_1_0_9a  -1
    delta_0_0_1  c26_3_0_9a  1
    delta_0_0_1  c26_3_0_10a  1
    delta_0_0_1  c26_3_1_0a  1
    delta_0_0_1  c26_2_2_0a  -1
    delta_0_0_1  c26_3_2_0a  1
    delta_0_0_1  c26_3_5_0a  1
    delta_0_0_1  c26_3_6_0a  1
    delta_0_0_1  c26_2_7_0a  -1
    delta_0_0_1  c26_2_8_0a  -1
    delta_0_0_1  c26_3_8_0a  1
    delta_0_0_1  c26_2_10_0a  -1
    delta_0_0_1  R595716   1
    delta_0_0_2  OBJ       -1000
    delta_0_0_2  c23_1a_0a  -1
    delta_0_0_2  c23_2_0_2a  1
    delta_0_0_2  c24_0_1_2a1  5
    delta_0_0_2  c24_0_1_2b1  -6
    delta_0_0_2  c25_0_1_2b  -6
    delta_0_0_2  c25_0_2_2a  5
    delta_0_0_2  c25_0_5_2a  5
    delta_0_0_2  c25_0_7_2b  -6
    delta_0_0_2  c25_0_8_2a  5
    delta_0_0_2  c25_0_8_2b  -6
    delta_0_0_2  c25_0_9_2a  5
    delta_0_0_2  c25_0_9_2b  -6
    delta_0_0_2  c25_0_10_2a  5
    delta_0_0_2  c25_0_10_2b  -6
    delta_0_0_2  c25_1_0_2b  5
    delta_0_0_2  c25_2_0_2a  -6
    delta_0_0_2  c25_3_0_2a  -6
    delta_0_0_2  c25_3_0_2b  5
    delta_0_0_2  c25_4_0_2a  -6
    delta_0_0_2  c25_4_0_2b  5
    delta_0_0_2  c25_5_0_2a  -6
    delta_0_0_2  c25_6_0_2a  -6
    delta_0_0_2  c25_6_0_2b  5
    delta_0_0_2  c25_7_0_2b  5
    delta_0_0_2  c26_1_0_1a  -1
    delta_0_0_2  c26_1_0_3a  -1
    delta_0_0_2  c26_3_0_3a  1
    delta_0_0_2  c26_1_0_4a  -1
    delta_0_0_2  c26_3_0_4a  1
    delta_0_0_2  c26_1_0_5a  -1
    delta_0_0_2  c26_1_0_6a  -1
    delta_0_0_2  c26_3_0_7a  1
    delta_0_0_2  c26_1_0_9a  -1
    delta_0_0_2  c26_3_0_9a  1
    delta_0_0_2  c26_3_0_10a  1
    delta_0_0_2  c26_3_1_0a  1
    delta_0_0_2  c26_2_2_0a  -1
    delta_0_0_2  c26_3_2_0a  1
    delta_0_0_2  c26_3_5_0a  1
    delta_0_0_2  c26_3_6_0a  1
    delta_0_0_2  c26_2_7_0a  -1
    delta_0_0_2  c26_2_8_0a  -1
    delta_0_0_2  c26_3_8_0a  1
    delta_0_0_2  c26_2_10_0a  -1
    delta_0_0_2  R595716   1
    delta_0_1_0  c23_1a_0g1  1
    delta_0_1_0  c23_2_0_0a  1
    delta_0_1_0  c24_0_1_0a1  5
    delta_0_1_0  c24_0_1_0b1  -6
    delta_0_1_0  c25_0_3_0a  5
    delta_0_1_0  c25_0_3_0b  -6
    delta_0_1_0  c25_0_4_0a  5
    delta_0_1_0  c25_0_5_0b  -6
    delta_0_1_0  c25_0_6_0b  -6
    delta_0_1_0  c25_0_8_0a  5
    delta_0_1_0  c25_0_8_0b  -6
    delta_0_1_0  c25_0_9_0a  5
    delta_0_1_0  c25_0_9_0b  -6
    delta_0_1_0  c25_1_0_0a  -6
    delta_0_1_0  c25_1_0_0b  5
    delta_0_1_0  c25_2_0_0a  -6
    delta_0_1_0  c25_2_0_0b  5
    delta_0_1_0  c25_4_0_0a  -6
    delta_0_1_0  c25_5_0_0b  5
    delta_0_1_0  c25_6_0_0b  5
    delta_0_1_0  c25_7_0_0a  -6
    delta_0_1_0  c25_7_0_0b  5
    delta_0_1_0  c25_10_0_0a  -6
    delta_0_1_0  c25_10_0_0b  5
    delta_0_1_1  c23_1a_0g1  -1
    delta_0_1_1  c23_2_0_1a  1
    delta_0_1_1  c24_0_1_1a1  5
    delta_0_1_1  c24_0_1_1b1  -95
    delta_0_1_1  c25_0_1_1a  5
    delta_0_1_1  c25_0_1_1b  -95
    delta_0_1_1  c25_0_2_1a  5
    delta_0_1_1  c25_0_3_1a  5
    delta_0_1_1  c25_0_5_1a  5
    delta_0_1_1  c25_0_5_1b  -95
    delta_0_1_1  c25_0_7_1a  5
    delta_0_1_1  c25_0_8_1a  5
    delta_0_1_1  c25_0_8_1b  -95
    delta_0_1_1  c25_0_10_1a  5
    delta_0_1_1  c25_2_0_1a  -95
    delta_0_1_1  c25_3_0_1a  -95
    delta_0_1_1  c25_4_0_1a  -95
    delta_0_1_1  c25_4_0_1b  5
    delta_0_1_1  c25_6_0_1a  -95
    delta_0_1_1  c25_6_0_1b  5
    delta_0_1_1  c25_7_0_1a  -95
    delta_0_1_1  c25_9_0_1a  -95
    delta_0_1_1  c25_9_0_1b  5
    delta_0_1_1  c25_10_0_1a  -95
    delta_0_1_2  c23_2_0_2a  1
    delta_0_1_2  c24_0_1_2a1  5
    delta_0_1_2  c24_0_1_2b1  -6
    delta_0_1_2  c25_0_1_2b  -6
    delta_0_1_2  c25_0_2_2a  5
    delta_0_1_2  c25_0_5_2a  5
    delta_0_1_2  c25_0_7_2b  -6
    delta_0_1_2  c25_0_8_2a  5
    delta_0_1_2  c25_0_8_2b  -6
    delta_0_1_2  c25_0_9_2a  5
    delta_0_1_2  c25_0_9_2b  -6
    delta_0_1_2  c25_0_10_2a  5
    delta_0_1_2  c25_0_10_2b  -6
    delta_0_1_2  c25_1_0_2b  5
    delta_0_1_2  c25_2_0_2a  -6
    delta_0_1_2  c25_3_0_2a  -6
    delta_0_1_2  c25_3_0_2b  5
    delta_0_1_2  c25_4_0_2a  -6
    delta_0_1_2  c25_4_0_2b  5
    delta_0_1_2  c25_5_0_2a  -6
    delta_0_1_2  c25_6_0_2a  -6
    delta_0_1_2  c25_6_0_2b  5
    delta_0_1_2  c25_7_0_2b  5
    delta_0_2_0  c23_1a_0a  1
    delta_0_2_0  c23_1a_0g1  1
    delta_0_2_0  c23_2_0_1a  -1
    delta_0_2_0  c23_2_0_2a  -1
    delta_0_2_0  c24_0_1_0a1  5
    delta_0_2_0  c24_0_1_0b1  -6
    delta_0_2_0  c25_0_3_0a  5
    delta_0_2_0  c25_0_3_0b  -6
    delta_0_2_0  c25_0_4_0a  5
    delta_0_2_0  c25_0_5_0b  -6
    delta_0_2_0  c25_0_6_0b  -6
    delta_0_2_0  c25_0_8_0a  5
    delta_0_2_0  c25_0_8_0b  -6
    delta_0_2_0  c25_0_9_0a  5
    delta_0_2_0  c25_0_9_0b  -6
    delta_0_2_0  c25_1_0_0a  -6
    delta_0_2_0  c25_1_0_0b  5
    delta_0_2_0  c25_2_0_0a  -6
    delta_0_2_0  c25_2_0_0b  5
    delta_0_2_0  c25_4_0_0a  -6
    delta_0_2_0  c25_5_0_0b  5
    delta_0_2_0  c25_6_0_0b  5
    delta_0_2_0  c25_7_0_0a  -6
    delta_0_2_0  c25_7_0_0b  5
    delta_0_2_0  c25_10_0_0a  -6
    delta_0_2_0  c25_10_0_0b  5
    delta_0_2_1  c23_1a_0a  1
    delta_0_2_1  c23_1a_0g1  -1
    delta_0_2_1  c23_2_0_0a  -1
    delta_0_2_1  c23_2_0_2a  -1
    delta_0_2_1  c24_0_1_1a1  5
    delta_0_2_1  c24_0_1_1b1  -95
    delta_0_2_1  c25_0_1_1a  5
    delta_0_2_1  c25_0_1_1b  -95
    delta_0_2_1  c25_0_2_1a  5
    delta_0_2_1  c25_0_3_1a  5
    delta_0_2_1  c25_0_5_1a  5
    delta_0_2_1  c25_0_5_1b  -95
    delta_0_2_1  c25_0_7_1a  5
    delta_0_2_1  c25_0_8_1a  5
    delta_0_2_1  c25_0_8_1b  -95
    delta_0_2_1  c25_0_10_1a  5
    delta_0_2_1  c25_2_0_1a  -95
    delta_0_2_1  c25_3_0_1a  -95
    delta_0_2_1  c25_4_0_1a  -95
    delta_0_2_1  c25_4_0_1b  5
    delta_0_2_1  c25_6_0_1a  -95
    delta_0_2_1  c25_6_0_1b  5
    delta_0_2_1  c25_7_0_1a  -95
    delta_0_2_1  c25_9_0_1a  -95
    delta_0_2_1  c25_9_0_1b  5
    delta_0_2_1  c25_10_0_1a  -95
    delta_0_2_2  c23_1a_0a  1
    delta_0_2_2  c23_2_0_0a  -1
    delta_0_2_2  c23_2_0_1a  -1
    delta_0_2_2  c24_0_1_2a1  5
    delta_0_2_2  c24_0_1_2b1  -6
    delta_0_2_2  c25_0_1_2b  -6
    delta_0_2_2  c25_0_2_2a  5
    delta_0_2_2  c25_0_5_2a  5
    delta_0_2_2  c25_0_7_2b  -6
    delta_0_2_2  c25_0_8_2a  5
    delta_0_2_2  c25_0_8_2b  -6
    delta_0_2_2  c25_0_9_2a  5
    delta_0_2_2  c25_0_9_2b  -6
    delta_0_2_2  c25_0_10_2a  5
    delta_0_2_2  c25_0_10_2b  -6
    delta_0_2_2  c25_1_0_2b  5
    delta_0_2_2  c25_2_0_2a  -6
    delta_0_2_2  c25_3_0_2a  -6
    delta_0_2_2  c25_3_0_2b  5
    delta_0_2_2  c25_4_0_2a  -6
    delta_0_2_2  c25_4_0_2b  5
    delta_0_2_2  c25_5_0_2a  -6
    delta_0_2_2  c25_6_0_2a  -6
    delta_0_2_2  c25_6_0_2b  5
    delta_0_2_2  c25_7_0_2b  5
    delta_1_0_0  OBJ       -1000
    delta_1_0_0  c23_1a_1a  -1
    delta_1_0_0  c23_1a_1g1  1
    delta_1_0_0  c23_2_1_0a  1
    delta_1_0_0  c24_1_0_0a1  5
    delta_1_0_0  c24_1_0_0b1  -6
    delta_1_0_0  c25_1_0_0a  5
    delta_1_0_0  c25_1_0_0b  -6
    delta_1_0_0  c25_1_3_0b  -6
    delta_1_0_0  c25_1_4_0b  -6
    delta_1_0_0  c25_1_5_0b  -6
    delta_1_0_0  c25_1_6_0a  5
    delta_1_0_0  c25_1_6_0b  -6
    delta_1_0_0  c25_1_7_0a  5
    delta_1_0_0  c25_1_7_0b  -6
    delta_1_0_0  c25_1_10_0a  5
    delta_1_0_0  c25_2_1_0a  -6
    delta_1_0_0  c25_2_1_0b  5
    delta_1_0_0  c25_3_1_0b  5
    delta_1_0_0  c25_4_1_0b  5
    delta_1_0_0  c25_5_1_0b  5
    delta_1_0_0  c25_8_1_0a  -6
    delta_1_0_0  c25_8_1_0b  5
    delta_1_0_0  c25_9_1_0a  -6
    delta_1_0_0  c25_9_1_0b  5
    delta_1_0_0  c25_10_1_0a  -6
    delta_1_0_0  c26_2_0_1a  -1
    delta_1_0_0  c26_3_1_0a  1
    delta_1_0_0  c26_1_1_2a  -1
    delta_1_0_0  c26_3_1_4a  1
    delta_1_0_0  c26_1_1_6a  -1
    delta_1_0_0  c26_3_1_6a  1
    delta_1_0_0  c26_1_1_7a  -1
    delta_1_0_0  c26_1_1_8a  -1
    delta_1_0_0  c26_3_1_8a  1
    delta_1_0_0  c26_1_1_10a  -1
    delta_1_0_0  c26_3_2_1a  1
    delta_1_0_0  c26_2_3_1a  -1
    delta_1_0_0  c26_3_3_1a  1
    delta_1_0_0  c26_2_4_1a  -1
    delta_1_0_0  c26_2_5_1a  -1
    delta_1_0_0  c26_3_5_1a  1
    delta_1_0_0  c26_3_7_1a  1
    delta_1_0_0  c26_2_9_1a  -1
    delta_1_0_0  c26_3_9_1a  1
    delta_1_0_0  c26_3_10_1a  1
    delta_1_0_0  R595718   1
    delta_1_0_1  OBJ       -1000
    delta_1_0_1  c23_1a_1a  -1
    delta_1_0_1  c23_1a_1g1  -1
    delta_1_0_1  c23_2_1_1a  1
    delta_1_0_1  c24_1_0_1a1  5
    delta_1_0_1  c24_1_0_1b1  -95
    delta_1_0_1  c25_0_1_1a  -95
    delta_1_0_1  c25_0_1_1b  5
    delta_1_0_1  c25_1_3_1b  -95
    delta_1_0_1  c25_1_4_1a  5
    delta_1_0_1  c25_1_6_1a  5
    delta_1_0_1  c25_1_6_1b  -95
    delta_1_0_1  c25_1_7_1a  5
    delta_1_0_1  c25_1_7_1b  -95
    delta_1_0_1  c25_1_8_1b  -95
    delta_1_0_1  c25_1_10_1b  -95
    delta_1_0_1  c25_2_1_1a  -95
    delta_1_0_1  c25_2_1_1b  5
    delta_1_0_1  c25_3_1_1b  5
    delta_1_0_1  c25_4_1_1a  -95
    delta_1_0_1  c25_5_1_1a  -95
    delta_1_0_1  c25_5_1_1b  5
    delta_1_0_1  c25_8_1_1b  5
    delta_1_0_1  c25_9_1_1a  -95
    delta_1_0_1  c25_9_1_1b  5
    delta_1_0_1  c25_10_1_1b  5
    delta_1_0_1  c26_2_0_1a  -1
    delta_1_0_1  c26_3_1_0a  1
    delta_1_0_1  c26_1_1_2a  -1
    delta_1_0_1  c26_3_1_4a  1
    delta_1_0_1  c26_1_1_6a  -1
    delta_1_0_1  c26_3_1_6a  1
    delta_1_0_1  c26_1_1_7a  -1
    delta_1_0_1  c26_1_1_8a  -1
    delta_1_0_1  c26_3_1_8a  1
    delta_1_0_1  c26_1_1_10a  -1
    delta_1_0_1  c26_3_2_1a  1
    delta_1_0_1  c26_2_3_1a  -1
    delta_1_0_1  c26_3_3_1a  1
    delta_1_0_1  c26_2_4_1a  -1
    delta_1_0_1  c26_2_5_1a  -1
    delta_1_0_1  c26_3_5_1a  1
    delta_1_0_1  c26_3_7_1a  1
    delta_1_0_1  c26_2_9_1a  -1
    delta_1_0_1  c26_3_9_1a  1
    delta_1_0_1  c26_3_10_1a  1
    delta_1_0_1  R595718   1
    delta_1_0_2  OBJ       -1000
    delta_1_0_2  c23_1a_1a  -1
    delta_1_0_2  c23_2_1_2a  1
    delta_1_0_2  c24_1_0_2a1  5
    delta_1_0_2  c24_1_0_2b1  -6
    delta_1_0_2  c25_0_1_2b  5
    delta_1_0_2  c25_1_0_2b  -6
    delta_1_0_2  c25_1_2_2a  5
    delta_1_0_2  c25_1_3_2a  5
    delta_1_0_2  c25_1_3_2b  -6
    delta_1_0_2  c25_1_4_2a  5
    delta_1_0_2  c25_1_4_2b  -6
    delta_1_0_2  c25_1_5_2a  5
    delta_1_0_2  c25_1_5_2b  -6
    delta_1_0_2  c25_1_7_2a  5
    delta_1_0_2  c25_1_7_2b  -6
    delta_1_0_2  c25_1_8_2a  5
    delta_1_0_2  c25_1_9_2b  -6
    delta_1_0_2  c25_1_10_2a  5
    delta_1_0_2  c25_2_1_2a  -6
    delta_1_0_2  c25_6_1_2a  -6
    delta_1_0_2  c25_6_1_2b  5
    delta_1_0_2  c25_8_1_2a  -6
    delta_1_0_2  c25_9_1_2b  5
    delta_1_0_2  c25_10_1_2a  -6
    delta_1_0_2  c26_2_0_1a  -1
    delta_1_0_2  c26_3_1_0a  1
    delta_1_0_2  c26_1_1_2a  -1
    delta_1_0_2  c26_3_1_4a  1
    delta_1_0_2  c26_1_1_6a  -1
    delta_1_0_2  c26_3_1_6a  1
    delta_1_0_2  c26_1_1_7a  -1
    delta_1_0_2  c26_1_1_8a  -1
    delta_1_0_2  c26_3_1_8a  1
    delta_1_0_2  c26_1_1_10a  -1
    delta_1_0_2  c26_3_2_1a  1
    delta_1_0_2  c26_2_3_1a  -1
    delta_1_0_2  c26_3_3_1a  1
    delta_1_0_2  c26_2_4_1a  -1
    delta_1_0_2  c26_2_5_1a  -1
    delta_1_0_2  c26_3_5_1a  1
    delta_1_0_2  c26_3_7_1a  1
    delta_1_0_2  c26_2_9_1a  -1
    delta_1_0_2  c26_3_9_1a  1
    delta_1_0_2  c26_3_10_1a  1
    delta_1_0_2  R595718   1
    delta_1_1_0  c23_1a_1g1  1
    delta_1_1_0  c23_2_1_0a  1
    delta_1_1_0  c24_1_0_0a1  5
    delta_1_1_0  c24_1_0_0b1  -6
    delta_1_1_0  c25_1_0_0a  5
    delta_1_1_0  c25_1_0_0b  -6
    delta_1_1_0  c25_1_3_0b  -6
    delta_1_1_0  c25_1_4_0b  -6
    delta_1_1_0  c25_1_5_0b  -6
    delta_1_1_0  c25_1_6_0a  5
    delta_1_1_0  c25_1_6_0b  -6
    delta_1_1_0  c25_1_7_0a  5
    delta_1_1_0  c25_1_7_0b  -6
    delta_1_1_0  c25_1_10_0a  5
    delta_1_1_0  c25_2_1_0a  -6
    delta_1_1_0  c25_2_1_0b  5
    delta_1_1_0  c25_3_1_0b  5
    delta_1_1_0  c25_4_1_0b  5
    delta_1_1_0  c25_5_1_0b  5
    delta_1_1_0  c25_8_1_0a  -6
    delta_1_1_0  c25_8_1_0b  5
    delta_1_1_0  c25_9_1_0a  -6
    delta_1_1_0  c25_9_1_0b  5
    delta_1_1_0  c25_10_1_0a  -6
    delta_1_1_1  c23_1a_1g1  -1
    delta_1_1_1  c23_2_1_1a  1
    delta_1_1_1  c24_1_0_1a1  5
    delta_1_1_1  c24_1_0_1b1  -95
    delta_1_1_1  c25_0_1_1a  -95
    delta_1_1_1  c25_0_1_1b  5
    delta_1_1_1  c25_1_3_1b  -95
    delta_1_1_1  c25_1_4_1a  5
    delta_1_1_1  c25_1_6_1a  5
    delta_1_1_1  c25_1_6_1b  -95
    delta_1_1_1  c25_1_7_1a  5
    delta_1_1_1  c25_1_7_1b  -95
    delta_1_1_1  c25_1_8_1b  -95
    delta_1_1_1  c25_1_10_1b  -95
    delta_1_1_1  c25_2_1_1a  -95
    delta_1_1_1  c25_2_1_1b  5
    delta_1_1_1  c25_3_1_1b  5
    delta_1_1_1  c25_4_1_1a  -95
    delta_1_1_1  c25_5_1_1a  -95
    delta_1_1_1  c25_5_1_1b  5
    delta_1_1_1  c25_8_1_1b  5
    delta_1_1_1  c25_9_1_1a  -95
    delta_1_1_1  c25_9_1_1b  5
    delta_1_1_1  c25_10_1_1b  5
    delta_1_1_2  c23_2_1_2a  1
    delta_1_1_2  c24_1_0_2a1  5
    delta_1_1_2  c24_1_0_2b1  -6
    delta_1_1_2  c25_0_1_2b  5
    delta_1_1_2  c25_1_0_2b  -6
    delta_1_1_2  c25_1_2_2a  5
    delta_1_1_2  c25_1_3_2a  5
    delta_1_1_2  c25_1_3_2b  -6
    delta_1_1_2  c25_1_4_2a  5
    delta_1_1_2  c25_1_4_2b  -6
    delta_1_1_2  c25_1_5_2a  5
    delta_1_1_2  c25_1_5_2b  -6
    delta_1_1_2  c25_1_7_2a  5
    delta_1_1_2  c25_1_7_2b  -6
    delta_1_1_2  c25_1_8_2a  5
    delta_1_1_2  c25_1_9_2b  -6
    delta_1_1_2  c25_1_10_2a  5
    delta_1_1_2  c25_2_1_2a  -6
    delta_1_1_2  c25_6_1_2a  -6
    delta_1_1_2  c25_6_1_2b  5
    delta_1_1_2  c25_8_1_2a  -6
    delta_1_1_2  c25_9_1_2b  5
    delta_1_1_2  c25_10_1_2a  -6
    delta_1_2_0  c23_1a_1a  1
    delta_1_2_0  c23_1a_1g1  1
    delta_1_2_0  c23_2_1_1a  -1
    delta_1_2_0  c23_2_1_2a  -1
    delta_1_2_0  c24_1_0_0a1  5
    delta_1_2_0  c24_1_0_0b1  -6
    delta_1_2_0  c25_1_0_0a  5
    delta_1_2_0  c25_1_0_0b  -6
    delta_1_2_0  c25_1_3_0b  -6
    delta_1_2_0  c25_1_4_0b  -6
    delta_1_2_0  c25_1_5_0b  -6
    delta_1_2_0  c25_1_6_0a  5
    delta_1_2_0  c25_1_6_0b  -6
    delta_1_2_0  c25_1_7_0a  5
    delta_1_2_0  c25_1_7_0b  -6
    delta_1_2_0  c25_1_10_0a  5
    delta_1_2_0  c25_2_1_0a  -6
    delta_1_2_0  c25_2_1_0b  5
    delta_1_2_0  c25_3_1_0b  5
    delta_1_2_0  c25_4_1_0b  5
    delta_1_2_0  c25_5_1_0b  5
    delta_1_2_0  c25_8_1_0a  -6
    delta_1_2_0  c25_8_1_0b  5
    delta_1_2_0  c25_9_1_0a  -6
    delta_1_2_0  c25_9_1_0b  5
    delta_1_2_0  c25_10_1_0a  -6
    delta_1_2_1  c23_1a_1a  1
    delta_1_2_1  c23_1a_1g1  -1
    delta_1_2_1  c23_2_1_0a  -1
    delta_1_2_1  c23_2_1_2a  -1
    delta_1_2_1  c24_1_0_1a1  5
    delta_1_2_1  c24_1_0_1b1  -95
    delta_1_2_1  c25_0_1_1a  -95
    delta_1_2_1  c25_0_1_1b  5
    delta_1_2_1  c25_1_3_1b  -95
    delta_1_2_1  c25_1_4_1a  5
    delta_1_2_1  c25_1_6_1a  5
    delta_1_2_1  c25_1_6_1b  -95
    delta_1_2_1  c25_1_7_1a  5
    delta_1_2_1  c25_1_7_1b  -95
    delta_1_2_1  c25_1_8_1b  -95
    delta_1_2_1  c25_1_10_1b  -95
    delta_1_2_1  c25_2_1_1a  -95
    delta_1_2_1  c25_2_1_1b  5
    delta_1_2_1  c25_3_1_1b  5
    delta_1_2_1  c25_4_1_1a  -95
    delta_1_2_1  c25_5_1_1a  -95
    delta_1_2_1  c25_5_1_1b  5
    delta_1_2_1  c25_8_1_1b  5
    delta_1_2_1  c25_9_1_1a  -95
    delta_1_2_1  c25_9_1_1b  5
    delta_1_2_1  c25_10_1_1b  5
    delta_1_2_2  c23_1a_1a  1
    delta_1_2_2  c23_2_1_0a  -1
    delta_1_2_2  c23_2_1_1a  -1
    delta_1_2_2  c24_1_0_2a1  5
    delta_1_2_2  c24_1_0_2b1  -6
    delta_1_2_2  c25_0_1_2b  5
    delta_1_2_2  c25_1_0_2b  -6
    delta_1_2_2  c25_1_2_2a  5
    delta_1_2_2  c25_1_3_2a  5
    delta_1_2_2  c25_1_3_2b  -6
    delta_1_2_2  c25_1_4_2a  5
    delta_1_2_2  c25_1_4_2b  -6
    delta_1_2_2  c25_1_5_2a  5
    delta_1_2_2  c25_1_5_2b  -6
    delta_1_2_2  c25_1_7_2a  5
    delta_1_2_2  c25_1_7_2b  -6
    delta_1_2_2  c25_1_8_2a  5
    delta_1_2_2  c25_1_9_2b  -6
    delta_1_2_2  c25_1_10_2a  5
    delta_1_2_2  c25_2_1_2a  -6
    delta_1_2_2  c25_6_1_2a  -6
    delta_1_2_2  c25_6_1_2b  5
    delta_1_2_2  c25_8_1_2a  -6
    delta_1_2_2  c25_9_1_2b  5
    delta_1_2_2  c25_10_1_2a  -6
    delta_2_0_0  OBJ       -1000
    delta_2_0_0  c23_1a_2a  -1
    delta_2_0_0  c23_1a_2g1  1
    delta_2_0_0  c23_2_2_0a  1
    delta_2_0_0  c24_2_0_0a1  5
    delta_2_0_0  c24_2_0_0b1  -6
    delta_2_0_0  c25_2_0_0a  5
    delta_2_0_0  c25_2_0_0b  -6
    delta_2_0_0  c25_2_1_0a  5
    delta_2_0_0  c25_2_1_0b  -6
    delta_2_0_0  c25_2_3_0a  5
    delta_2_0_0  c25_2_3_0b  -6
    delta_2_0_0  c25_2_4_0a  5
    delta_2_0_0  c25_2_4_0b  -6
    delta_2_0_0  c25_2_5_0a  5
    delta_2_0_0  c25_2_5_0b  -6
    delta_2_0_0  c25_2_6_0a  5
    delta_2_0_0  c25_2_8_0a  5
    delta_2_0_0  c25_2_8_0b  -6
    delta_2_0_0  c25_2_9_0b  -6
    delta_2_0_0  c25_2_10_0a  5
    delta_2_0_0  c25_2_10_0b  -6
    delta_2_0_0  c25_6_2_0a  -6
    delta_2_0_0  c25_7_2_0a  -6
    delta_2_0_0  c25_7_2_0b  5
    delta_2_0_0  c25_9_2_0b  5
    delta_2_0_0  c26_2_0_2a  -1
    delta_2_0_0  c26_2_1_2a  -1
    delta_2_0_0  c26_3_2_0a  1
    delta_2_0_0  c26_3_2_1a  1
    delta_2_0_0  c26_3_2_3a  1
    delta_2_0_0  c26_3_2_4a  1
    delta_2_0_0  c26_1_2_5a  -1
    delta_2_0_0  c26_1_2_6a  -1
    delta_2_0_0  c26_3_2_8a  1
    delta_2_0_0  c26_1_2_10a  -1
    delta_2_0_0  c26_3_2_10a  1
    delta_2_0_0  c26_2_3_2a  -1
    delta_2_0_0  c26_2_4_2a  -1
    delta_2_0_0  c26_3_5_2a  1
    delta_2_0_0  c26_3_6_2a  1
    delta_2_0_0  c26_2_7_2a  -1
    delta_2_0_0  c26_3_7_2a  1
    delta_2_0_0  c26_2_8_2a  -1
    delta_2_0_0  c26_2_9_2a  -1
    delta_2_0_0  c26_3_9_2a  1
    delta_2_0_0  R595721   1
    delta_2_0_1  OBJ       -1000
    delta_2_0_1  c23_1a_2a  -1
    delta_2_0_1  c23_1a_2g1  -1
    delta_2_0_1  c23_2_2_1a  1
    delta_2_0_1  c24_2_0_1a1  5
    delta_2_0_1  c24_2_0_1b1  -95
    delta_2_0_1  c25_0_2_1a  -95
    delta_2_0_1  c25_2_0_1a  5
    delta_2_0_1  c25_2_1_1a  5
    delta_2_0_1  c25_2_1_1b  -95
    delta_2_0_1  c25_2_3_1a  5
    delta_2_0_1  c25_2_3_1b  -95
    delta_2_0_1  c25_2_4_1a  5
    delta_2_0_1  c25_2_5_1a  5
    delta_2_0_1  c25_2_5_1b  -95
    delta_2_0_1  c25_2_7_1a  5
    delta_2_0_1  c25_2_7_1b  -95
    delta_2_0_1  c25_2_10_1b  -95
    delta_2_0_1  c25_4_2_1a  -95
    delta_2_0_1  c25_6_2_1a  -95
    delta_2_0_1  c25_6_2_1b  5
    delta_2_0_1  c25_8_2_1a  -95
    delta_2_0_1  c25_8_2_1b  5
    delta_2_0_1  c25_9_2_1a  -95
    delta_2_0_1  c25_9_2_1b  5
    delta_2_0_1  c25_10_2_1b  5
    delta_2_0_1  c26_2_0_2a  -1
    delta_2_0_1  c26_2_1_2a  -1
    delta_2_0_1  c26_3_2_0a  1
    delta_2_0_1  c26_3_2_1a  1
    delta_2_0_1  c26_3_2_3a  1
    delta_2_0_1  c26_3_2_4a  1
    delta_2_0_1  c26_1_2_5a  -1
    delta_2_0_1  c26_1_2_6a  -1
    delta_2_0_1  c26_3_2_8a  1
    delta_2_0_1  c26_1_2_10a  -1
    delta_2_0_1  c26_3_2_10a  1
    delta_2_0_1  c26_2_3_2a  -1
    delta_2_0_1  c26_2_4_2a  -1
    delta_2_0_1  c26_3_5_2a  1
    delta_2_0_1  c26_3_6_2a  1
    delta_2_0_1  c26_2_7_2a  -1
    delta_2_0_1  c26_3_7_2a  1
    delta_2_0_1  c26_2_8_2a  -1
    delta_2_0_1  c26_2_9_2a  -1
    delta_2_0_1  c26_3_9_2a  1
    delta_2_0_1  R595721   1
    delta_2_0_2  OBJ       -1000
    delta_2_0_2  c23_1a_2a  -1
    delta_2_0_2  c23_2_2_2a  1
    delta_2_0_2  c24_2_0_2a1  5
    delta_2_0_2  c24_2_0_2b1  -6
    delta_2_0_2  c25_0_2_2a  -6
    delta_2_0_2  c25_1_2_2a  -6
    delta_2_0_2  c25_2_0_2a  5
    delta_2_0_2  c25_2_1_2a  5
    delta_2_0_2  c25_2_3_2a  5
    delta_2_0_2  c25_2_5_2a  5
    delta_2_0_2  c25_2_5_2b  -6
    delta_2_0_2  c25_2_6_2a  5
    delta_2_0_2  c25_2_6_2b  -6
    delta_2_0_2  c25_2_7_2b  -6
    delta_2_0_2  c25_2_8_2a  5
    delta_2_0_2  c25_2_9_2b  -6
    delta_2_0_2  c25_2_10_2b  -6
    delta_2_0_2  c25_3_2_2a  -6
    delta_2_0_2  c25_4_2_2a  -6
    delta_2_0_2  c25_4_2_2b  5
    delta_2_0_2  c25_7_2_2b  5
    delta_2_0_2  c25_8_2_2a  -6
    delta_2_0_2  c25_9_2_2b  5
    delta_2_0_2  c25_10_2_2b  5
    delta_2_0_2  c26_2_0_2a  -1
    delta_2_0_2  c26_2_1_2a  -1
    delta_2_0_2  c26_3_2_0a  1
    delta_2_0_2  c26_3_2_1a  1
    delta_2_0_2  c26_3_2_3a  1
    delta_2_0_2  c26_3_2_4a  1
    delta_2_0_2  c26_1_2_5a  -1
    delta_2_0_2  c26_1_2_6a  -1
    delta_2_0_2  c26_3_2_8a  1
    delta_2_0_2  c26_1_2_10a  -1
    delta_2_0_2  c26_3_2_10a  1
    delta_2_0_2  c26_2_3_2a  -1
    delta_2_0_2  c26_2_4_2a  -1
    delta_2_0_2  c26_3_5_2a  1
    delta_2_0_2  c26_3_6_2a  1
    delta_2_0_2  c26_2_7_2a  -1
    delta_2_0_2  c26_3_7_2a  1
    delta_2_0_2  c26_2_8_2a  -1
    delta_2_0_2  c26_2_9_2a  -1
    delta_2_0_2  c26_3_9_2a  1
    delta_2_0_2  R595721   1
    delta_2_1_0  c23_1a_2g1  1
    delta_2_1_0  c23_2_2_0a  1
    delta_2_1_0  c24_2_0_0a1  5
    delta_2_1_0  c24_2_0_0b1  -6
    delta_2_1_0  c25_2_0_0a  5
    delta_2_1_0  c25_2_0_0b  -6
    delta_2_1_0  c25_2_1_0a  5
    delta_2_1_0  c25_2_1_0b  -6
    delta_2_1_0  c25_2_3_0a  5
    delta_2_1_0  c25_2_3_0b  -6
    delta_2_1_0  c25_2_4_0a  5
    delta_2_1_0  c25_2_4_0b  -6
    delta_2_1_0  c25_2_5_0a  5
    delta_2_1_0  c25_2_5_0b  -6
    delta_2_1_0  c25_2_6_0a  5
    delta_2_1_0  c25_2_8_0a  5
    delta_2_1_0  c25_2_8_0b  -6
    delta_2_1_0  c25_2_9_0b  -6
    delta_2_1_0  c25_2_10_0a  5
    delta_2_1_0  c25_2_10_0b  -6
    delta_2_1_0  c25_6_2_0a  -6
    delta_2_1_0  c25_7_2_0a  -6
    delta_2_1_0  c25_7_2_0b  5
    delta_2_1_0  c25_9_2_0b  5
    delta_2_1_1  c23_1a_2g1  -1
    delta_2_1_1  c23_2_2_1a  1
    delta_2_1_1  c24_2_0_1a1  5
    delta_2_1_1  c24_2_0_1b1  -95
    delta_2_1_1  c25_0_2_1a  -95
    delta_2_1_1  c25_2_0_1a  5
    delta_2_1_1  c25_2_1_1a  5
    delta_2_1_1  c25_2_1_1b  -95
    delta_2_1_1  c25_2_3_1a  5
    delta_2_1_1  c25_2_3_1b  -95
    delta_2_1_1  c25_2_4_1a  5
    delta_2_1_1  c25_2_5_1a  5
    delta_2_1_1  c25_2_5_1b  -95
    delta_2_1_1  c25_2_7_1a  5
    delta_2_1_1  c25_2_7_1b  -95
    delta_2_1_1  c25_2_10_1b  -95
    delta_2_1_1  c25_4_2_1a  -95
    delta_2_1_1  c25_6_2_1a  -95
    delta_2_1_1  c25_6_2_1b  5
    delta_2_1_1  c25_8_2_1a  -95
    delta_2_1_1  c25_8_2_1b  5
    delta_2_1_1  c25_9_2_1a  -95
    delta_2_1_1  c25_9_2_1b  5
    delta_2_1_1  c25_10_2_1b  5
    delta_2_1_2  c23_2_2_2a  1
    delta_2_1_2  c24_2_0_2a1  5
    delta_2_1_2  c24_2_0_2b1  -6
    delta_2_1_2  c25_0_2_2a  -6
    delta_2_1_2  c25_1_2_2a  -6
    delta_2_1_2  c25_2_0_2a  5
    delta_2_1_2  c25_2_1_2a  5
    delta_2_1_2  c25_2_3_2a  5
    delta_2_1_2  c25_2_5_2a  5
    delta_2_1_2  c25_2_5_2b  -6
    delta_2_1_2  c25_2_6_2a  5
    delta_2_1_2  c25_2_6_2b  -6
    delta_2_1_2  c25_2_7_2b  -6
    delta_2_1_2  c25_2_8_2a  5
    delta_2_1_2  c25_2_9_2b  -6
    delta_2_1_2  c25_2_10_2b  -6
    delta_2_1_2  c25_3_2_2a  -6
    delta_2_1_2  c25_4_2_2a  -6
    delta_2_1_2  c25_4_2_2b  5
    delta_2_1_2  c25_7_2_2b  5
    delta_2_1_2  c25_8_2_2a  -6
    delta_2_1_2  c25_9_2_2b  5
    delta_2_1_2  c25_10_2_2b  5
    delta_2_2_0  c23_1a_2a  1
    delta_2_2_0  c23_1a_2g1  1
    delta_2_2_0  c23_2_2_1a  -1
    delta_2_2_0  c23_2_2_2a  -1
    delta_2_2_0  c24_2_0_0a1  5
    delta_2_2_0  c24_2_0_0b1  -6
    delta_2_2_0  c25_2_0_0a  5
    delta_2_2_0  c25_2_0_0b  -6
    delta_2_2_0  c25_2_1_0a  5
    delta_2_2_0  c25_2_1_0b  -6
    delta_2_2_0  c25_2_3_0a  5
    delta_2_2_0  c25_2_3_0b  -6
    delta_2_2_0  c25_2_4_0a  5
    delta_2_2_0  c25_2_4_0b  -6
    delta_2_2_0  c25_2_5_0a  5
    delta_2_2_0  c25_2_5_0b  -6
    delta_2_2_0  c25_2_6_0a  5
    delta_2_2_0  c25_2_8_0a  5
    delta_2_2_0  c25_2_8_0b  -6
    delta_2_2_0  c25_2_9_0b  -6
    delta_2_2_0  c25_2_10_0a  5
    delta_2_2_0  c25_2_10_0b  -6
    delta_2_2_0  c25_6_2_0a  -6
    delta_2_2_0  c25_7_2_0a  -6
    delta_2_2_0  c25_7_2_0b  5
    delta_2_2_0  c25_9_2_0b  5
    delta_2_2_1  c23_1a_2a  1
    delta_2_2_1  c23_1a_2g1  -1
    delta_2_2_1  c23_2_2_0a  -1
    delta_2_2_1  c23_2_2_2a  -1
    delta_2_2_1  c24_2_0_1a1  5
    delta_2_2_1  c24_2_0_1b1  -95
    delta_2_2_1  c25_0_2_1a  -95
    delta_2_2_1  c25_2_0_1a  5
    delta_2_2_1  c25_2_1_1a  5
    delta_2_2_1  c25_2_1_1b  -95
    delta_2_2_1  c25_2_3_1a  5
    delta_2_2_1  c25_2_3_1b  -95
    delta_2_2_1  c25_2_4_1a  5
    delta_2_2_1  c25_2_5_1a  5
    delta_2_2_1  c25_2_5_1b  -95
    delta_2_2_1  c25_2_7_1a  5
    delta_2_2_1  c25_2_7_1b  -95
    delta_2_2_1  c25_2_10_1b  -95
    delta_2_2_1  c25_4_2_1a  -95
    delta_2_2_1  c25_6_2_1a  -95
    delta_2_2_1  c25_6_2_1b  5
    delta_2_2_1  c25_8_2_1a  -95
    delta_2_2_1  c25_8_2_1b  5
    delta_2_2_1  c25_9_2_1a  -95
    delta_2_2_1  c25_9_2_1b  5
    delta_2_2_1  c25_10_2_1b  5
    delta_2_2_2  c23_1a_2a  1
    delta_2_2_2  c23_2_2_0a  -1
    delta_2_2_2  c23_2_2_1a  -1
    delta_2_2_2  c24_2_0_2a1  5
    delta_2_2_2  c24_2_0_2b1  -6
    delta_2_2_2  c25_0_2_2a  -6
    delta_2_2_2  c25_1_2_2a  -6
    delta_2_2_2  c25_2_0_2a  5
    delta_2_2_2  c25_2_1_2a  5
    delta_2_2_2  c25_2_3_2a  5
    delta_2_2_2  c25_2_5_2a  5
    delta_2_2_2  c25_2_5_2b  -6
    delta_2_2_2  c25_2_6_2a  5
    delta_2_2_2  c25_2_6_2b  -6
    delta_2_2_2  c25_2_7_2b  -6
    delta_2_2_2  c25_2_8_2a  5
    delta_2_2_2  c25_2_9_2b  -6
    delta_2_2_2  c25_2_10_2b  -6
    delta_2_2_2  c25_3_2_2a  -6
    delta_2_2_2  c25_4_2_2a  -6
    delta_2_2_2  c25_4_2_2b  5
    delta_2_2_2  c25_7_2_2b  5
    delta_2_2_2  c25_8_2_2a  -6
    delta_2_2_2  c25_9_2_2b  5
    delta_2_2_2  c25_10_2_2b  5
    delta_3_0_0  OBJ       -1000
    delta_3_0_0  c23_1a_3a  -1
    delta_3_0_0  c23_1a_3g1  1
    delta_3_0_0  c23_2_3_0a  1
    delta_3_0_0  c24_3_0_0a1  5
    delta_3_0_0  c24_3_0_0b1  -6
    delta_3_0_0  c25_0_3_0a  -6
    delta_3_0_0  c25_0_3_0b  5
    delta_3_0_0  c25_1_3_0b  5
    delta_3_0_0  c25_2_3_0a  -6
    delta_3_0_0  c25_2_3_0b  5
    delta_3_0_0  c25_3_1_0b  -6
    delta_3_0_0  c25_3_6_0a  5
    delta_3_0_0  c25_3_7_0b  -6
    delta_3_0_0  c25_3_8_0a  5
    delta_3_0_0  c25_3_9_0b  -6
    delta_3_0_0  c25_3_10_0a  5
    delta_3_0_0  c25_4_3_0a  -6
    delta_3_0_0  c25_4_3_0b  5
    delta_3_0_0  c25_5_3_0a  -6
    delta_3_0_0  c25_5_3_0b  5
    delta_3_0_0  c25_6_3_0a  -6
    delta_3_0_0  c25_7_3_0b  5
    delta_3_0_0  c25_8_3_0a  -6
    delta_3_0_0  c25_9_3_0b  5
    delta_3_0_0  c25_10_3_0a  -6
    delta_3_0_0  c26_2_0_3a  -1
    delta_3_0_0  c26_3_0_3a  1
    delta_3_0_0  c26_2_1_3a  -1
    delta_3_0_0  c26_2_2_3a  -1
    delta_3_0_0  c26_3_2_3a  1
    delta_3_0_0  c26_3_3_1a  1
    delta_3_0_0  c26_1_3_4a  -1
    delta_3_0_0  c26_3_3_4a  1
    delta_3_0_0  c26_3_3_5a  1
    delta_3_0_0  c26_1_3_7a  -1
    delta_3_0_0  c26_3_3_7a  1
    delta_3_0_0  c26_1_3_8a  -1
    delta_3_0_0  c26_1_3_9a  -1
    delta_3_0_0  c26_3_3_9a  1
    delta_3_0_0  c26_1_3_10a  -1
    delta_3_0_0  c26_3_3_10a  1
    delta_3_0_0  c26_2_5_3a  -1
    delta_3_0_0  c26_2_6_3a  -1
    delta_3_0_0  c26_3_6_3a  1
    delta_3_0_0  c26_3_8_3a  1
    delta_3_0_0  R595725   1
    delta_3_0_1  OBJ       -1000
    delta_3_0_1  c23_1a_3a  -1
    delta_3_0_1  c23_1a_3g1  -1
    delta_3_0_1  c23_2_3_1a  1
    delta_3_0_1  c24_3_0_1a1  5
    delta_3_0_1  c24_3_0_1b1  -95
    delta_3_0_1  c25_0_3_1a  -95
    delta_3_0_1  c25_1_3_1b  5
    delta_3_0_1  c25_2_3_1a  -95
    delta_3_0_1  c25_2_3_1b  5
    delta_3_0_1  c25_3_0_1a  5
    delta_3_0_1  c25_3_1_1b  -95
    delta_3_0_1  c25_3_4_1a  5
    delta_3_0_1  c25_3_5_1a  5
    delta_3_0_1  c25_3_5_1b  -95
    delta_3_0_1  c25_3_7_1a  5
    delta_3_0_1  c25_3_7_1b  -95
    delta_3_0_1  c25_3_8_1b  -95
    delta_3_0_1  c25_4_3_1a  -95
    delta_3_0_1  c25_6_3_1a  -95
    delta_3_0_1  c25_6_3_1b  5
    delta_3_0_1  c25_8_3_1b  5
    delta_3_0_1  c25_9_3_1a  -95
    delta_3_0_1  c25_9_3_1b  5
    delta_3_0_1  c25_10_3_1a  -95
    delta_3_0_1  c25_10_3_1b  5
    delta_3_0_1  c26_2_0_3a  -1
    delta_3_0_1  c26_3_0_3a  1
    delta_3_0_1  c26_2_1_3a  -1
    delta_3_0_1  c26_2_2_3a  -1
    delta_3_0_1  c26_3_2_3a  1
    delta_3_0_1  c26_3_3_1a  1
    delta_3_0_1  c26_1_3_4a  -1
    delta_3_0_1  c26_3_3_4a  1
    delta_3_0_1  c26_3_3_5a  1
    delta_3_0_1  c26_1_3_7a  -1
    delta_3_0_1  c26_3_3_7a  1
    delta_3_0_1  c26_1_3_8a  -1
    delta_3_0_1  c26_1_3_9a  -1
    delta_3_0_1  c26_3_3_9a  1
    delta_3_0_1  c26_1_3_10a  -1
    delta_3_0_1  c26_3_3_10a  1
    delta_3_0_1  c26_2_5_3a  -1
    delta_3_0_1  c26_2_6_3a  -1
    delta_3_0_1  c26_3_6_3a  1
    delta_3_0_1  c26_3_8_3a  1
    delta_3_0_1  R595725   1
    delta_3_0_2  OBJ       -1000
    delta_3_0_2  c23_1a_3a  -1
    delta_3_0_2  c23_2_3_2a  1
    delta_3_0_2  c24_3_0_2a1  5
    delta_3_0_2  c24_3_0_2b1  -6
    delta_3_0_2  c25_1_3_2a  -6
    delta_3_0_2  c25_1_3_2b  5
    delta_3_0_2  c25_2_3_2a  -6
    delta_3_0_2  c25_3_0_2a  5
    delta_3_0_2  c25_3_0_2b  -6
    delta_3_0_2  c25_3_2_2a  5
    delta_3_0_2  c25_3_4_2b  -6
    delta_3_0_2  c25_3_5_2a  5
    delta_3_0_2  c25_3_6_2a  5
    delta_3_0_2  c25_3_6_2b  -6
    delta_3_0_2  c25_3_7_2b  -6
    delta_3_0_2  c25_3_8_2a  5
    delta_3_0_2  c25_3_8_2b  -6
    delta_3_0_2  c25_3_9_2a  5
    delta_3_0_2  c25_4_3_2b  5
    delta_3_0_2  c25_5_3_2a  -6
    delta_3_0_2  c25_7_3_2b  5
    delta_3_0_2  c25_9_3_2a  -6
    delta_3_0_2  c25_10_3_2a  -6
    delta_3_0_2  c25_10_3_2b  5
    delta_3_0_2  c26_2_0_3a  -1
    delta_3_0_2  c26_3_0_3a  1
    delta_3_0_2  c26_2_1_3a  -1
    delta_3_0_2  c26_2_2_3a  -1
    delta_3_0_2  c26_3_2_3a  1
    delta_3_0_2  c26_3_3_1a  1
    delta_3_0_2  c26_1_3_4a  -1
    delta_3_0_2  c26_3_3_4a  1
    delta_3_0_2  c26_3_3_5a  1
    delta_3_0_2  c26_1_3_7a  -1
    delta_3_0_2  c26_3_3_7a  1
    delta_3_0_2  c26_1_3_8a  -1
    delta_3_0_2  c26_1_3_9a  -1
    delta_3_0_2  c26_3_3_9a  1
    delta_3_0_2  c26_1_3_10a  -1
    delta_3_0_2  c26_3_3_10a  1
    delta_3_0_2  c26_2_5_3a  -1
    delta_3_0_2  c26_2_6_3a  -1
    delta_3_0_2  c26_3_6_3a  1
    delta_3_0_2  c26_3_8_3a  1
    delta_3_0_2  R595725   1
    delta_3_1_0  c23_1a_3g1  1
    delta_3_1_0  c23_2_3_0a  1
    delta_3_1_0  c24_3_0_0a1  5
    delta_3_1_0  c24_3_0_0b1  -6
    delta_3_1_0  c25_0_3_0a  -6
    delta_3_1_0  c25_0_3_0b  5
    delta_3_1_0  c25_1_3_0b  5
    delta_3_1_0  c25_2_3_0a  -6
    delta_3_1_0  c25_2_3_0b  5
    delta_3_1_0  c25_3_1_0b  -6
    delta_3_1_0  c25_3_6_0a  5
    delta_3_1_0  c25_3_7_0b  -6
    delta_3_1_0  c25_3_8_0a  5
    delta_3_1_0  c25_3_9_0b  -6
    delta_3_1_0  c25_3_10_0a  5
    delta_3_1_0  c25_4_3_0a  -6
    delta_3_1_0  c25_4_3_0b  5
    delta_3_1_0  c25_5_3_0a  -6
    delta_3_1_0  c25_5_3_0b  5
    delta_3_1_0  c25_6_3_0a  -6
    delta_3_1_0  c25_7_3_0b  5
    delta_3_1_0  c25_8_3_0a  -6
    delta_3_1_0  c25_9_3_0b  5
    delta_3_1_0  c25_10_3_0a  -6
    delta_3_1_1  c23_1a_3g1  -1
    delta_3_1_1  c23_2_3_1a  1
    delta_3_1_1  c24_3_0_1a1  5
    delta_3_1_1  c24_3_0_1b1  -95
    delta_3_1_1  c25_0_3_1a  -95
    delta_3_1_1  c25_1_3_1b  5
    delta_3_1_1  c25_2_3_1a  -95
    delta_3_1_1  c25_2_3_1b  5
    delta_3_1_1  c25_3_0_1a  5
    delta_3_1_1  c25_3_1_1b  -95
    delta_3_1_1  c25_3_4_1a  5
    delta_3_1_1  c25_3_5_1a  5
    delta_3_1_1  c25_3_5_1b  -95
    delta_3_1_1  c25_3_7_1a  5
    delta_3_1_1  c25_3_7_1b  -95
    delta_3_1_1  c25_3_8_1b  -95
    delta_3_1_1  c25_4_3_1a  -95
    delta_3_1_1  c25_6_3_1a  -95
    delta_3_1_1  c25_6_3_1b  5
    delta_3_1_1  c25_8_3_1b  5
    delta_3_1_1  c25_9_3_1a  -95
    delta_3_1_1  c25_9_3_1b  5
    delta_3_1_1  c25_10_3_1a  -95
    delta_3_1_1  c25_10_3_1b  5
    delta_3_1_2  c23_2_3_2a  1
    delta_3_1_2  c24_3_0_2a1  5
    delta_3_1_2  c24_3_0_2b1  -6
    delta_3_1_2  c25_1_3_2a  -6
    delta_3_1_2  c25_1_3_2b  5
    delta_3_1_2  c25_2_3_2a  -6
    delta_3_1_2  c25_3_0_2a  5
    delta_3_1_2  c25_3_0_2b  -6
    delta_3_1_2  c25_3_2_2a  5
    delta_3_1_2  c25_3_4_2b  -6
    delta_3_1_2  c25_3_5_2a  5
    delta_3_1_2  c25_3_6_2a  5
    delta_3_1_2  c25_3_6_2b  -6
    delta_3_1_2  c25_3_7_2b  -6
    delta_3_1_2  c25_3_8_2a  5
    delta_3_1_2  c25_3_8_2b  -6
    delta_3_1_2  c25_3_9_2a  5
    delta_3_1_2  c25_4_3_2b  5
    delta_3_1_2  c25_5_3_2a  -6
    delta_3_1_2  c25_7_3_2b  5
    delta_3_1_2  c25_9_3_2a  -6
    delta_3_1_2  c25_10_3_2a  -6
    delta_3_1_2  c25_10_3_2b  5
    delta_3_2_0  c23_1a_3a  1
    delta_3_2_0  c23_1a_3g1  1
    delta_3_2_0  c23_2_3_1a  -1
    delta_3_2_0  c23_2_3_2a  -1
    delta_3_2_0  c24_3_0_0a1  5
    delta_3_2_0  c24_3_0_0b1  -6
    delta_3_2_0  c25_0_3_0a  -6
    delta_3_2_0  c25_0_3_0b  5
    delta_3_2_0  c25_1_3_0b  5
    delta_3_2_0  c25_2_3_0a  -6
    delta_3_2_0  c25_2_3_0b  5
    delta_3_2_0  c25_3_1_0b  -6
    delta_3_2_0  c25_3_6_0a  5
    delta_3_2_0  c25_3_7_0b  -6
    delta_3_2_0  c25_3_8_0a  5
    delta_3_2_0  c25_3_9_0b  -6
    delta_3_2_0  c25_3_10_0a  5
    delta_3_2_0  c25_4_3_0a  -6
    delta_3_2_0  c25_4_3_0b  5
    delta_3_2_0  c25_5_3_0a  -6
    delta_3_2_0  c25_5_3_0b  5
    delta_3_2_0  c25_6_3_0a  -6
    delta_3_2_0  c25_7_3_0b  5
    delta_3_2_0  c25_8_3_0a  -6
    delta_3_2_0  c25_9_3_0b  5
    delta_3_2_0  c25_10_3_0a  -6
    delta_3_2_1  c23_1a_3a  1
    delta_3_2_1  c23_1a_3g1  -1
    delta_3_2_1  c23_2_3_0a  -1
    delta_3_2_1  c23_2_3_2a  -1
    delta_3_2_1  c24_3_0_1a1  5
    delta_3_2_1  c24_3_0_1b1  -95
    delta_3_2_1  c25_0_3_1a  -95
    delta_3_2_1  c25_1_3_1b  5
    delta_3_2_1  c25_2_3_1a  -95
    delta_3_2_1  c25_2_3_1b  5
    delta_3_2_1  c25_3_0_1a  5
    delta_3_2_1  c25_3_1_1b  -95
    delta_3_2_1  c25_3_4_1a  5
    delta_3_2_1  c25_3_5_1a  5
    delta_3_2_1  c25_3_5_1b  -95
    delta_3_2_1  c25_3_7_1a  5
    delta_3_2_1  c25_3_7_1b  -95
    delta_3_2_1  c25_3_8_1b  -95
    delta_3_2_1  c25_4_3_1a  -95
    delta_3_2_1  c25_6_3_1a  -95
    delta_3_2_1  c25_6_3_1b  5
    delta_3_2_1  c25_8_3_1b  5
    delta_3_2_1  c25_9_3_1a  -95
    delta_3_2_1  c25_9_3_1b  5
    delta_3_2_1  c25_10_3_1a  -95
    delta_3_2_1  c25_10_3_1b  5
    delta_3_2_2  c23_1a_3a  1
    delta_3_2_2  c23_2_3_0a  -1
    delta_3_2_2  c23_2_3_1a  -1
    delta_3_2_2  c24_3_0_2a1  5
    delta_3_2_2  c24_3_0_2b1  -6
    delta_3_2_2  c25_1_3_2a  -6
    delta_3_2_2  c25_1_3_2b  5
    delta_3_2_2  c25_2_3_2a  -6
    delta_3_2_2  c25_3_0_2a  5
    delta_3_2_2  c25_3_0_2b  -6
    delta_3_2_2  c25_3_2_2a  5
    delta_3_2_2  c25_3_4_2b  -6
    delta_3_2_2  c25_3_5_2a  5
    delta_3_2_2  c25_3_6_2a  5
    delta_3_2_2  c25_3_6_2b  -6
    delta_3_2_2  c25_3_7_2b  -6
    delta_3_2_2  c25_3_8_2a  5
    delta_3_2_2  c25_3_8_2b  -6
    delta_3_2_2  c25_3_9_2a  5
    delta_3_2_2  c25_4_3_2b  5
    delta_3_2_2  c25_5_3_2a  -6
    delta_3_2_2  c25_7_3_2b  5
    delta_3_2_2  c25_9_3_2a  -6
    delta_3_2_2  c25_10_3_2a  -6
    delta_3_2_2  c25_10_3_2b  5
    delta_4_0_0  OBJ       -1000
    delta_4_0_0  c23_1a_4a  -1
    delta_4_0_0  c23_1a_4g1  1
    delta_4_0_0  c23_2_4_0a  1
    delta_4_0_0  c24_4_0_0a1  5
    delta_4_0_0  c24_4_0_0b1  -6
    delta_4_0_0  c25_0_4_0a  -6
    delta_4_0_0  c25_1_4_0b  5
    delta_4_0_0  c25_2_4_0a  -6
    delta_4_0_0  c25_2_4_0b  5
    delta_4_0_0  c25_4_0_0a  5
    delta_4_0_0  c25_4_1_0b  -6
    delta_4_0_0  c25_4_3_0a  5
    delta_4_0_0  c25_4_3_0b  -6
    delta_4_0_0  c25_4_5_0a  5
    delta_4_0_0  c25_4_5_0b  -6
    delta_4_0_0  c25_4_6_0a  5
    delta_4_0_0  c25_4_7_0a  5
    delta_4_0_0  c25_4_7_0b  -6
    delta_4_0_0  c25_4_9_0a  5
    delta_4_0_0  c25_4_10_0b  -6
    delta_4_0_0  c25_6_4_0a  -6
    delta_4_0_0  c25_8_4_0a  -6
    delta_4_0_0  c25_8_4_0b  5
    delta_4_0_0  c25_9_4_0a  -6
    delta_4_0_0  c25_10_4_0b  5
    delta_4_0_0  c26_2_0_4a  -1
    delta_4_0_0  c26_3_0_4a  1
    delta_4_0_0  c26_3_1_4a  1
    delta_4_0_0  c26_2_2_4a  -1
    delta_4_0_0  c26_3_2_4a  1
    delta_4_0_0  c26_2_3_4a  -1
    delta_4_0_0  c26_3_3_4a  1
    delta_4_0_0  c26_1_4_1a  -1
    delta_4_0_0  c26_1_4_5a  -1
    delta_4_0_0  c26_3_4_7a  1
    delta_4_0_0  c26_1_4_9a  -1
    delta_4_0_0  c26_3_4_9a  1
    delta_4_0_0  c26_3_5_4a  1
    delta_4_0_0  c26_2_6_4a  -1
    delta_4_0_0  c26_3_6_4a  1
    delta_4_0_0  c26_2_7_4a  -1
    delta_4_0_0  c26_2_8_4a  -1
    delta_4_0_0  c26_3_8_4a  1
    delta_4_0_0  c26_2_10_4a  -1
    delta_4_0_0  c26_3_10_4a  1
    delta_4_0_0  R595730   1
    delta_4_0_1  OBJ       -1000
    delta_4_0_1  c23_1a_4a  -1
    delta_4_0_1  c23_1a_4g1  -1
    delta_4_0_1  c23_2_4_1a  1
    delta_4_0_1  c24_4_0_1a1  5
    delta_4_0_1  c24_4_0_1b1  -95
    delta_4_0_1  c25_1_4_1a  -95
    delta_4_0_1  c25_2_4_1a  -95
    delta_4_0_1  c25_3_4_1a  -95
    delta_4_0_1  c25_4_0_1a  5
    delta_4_0_1  c25_4_0_1b  -95
    delta_4_0_1  c25_4_1_1a  5
    delta_4_0_1  c25_4_2_1a  5
    delta_4_0_1  c25_4_3_1a  5
    delta_4_0_1  c25_4_6_1a  5
    delta_4_0_1  c25_4_6_1b  -95
    delta_4_0_1  c25_4_8_1a  5
    delta_4_0_1  c25_4_10_1a  5
    delta_4_0_1  c25_5_4_1a  -95
    delta_4_0_1  c25_5_4_1b  5
    delta_4_0_1  c25_7_4_1a  -95
    delta_4_0_1  c25_7_4_1b  5
    delta_4_0_1  c25_8_4_1a  -95
    delta_4_0_1  c25_9_4_1a  -95
    delta_4_0_1  c25_9_4_1b  5
    delta_4_0_1  c25_10_4_1a  -95
    delta_4_0_1  c26_2_0_4a  -1
    delta_4_0_1  c26_3_0_4a  1
    delta_4_0_1  c26_3_1_4a  1
    delta_4_0_1  c26_2_2_4a  -1
    delta_4_0_1  c26_3_2_4a  1
    delta_4_0_1  c26_2_3_4a  -1
    delta_4_0_1  c26_3_3_4a  1
    delta_4_0_1  c26_1_4_1a  -1
    delta_4_0_1  c26_1_4_5a  -1
    delta_4_0_1  c26_3_4_7a  1
    delta_4_0_1  c26_1_4_9a  -1
    delta_4_0_1  c26_3_4_9a  1
    delta_4_0_1  c26_3_5_4a  1
    delta_4_0_1  c26_2_6_4a  -1
    delta_4_0_1  c26_3_6_4a  1
    delta_4_0_1  c26_2_7_4a  -1
    delta_4_0_1  c26_2_8_4a  -1
    delta_4_0_1  c26_3_8_4a  1
    delta_4_0_1  c26_2_10_4a  -1
    delta_4_0_1  c26_3_10_4a  1
    delta_4_0_1  R595730   1
    delta_4_0_2  OBJ       -1000
    delta_4_0_2  c23_1a_4a  -1
    delta_4_0_2  c23_2_4_2a  1
    delta_4_0_2  c24_4_0_2a1  5
    delta_4_0_2  c24_4_0_2b1  -6
    delta_4_0_2  c25_1_4_2a  -6
    delta_4_0_2  c25_1_4_2b  5
    delta_4_0_2  c25_3_4_2b  5
    delta_4_0_2  c25_4_0_2a  5
    delta_4_0_2  c25_4_0_2b  -6
    delta_4_0_2  c25_4_2_2a  5
    delta_4_0_2  c25_4_2_2b  -6
    delta_4_0_2  c25_4_3_2b  -6
    delta_4_0_2  c25_4_5_2a  5
    delta_4_0_2  c25_4_5_2b  -6
    delta_4_0_2  c25_4_6_2b  -6
    delta_4_0_2  c25_4_8_2a  5
    delta_4_0_2  c25_4_8_2b  -6
    delta_4_0_2  c25_4_10_2b  -6
    delta_4_0_2  c25_6_4_2b  5
    delta_4_0_2  c25_7_4_2a  -6
    delta_4_0_2  c25_7_4_2b  5
    delta_4_0_2  c25_9_4_2a  -6
    delta_4_0_2  c25_9_4_2b  5
    delta_4_0_2  c25_10_4_2b  5
    delta_4_0_2  c26_2_0_4a  -1
    delta_4_0_2  c26_3_0_4a  1
    delta_4_0_2  c26_3_1_4a  1
    delta_4_0_2  c26_2_2_4a  -1
    delta_4_0_2  c26_3_2_4a  1
    delta_4_0_2  c26_2_3_4a  -1
    delta_4_0_2  c26_3_3_4a  1
    delta_4_0_2  c26_1_4_1a  -1
    delta_4_0_2  c26_1_4_5a  -1
    delta_4_0_2  c26_3_4_7a  1
    delta_4_0_2  c26_1_4_9a  -1
    delta_4_0_2  c26_3_4_9a  1
    delta_4_0_2  c26_3_5_4a  1
    delta_4_0_2  c26_2_6_4a  -1
    delta_4_0_2  c26_3_6_4a  1
    delta_4_0_2  c26_2_7_4a  -1
    delta_4_0_2  c26_2_8_4a  -1
    delta_4_0_2  c26_3_8_4a  1
    delta_4_0_2  c26_2_10_4a  -1
    delta_4_0_2  c26_3_10_4a  1
    delta_4_0_2  R595730   1
    delta_4_1_0  c23_1a_4g1  1
    delta_4_1_0  c23_2_4_0a  1
    delta_4_1_0  c24_4_0_0a1  5
    delta_4_1_0  c24_4_0_0b1  -6
    delta_4_1_0  c25_0_4_0a  -6
    delta_4_1_0  c25_1_4_0b  5
    delta_4_1_0  c25_2_4_0a  -6
    delta_4_1_0  c25_2_4_0b  5
    delta_4_1_0  c25_4_0_0a  5
    delta_4_1_0  c25_4_1_0b  -6
    delta_4_1_0  c25_4_3_0a  5
    delta_4_1_0  c25_4_3_0b  -6
    delta_4_1_0  c25_4_5_0a  5
    delta_4_1_0  c25_4_5_0b  -6
    delta_4_1_0  c25_4_6_0a  5
    delta_4_1_0  c25_4_7_0a  5
    delta_4_1_0  c25_4_7_0b  -6
    delta_4_1_0  c25_4_9_0a  5
    delta_4_1_0  c25_4_10_0b  -6
    delta_4_1_0  c25_6_4_0a  -6
    delta_4_1_0  c25_8_4_0a  -6
    delta_4_1_0  c25_8_4_0b  5
    delta_4_1_0  c25_9_4_0a  -6
    delta_4_1_0  c25_10_4_0b  5
    delta_4_1_1  c23_1a_4g1  -1
    delta_4_1_1  c23_2_4_1a  1
    delta_4_1_1  c24_4_0_1a1  5
    delta_4_1_1  c24_4_0_1b1  -95
    delta_4_1_1  c25_1_4_1a  -95
    delta_4_1_1  c25_2_4_1a  -95
    delta_4_1_1  c25_3_4_1a  -95
    delta_4_1_1  c25_4_0_1a  5
    delta_4_1_1  c25_4_0_1b  -95
    delta_4_1_1  c25_4_1_1a  5
    delta_4_1_1  c25_4_2_1a  5
    delta_4_1_1  c25_4_3_1a  5
    delta_4_1_1  c25_4_6_1a  5
    delta_4_1_1  c25_4_6_1b  -95
    delta_4_1_1  c25_4_8_1a  5
    delta_4_1_1  c25_4_10_1a  5
    delta_4_1_1  c25_5_4_1a  -95
    delta_4_1_1  c25_5_4_1b  5
    delta_4_1_1  c25_7_4_1a  -95
    delta_4_1_1  c25_7_4_1b  5
    delta_4_1_1  c25_8_4_1a  -95
    delta_4_1_1  c25_9_4_1a  -95
    delta_4_1_1  c25_9_4_1b  5
    delta_4_1_1  c25_10_4_1a  -95
    delta_4_1_2  c23_2_4_2a  1
    delta_4_1_2  c24_4_0_2a1  5
    delta_4_1_2  c24_4_0_2b1  -6
    delta_4_1_2  c25_1_4_2a  -6
    delta_4_1_2  c25_1_4_2b  5
    delta_4_1_2  c25_3_4_2b  5
    delta_4_1_2  c25_4_0_2a  5
    delta_4_1_2  c25_4_0_2b  -6
    delta_4_1_2  c25_4_2_2a  5
    delta_4_1_2  c25_4_2_2b  -6
    delta_4_1_2  c25_4_3_2b  -6
    delta_4_1_2  c25_4_5_2a  5
    delta_4_1_2  c25_4_5_2b  -6
    delta_4_1_2  c25_4_6_2b  -6
    delta_4_1_2  c25_4_8_2a  5
    delta_4_1_2  c25_4_8_2b  -6
    delta_4_1_2  c25_4_10_2b  -6
    delta_4_1_2  c25_6_4_2b  5
    delta_4_1_2  c25_7_4_2a  -6
    delta_4_1_2  c25_7_4_2b  5
    delta_4_1_2  c25_9_4_2a  -6
    delta_4_1_2  c25_9_4_2b  5
    delta_4_1_2  c25_10_4_2b  5
    delta_4_2_0  c23_1a_4a  1
    delta_4_2_0  c23_1a_4g1  1
    delta_4_2_0  c23_2_4_1a  -1
    delta_4_2_0  c23_2_4_2a  -1
    delta_4_2_0  c24_4_0_0a1  5
    delta_4_2_0  c24_4_0_0b1  -6
    delta_4_2_0  c25_0_4_0a  -6
    delta_4_2_0  c25_1_4_0b  5
    delta_4_2_0  c25_2_4_0a  -6
    delta_4_2_0  c25_2_4_0b  5
    delta_4_2_0  c25_4_0_0a  5
    delta_4_2_0  c25_4_1_0b  -6
    delta_4_2_0  c25_4_3_0a  5
    delta_4_2_0  c25_4_3_0b  -6
    delta_4_2_0  c25_4_5_0a  5
    delta_4_2_0  c25_4_5_0b  -6
    delta_4_2_0  c25_4_6_0a  5
    delta_4_2_0  c25_4_7_0a  5
    delta_4_2_0  c25_4_7_0b  -6
    delta_4_2_0  c25_4_9_0a  5
    delta_4_2_0  c25_4_10_0b  -6
    delta_4_2_0  c25_6_4_0a  -6
    delta_4_2_0  c25_8_4_0a  -6
    delta_4_2_0  c25_8_4_0b  5
    delta_4_2_0  c25_9_4_0a  -6
    delta_4_2_0  c25_10_4_0b  5
    delta_4_2_1  c23_1a_4a  1
    delta_4_2_1  c23_1a_4g1  -1
    delta_4_2_1  c23_2_4_0a  -1
    delta_4_2_1  c23_2_4_2a  -1
    delta_4_2_1  c24_4_0_1a1  5
    delta_4_2_1  c24_4_0_1b1  -95
    delta_4_2_1  c25_1_4_1a  -95
    delta_4_2_1  c25_2_4_1a  -95
    delta_4_2_1  c25_3_4_1a  -95
    delta_4_2_1  c25_4_0_1a  5
    delta_4_2_1  c25_4_0_1b  -95
    delta_4_2_1  c25_4_1_1a  5
    delta_4_2_1  c25_4_2_1a  5
    delta_4_2_1  c25_4_3_1a  5
    delta_4_2_1  c25_4_6_1a  5
    delta_4_2_1  c25_4_6_1b  -95
    delta_4_2_1  c25_4_8_1a  5
    delta_4_2_1  c25_4_10_1a  5
    delta_4_2_1  c25_5_4_1a  -95
    delta_4_2_1  c25_5_4_1b  5
    delta_4_2_1  c25_7_4_1a  -95
    delta_4_2_1  c25_7_4_1b  5
    delta_4_2_1  c25_8_4_1a  -95
    delta_4_2_1  c25_9_4_1a  -95
    delta_4_2_1  c25_9_4_1b  5
    delta_4_2_1  c25_10_4_1a  -95
    delta_4_2_2  c23_1a_4a  1
    delta_4_2_2  c23_2_4_0a  -1
    delta_4_2_2  c23_2_4_1a  -1
    delta_4_2_2  c24_4_0_2a1  5
    delta_4_2_2  c24_4_0_2b1  -6
    delta_4_2_2  c25_1_4_2a  -6
    delta_4_2_2  c25_1_4_2b  5
    delta_4_2_2  c25_3_4_2b  5
    delta_4_2_2  c25_4_0_2a  5
    delta_4_2_2  c25_4_0_2b  -6
    delta_4_2_2  c25_4_2_2a  5
    delta_4_2_2  c25_4_2_2b  -6
    delta_4_2_2  c25_4_3_2b  -6
    delta_4_2_2  c25_4_5_2a  5
    delta_4_2_2  c25_4_5_2b  -6
    delta_4_2_2  c25_4_6_2b  -6
    delta_4_2_2  c25_4_8_2a  5
    delta_4_2_2  c25_4_8_2b  -6
    delta_4_2_2  c25_4_10_2b  -6
    delta_4_2_2  c25_6_4_2b  5
    delta_4_2_2  c25_7_4_2a  -6
    delta_4_2_2  c25_7_4_2b  5
    delta_4_2_2  c25_9_4_2a  -6
    delta_4_2_2  c25_9_4_2b  5
    delta_4_2_2  c25_10_4_2b  5
    delta_5_0_0  OBJ       -1000
    delta_5_0_0  c23_1a_5a  -1
    delta_5_0_0  c23_1a_5g1  1
    delta_5_0_0  c23_2_5_0a  1
    delta_5_0_0  c24_5_0_0a1  5
    delta_5_0_0  c24_5_0_0b1  -6
    delta_5_0_0  c25_0_5_0b  5
    delta_5_0_0  c25_1_5_0b  5
    delta_5_0_0  c25_2_5_0a  -6
    delta_5_0_0  c25_2_5_0b  5
    delta_5_0_0  c25_4_5_0a  -6
    delta_5_0_0  c25_4_5_0b  5
    delta_5_0_0  c25_5_0_0b  -6
    delta_5_0_0  c25_5_1_0b  -6
    delta_5_0_0  c25_5_3_0a  5
    delta_5_0_0  c25_5_3_0b  -6
    delta_5_0_0  c25_5_6_0b  -6
    delta_5_0_0  c25_5_7_0b  -6
    delta_5_0_0  c25_5_8_0a  5
    delta_5_0_0  c25_5_10_0a  5
    delta_5_0_0  c25_6_5_0b  5
    delta_5_0_0  c25_7_5_0b  5
    delta_5_0_0  c25_8_5_0a  -6
    delta_5_0_0  c25_9_5_0a  -6
    delta_5_0_0  c25_9_5_0b  5
    delta_5_0_0  c25_10_5_0a  -6
    delta_5_0_0  c26_2_0_5a  -1
    delta_5_0_0  c26_3_3_5a  1
    delta_5_0_0  c26_2_4_5a  -1
    delta_5_0_0  c26_3_5_0a  1
    delta_5_0_0  c26_1_5_1a  -1
    delta_5_0_0  c26_3_5_1a  1
    delta_5_0_0  c26_1_5_2a  -1
    delta_5_0_0  c26_3_5_2a  1
    delta_5_0_0  c26_1_5_3a  -1
    delta_5_0_0  c26_3_5_4a  1
    delta_5_0_0  c26_3_5_6a  1
    delta_5_0_0  c26_1_5_7a  -1
    delta_5_0_0  c26_3_5_9a  1
    delta_5_0_0  c26_1_5_10a  -1
    delta_5_0_0  c26_3_5_10a  1
    delta_5_0_0  c26_2_6_5a  -1
    delta_5_0_0  c26_3_7_5a  1
    delta_5_0_0  c26_2_8_5a  -1
    delta_5_0_0  c26_3_8_5a  1
    delta_5_0_0  c26_2_9_5a  -1
    delta_5_0_0  R595736   1
    delta_5_0_1  OBJ       -1000
    delta_5_0_1  c23_1a_5a  -1
    delta_5_0_1  c23_1a_5g1  -1
    delta_5_0_1  c23_2_5_1a  1
    delta_5_0_1  c24_5_0_1a1  5
    delta_5_0_1  c24_5_0_1b1  -95
    delta_5_0_1  c25_0_5_1a  -95
    delta_5_0_1  c25_0_5_1b  5
    delta_5_0_1  c25_2_5_1a  -95
    delta_5_0_1  c25_2_5_1b  5
    delta_5_0_1  c25_3_5_1a  -95
    delta_5_0_1  c25_3_5_1b  5
    delta_5_0_1  c25_5_1_1a  5
    delta_5_0_1  c25_5_1_1b  -95
    delta_5_0_1  c25_5_4_1a  5
    delta_5_0_1  c25_5_4_1b  -95
    delta_5_0_1  c25_5_6_1a  5
    delta_5_0_1  c25_5_6_1b  -95
    delta_5_0_1  c25_5_7_1b  -95
    delta_5_0_1  c25_5_8_1a  5
    delta_5_0_1  c25_5_8_1b  -95
    delta_5_0_1  c25_5_10_1a  5
    delta_5_0_1  c25_7_5_1b  5
    delta_5_0_1  c25_9_5_1a  -95
    delta_5_0_1  c25_9_5_1b  5
    delta_5_0_1  c25_10_5_1a  -95
    delta_5_0_1  c26_2_0_5a  -1
    delta_5_0_1  c26_3_3_5a  1
    delta_5_0_1  c26_2_4_5a  -1
    delta_5_0_1  c26_3_5_0a  1
    delta_5_0_1  c26_1_5_1a  -1
    delta_5_0_1  c26_3_5_1a  1
    delta_5_0_1  c26_1_5_2a  -1
    delta_5_0_1  c26_3_5_2a  1
    delta_5_0_1  c26_1_5_3a  -1
    delta_5_0_1  c26_3_5_4a  1
    delta_5_0_1  c26_3_5_6a  1
    delta_5_0_1  c26_1_5_7a  -1
    delta_5_0_1  c26_3_5_9a  1
    delta_5_0_1  c26_1_5_10a  -1
    delta_5_0_1  c26_3_5_10a  1
    delta_5_0_1  c26_2_6_5a  -1
    delta_5_0_1  c26_3_7_5a  1
    delta_5_0_1  c26_2_8_5a  -1
    delta_5_0_1  c26_3_8_5a  1
    delta_5_0_1  c26_2_9_5a  -1
    delta_5_0_1  R595736   1
    delta_5_0_2  OBJ       -1000
    delta_5_0_2  c23_1a_5a  -1
    delta_5_0_2  c23_2_5_2a  1
    delta_5_0_2  c24_5_0_2a1  5
    delta_5_0_2  c24_5_0_2b1  -6
    delta_5_0_2  c25_0_5_2a  -6
    delta_5_0_2  c25_1_5_2a  -6
    delta_5_0_2  c25_1_5_2b  5
    delta_5_0_2  c25_2_5_2a  -6
    delta_5_0_2  c25_2_5_2b  5
    delta_5_0_2  c25_3_5_2a  -6
    delta_5_0_2  c25_4_5_2a  -6
    delta_5_0_2  c25_4_5_2b  5
    delta_5_0_2  c25_5_0_2a  5
    delta_5_0_2  c25_5_3_2a  5
    delta_5_0_2  c25_5_6_2b  -6
    delta_5_0_2  c25_5_7_2a  5
    delta_5_0_2  c25_5_8_2a  5
    delta_5_0_2  c25_5_9_2a  5
    delta_5_0_2  c25_5_10_2a  5
    delta_5_0_2  c25_5_10_2b  -6
    delta_5_0_2  c25_6_5_2b  5
    delta_5_0_2  c25_7_5_2a  -6
    delta_5_0_2  c25_8_5_2a  -6
    delta_5_0_2  c25_9_5_2a  -6
    delta_5_0_2  c26_2_0_5a  -1
    delta_5_0_2  c26_3_3_5a  1
    delta_5_0_2  c26_2_4_5a  -1
    delta_5_0_2  c26_3_5_0a  1
    delta_5_0_2  c26_1_5_1a  -1
    delta_5_0_2  c26_3_5_1a  1
    delta_5_0_2  c26_1_5_2a  -1
    delta_5_0_2  c26_3_5_2a  1
    delta_5_0_2  c26_1_5_3a  -1
    delta_5_0_2  c26_3_5_4a  1
    delta_5_0_2  c26_3_5_6a  1
    delta_5_0_2  c26_1_5_7a  -1
    delta_5_0_2  c26_3_5_9a  1
    delta_5_0_2  c26_1_5_10a  -1
    delta_5_0_2  c26_3_5_10a  1
    delta_5_0_2  c26_2_6_5a  -1
    delta_5_0_2  c26_3_7_5a  1
    delta_5_0_2  c26_2_8_5a  -1
    delta_5_0_2  c26_3_8_5a  1
    delta_5_0_2  c26_2_9_5a  -1
    delta_5_0_2  R595736   1
    delta_5_1_0  c23_1a_5g1  1
    delta_5_1_0  c23_2_5_0a  1
    delta_5_1_0  c24_5_0_0a1  5
    delta_5_1_0  c24_5_0_0b1  -6
    delta_5_1_0  c25_0_5_0b  5
    delta_5_1_0  c25_1_5_0b  5
    delta_5_1_0  c25_2_5_0a  -6
    delta_5_1_0  c25_2_5_0b  5
    delta_5_1_0  c25_4_5_0a  -6
    delta_5_1_0  c25_4_5_0b  5
    delta_5_1_0  c25_5_0_0b  -6
    delta_5_1_0  c25_5_1_0b  -6
    delta_5_1_0  c25_5_3_0a  5
    delta_5_1_0  c25_5_3_0b  -6
    delta_5_1_0  c25_5_6_0b  -6
    delta_5_1_0  c25_5_7_0b  -6
    delta_5_1_0  c25_5_8_0a  5
    delta_5_1_0  c25_5_10_0a  5
    delta_5_1_0  c25_6_5_0b  5
    delta_5_1_0  c25_7_5_0b  5
    delta_5_1_0  c25_8_5_0a  -6
    delta_5_1_0  c25_9_5_0a  -6
    delta_5_1_0  c25_9_5_0b  5
    delta_5_1_0  c25_10_5_0a  -6
    delta_5_1_1  c23_1a_5g1  -1
    delta_5_1_1  c23_2_5_1a  1
    delta_5_1_1  c24_5_0_1a1  5
    delta_5_1_1  c24_5_0_1b1  -95
    delta_5_1_1  c25_0_5_1a  -95
    delta_5_1_1  c25_0_5_1b  5
    delta_5_1_1  c25_2_5_1a  -95
    delta_5_1_1  c25_2_5_1b  5
    delta_5_1_1  c25_3_5_1a  -95
    delta_5_1_1  c25_3_5_1b  5
    delta_5_1_1  c25_5_1_1a  5
    delta_5_1_1  c25_5_1_1b  -95
    delta_5_1_1  c25_5_4_1a  5
    delta_5_1_1  c25_5_4_1b  -95
    delta_5_1_1  c25_5_6_1a  5
    delta_5_1_1  c25_5_6_1b  -95
    delta_5_1_1  c25_5_7_1b  -95
    delta_5_1_1  c25_5_8_1a  5
    delta_5_1_1  c25_5_8_1b  -95
    delta_5_1_1  c25_5_10_1a  5
    delta_5_1_1  c25_7_5_1b  5
    delta_5_1_1  c25_9_5_1a  -95
    delta_5_1_1  c25_9_5_1b  5
    delta_5_1_1  c25_10_5_1a  -95
    delta_5_1_2  c23_2_5_2a  1
    delta_5_1_2  c24_5_0_2a1  5
    delta_5_1_2  c24_5_0_2b1  -6
    delta_5_1_2  c25_0_5_2a  -6
    delta_5_1_2  c25_1_5_2a  -6
    delta_5_1_2  c25_1_5_2b  5
    delta_5_1_2  c25_2_5_2a  -6
    delta_5_1_2  c25_2_5_2b  5
    delta_5_1_2  c25_3_5_2a  -6
    delta_5_1_2  c25_4_5_2a  -6
    delta_5_1_2  c25_4_5_2b  5
    delta_5_1_2  c25_5_0_2a  5
    delta_5_1_2  c25_5_3_2a  5
    delta_5_1_2  c25_5_6_2b  -6
    delta_5_1_2  c25_5_7_2a  5
    delta_5_1_2  c25_5_8_2a  5
    delta_5_1_2  c25_5_9_2a  5
    delta_5_1_2  c25_5_10_2a  5
    delta_5_1_2  c25_5_10_2b  -6
    delta_5_1_2  c25_6_5_2b  5
    delta_5_1_2  c25_7_5_2a  -6
    delta_5_1_2  c25_8_5_2a  -6
    delta_5_1_2  c25_9_5_2a  -6
    delta_5_2_0  c23_1a_5a  1
    delta_5_2_0  c23_1a_5g1  1
    delta_5_2_0  c23_2_5_1a  -1
    delta_5_2_0  c23_2_5_2a  -1
    delta_5_2_0  c24_5_0_0a1  5
    delta_5_2_0  c24_5_0_0b1  -6
    delta_5_2_0  c25_0_5_0b  5
    delta_5_2_0  c25_1_5_0b  5
    delta_5_2_0  c25_2_5_0a  -6
    delta_5_2_0  c25_2_5_0b  5
    delta_5_2_0  c25_4_5_0a  -6
    delta_5_2_0  c25_4_5_0b  5
    delta_5_2_0  c25_5_0_0b  -6
    delta_5_2_0  c25_5_1_0b  -6
    delta_5_2_0  c25_5_3_0a  5
    delta_5_2_0  c25_5_3_0b  -6
    delta_5_2_0  c25_5_6_0b  -6
    delta_5_2_0  c25_5_7_0b  -6
    delta_5_2_0  c25_5_8_0a  5
    delta_5_2_0  c25_5_10_0a  5
    delta_5_2_0  c25_6_5_0b  5
    delta_5_2_0  c25_7_5_0b  5
    delta_5_2_0  c25_8_5_0a  -6
    delta_5_2_0  c25_9_5_0a  -6
    delta_5_2_0  c25_9_5_0b  5
    delta_5_2_0  c25_10_5_0a  -6
    delta_5_2_1  c23_1a_5a  1
    delta_5_2_1  c23_1a_5g1  -1
    delta_5_2_1  c23_2_5_0a  -1
    delta_5_2_1  c23_2_5_2a  -1
    delta_5_2_1  c24_5_0_1a1  5
    delta_5_2_1  c24_5_0_1b1  -95
    delta_5_2_1  c25_0_5_1a  -95
    delta_5_2_1  c25_0_5_1b  5
    delta_5_2_1  c25_2_5_1a  -95
    delta_5_2_1  c25_2_5_1b  5
    delta_5_2_1  c25_3_5_1a  -95
    delta_5_2_1  c25_3_5_1b  5
    delta_5_2_1  c25_5_1_1a  5
    delta_5_2_1  c25_5_1_1b  -95
    delta_5_2_1  c25_5_4_1a  5
    delta_5_2_1  c25_5_4_1b  -95
    delta_5_2_1  c25_5_6_1a  5
    delta_5_2_1  c25_5_6_1b  -95
    delta_5_2_1  c25_5_7_1b  -95
    delta_5_2_1  c25_5_8_1a  5
    delta_5_2_1  c25_5_8_1b  -95
    delta_5_2_1  c25_5_10_1a  5
    delta_5_2_1  c25_7_5_1b  5
    delta_5_2_1  c25_9_5_1a  -95
    delta_5_2_1  c25_9_5_1b  5
    delta_5_2_1  c25_10_5_1a  -95
    delta_5_2_2  c23_1a_5a  1
    delta_5_2_2  c23_2_5_0a  -1
    delta_5_2_2  c23_2_5_1a  -1
    delta_5_2_2  c24_5_0_2a1  5
    delta_5_2_2  c24_5_0_2b1  -6
    delta_5_2_2  c25_0_5_2a  -6
    delta_5_2_2  c25_1_5_2a  -6
    delta_5_2_2  c25_1_5_2b  5
    delta_5_2_2  c25_2_5_2a  -6
    delta_5_2_2  c25_2_5_2b  5
    delta_5_2_2  c25_3_5_2a  -6
    delta_5_2_2  c25_4_5_2a  -6
    delta_5_2_2  c25_4_5_2b  5
    delta_5_2_2  c25_5_0_2a  5
    delta_5_2_2  c25_5_3_2a  5
    delta_5_2_2  c25_5_6_2b  -6
    delta_5_2_2  c25_5_7_2a  5
    delta_5_2_2  c25_5_8_2a  5
    delta_5_2_2  c25_5_9_2a  5
    delta_5_2_2  c25_5_10_2a  5
    delta_5_2_2  c25_5_10_2b  -6
    delta_5_2_2  c25_6_5_2b  5
    delta_5_2_2  c25_7_5_2a  -6
    delta_5_2_2  c25_8_5_2a  -6
    delta_5_2_2  c25_9_5_2a  -6
    delta_6_0_0  OBJ       -1000
    delta_6_0_0  c23_1a_6a  -1
    delta_6_0_0  c23_1a_6g1  1
    delta_6_0_0  c23_2_6_0a  1
    delta_6_0_0  c24_6_0_0a1  5
    delta_6_0_0  c24_6_0_0b1  -6
    delta_6_0_0  c25_0_6_0b  5
    delta_6_0_0  c25_1_6_0a  -6
    delta_6_0_0  c25_1_6_0b  5
    delta_6_0_0  c25_2_6_0a  -6
    delta_6_0_0  c25_3_6_0a  -6
    delta_6_0_0  c25_4_6_0a  -6
    delta_6_0_0  c25_5_6_0b  5
    delta_6_0_0  c25_6_0_0b  -6
    delta_6_0_0  c25_6_2_0a  5
    delta_6_0_0  c25_6_3_0a  5
    delta_6_0_0  c25_6_4_0a  5
    delta_6_0_0  c25_6_5_0b  -6
    delta_6_0_0  c25_6_7_0b  -6
    delta_6_0_0  c25_6_8_0b  -6
    delta_6_0_0  c25_6_9_0a  5
    delta_6_0_0  c25_7_6_0b  5
    delta_6_0_0  c25_8_6_0b  5
    delta_6_0_0  c25_9_6_0a  -6
    delta_6_0_0  c25_10_6_0a  -6
    delta_6_0_0  c25_10_6_0b  5
    delta_6_0_0  c26_2_0_6a  -1
    delta_6_0_0  c26_3_1_6a  1
    delta_6_0_0  c26_2_3_6a  -1
    delta_6_0_0  c26_2_5_6a  -1
    delta_6_0_0  c26_3_5_6a  1
    delta_6_0_0  c26_3_6_0a  1
    delta_6_0_0  c26_1_6_1a  -1
    delta_6_0_0  c26_1_6_2a  -1
    delta_6_0_0  c26_3_6_2a  1
    delta_6_0_0  c26_3_6_3a  1
    delta_6_0_0  c26_1_6_4a  -1
    delta_6_0_0  c26_3_6_4a  1
    delta_6_0_0  c26_1_6_7a  -1
    delta_6_0_0  c26_1_6_8a  -1
    delta_6_0_0  c26_3_6_9a  1
    delta_6_0_0  c26_3_7_6a  1
    delta_6_0_0  c26_3_8_6a  1
    delta_6_0_0  c26_2_9_6a  -1
    delta_6_0_0  c26_2_10_6a  -1
    delta_6_0_0  c26_3_10_6a  1
    delta_6_0_0  R595743   1
    delta_6_0_1  OBJ       -1000
    delta_6_0_1  c23_1a_6a  -1
    delta_6_0_1  c23_1a_6g1  -1
    delta_6_0_1  c23_2_6_1a  1
    delta_6_0_1  c24_6_0_1a1  5
    delta_6_0_1  c24_6_0_1b1  -95
    delta_6_0_1  c25_1_6_1a  -95
    delta_6_0_1  c25_1_6_1b  5
    delta_6_0_1  c25_4_6_1a  -95
    delta_6_0_1  c25_4_6_1b  5
    delta_6_0_1  c25_5_6_1a  -95
    delta_6_0_1  c25_5_6_1b  5
    delta_6_0_1  c25_6_0_1a  5
    delta_6_0_1  c25_6_0_1b  -95
    delta_6_0_1  c25_6_2_1a  5
    delta_6_0_1  c25_6_2_1b  -95
    delta_6_0_1  c25_6_3_1a  5
    delta_6_0_1  c25_6_3_1b  -95
    delta_6_0_1  c25_6_7_1a  5
    delta_6_0_1  c25_6_8_1a  5
    delta_6_0_1  c25_6_8_1b  -95
    delta_6_0_1  c25_6_10_1a  5
    delta_6_0_1  c25_7_6_1a  -95
    delta_6_0_1  c25_9_6_1a  -95
    delta_6_0_1  c25_9_6_1b  5
    delta_6_0_1  c25_10_6_1a  -95
    delta_6_0_1  c26_2_0_6a  -1
    delta_6_0_1  c26_3_1_6a  1
    delta_6_0_1  c26_2_3_6a  -1
    delta_6_0_1  c26_2_5_6a  -1
    delta_6_0_1  c26_3_5_6a  1
    delta_6_0_1  c26_3_6_0a  1
    delta_6_0_1  c26_1_6_1a  -1
    delta_6_0_1  c26_1_6_2a  -1
    delta_6_0_1  c26_3_6_2a  1
    delta_6_0_1  c26_3_6_3a  1
    delta_6_0_1  c26_1_6_4a  -1
    delta_6_0_1  c26_3_6_4a  1
    delta_6_0_1  c26_1_6_7a  -1
    delta_6_0_1  c26_1_6_8a  -1
    delta_6_0_1  c26_3_6_9a  1
    delta_6_0_1  c26_3_7_6a  1
    delta_6_0_1  c26_3_8_6a  1
    delta_6_0_1  c26_2_9_6a  -1
    delta_6_0_1  c26_2_10_6a  -1
    delta_6_0_1  c26_3_10_6a  1
    delta_6_0_1  R595743   1
    delta_6_0_2  OBJ       -1000
    delta_6_0_2  c23_1a_6a  -1
    delta_6_0_2  c23_2_6_2a  1
    delta_6_0_2  c24_6_0_2a1  5
    delta_6_0_2  c24_6_0_2b1  -6
    delta_6_0_2  c25_2_6_2a  -6
    delta_6_0_2  c25_2_6_2b  5
    delta_6_0_2  c25_3_6_2a  -6
    delta_6_0_2  c25_3_6_2b  5
    delta_6_0_2  c25_4_6_2b  5
    delta_6_0_2  c25_5_6_2b  5
    delta_6_0_2  c25_6_0_2a  5
    delta_6_0_2  c25_6_0_2b  -6
    delta_6_0_2  c25_6_1_2a  5
    delta_6_0_2  c25_6_1_2b  -6
    delta_6_0_2  c25_6_4_2b  -6
    delta_6_0_2  c25_6_5_2b  -6
    delta_6_0_2  c25_6_7_2a  5
    delta_6_0_2  c25_6_7_2b  -6
    delta_6_0_2  c25_6_9_2a  5
    delta_6_0_2  c25_6_10_2b  -6
    delta_6_0_2  c25_8_6_2a  -6
    delta_6_0_2  c25_8_6_2b  5
    delta_6_0_2  c25_9_6_2a  -6
    delta_6_0_2  c25_10_6_2b  5
    delta_6_0_2  c26_2_0_6a  -1
    delta_6_0_2  c26_3_1_6a  1
    delta_6_0_2  c26_2_3_6a  -1
    delta_6_0_2  c26_2_5_6a  -1
    delta_6_0_2  c26_3_5_6a  1
    delta_6_0_2  c26_3_6_0a  1
    delta_6_0_2  c26_1_6_1a  -1
    delta_6_0_2  c26_1_6_2a  -1
    delta_6_0_2  c26_3_6_2a  1
    delta_6_0_2  c26_3_6_3a  1
    delta_6_0_2  c26_1_6_4a  -1
    delta_6_0_2  c26_3_6_4a  1
    delta_6_0_2  c26_1_6_7a  -1
    delta_6_0_2  c26_1_6_8a  -1
    delta_6_0_2  c26_3_6_9a  1
    delta_6_0_2  c26_3_7_6a  1
    delta_6_0_2  c26_3_8_6a  1
    delta_6_0_2  c26_2_9_6a  -1
    delta_6_0_2  c26_2_10_6a  -1
    delta_6_0_2  c26_3_10_6a  1
    delta_6_0_2  R595743   1
    delta_6_1_0  c23_1a_6g1  1
    delta_6_1_0  c23_2_6_0a  1
    delta_6_1_0  c24_6_0_0a1  5
    delta_6_1_0  c24_6_0_0b1  -6
    delta_6_1_0  c25_0_6_0b  5
    delta_6_1_0  c25_1_6_0a  -6
    delta_6_1_0  c25_1_6_0b  5
    delta_6_1_0  c25_2_6_0a  -6
    delta_6_1_0  c25_3_6_0a  -6
    delta_6_1_0  c25_4_6_0a  -6
    delta_6_1_0  c25_5_6_0b  5
    delta_6_1_0  c25_6_0_0b  -6
    delta_6_1_0  c25_6_2_0a  5
    delta_6_1_0  c25_6_3_0a  5
    delta_6_1_0  c25_6_4_0a  5
    delta_6_1_0  c25_6_5_0b  -6
    delta_6_1_0  c25_6_7_0b  -6
    delta_6_1_0  c25_6_8_0b  -6
    delta_6_1_0  c25_6_9_0a  5
    delta_6_1_0  c25_7_6_0b  5
    delta_6_1_0  c25_8_6_0b  5
    delta_6_1_0  c25_9_6_0a  -6
    delta_6_1_0  c25_10_6_0a  -6
    delta_6_1_0  c25_10_6_0b  5
    delta_6_1_1  c23_1a_6g1  -1
    delta_6_1_1  c23_2_6_1a  1
    delta_6_1_1  c24_6_0_1a1  5
    delta_6_1_1  c24_6_0_1b1  -95
    delta_6_1_1  c25_1_6_1a  -95
    delta_6_1_1  c25_1_6_1b  5
    delta_6_1_1  c25_4_6_1a  -95
    delta_6_1_1  c25_4_6_1b  5
    delta_6_1_1  c25_5_6_1a  -95
    delta_6_1_1  c25_5_6_1b  5
    delta_6_1_1  c25_6_0_1a  5
    delta_6_1_1  c25_6_0_1b  -95
    delta_6_1_1  c25_6_2_1a  5
    delta_6_1_1  c25_6_2_1b  -95
    delta_6_1_1  c25_6_3_1a  5
    delta_6_1_1  c25_6_3_1b  -95
    delta_6_1_1  c25_6_7_1a  5
    delta_6_1_1  c25_6_8_1a  5
    delta_6_1_1  c25_6_8_1b  -95
    delta_6_1_1  c25_6_10_1a  5
    delta_6_1_1  c25_7_6_1a  -95
    delta_6_1_1  c25_9_6_1a  -95
    delta_6_1_1  c25_9_6_1b  5
    delta_6_1_1  c25_10_6_1a  -95
    delta_6_1_2  c23_2_6_2a  1
    delta_6_1_2  c24_6_0_2a1  5
    delta_6_1_2  c24_6_0_2b1  -6
    delta_6_1_2  c25_2_6_2a  -6
    delta_6_1_2  c25_2_6_2b  5
    delta_6_1_2  c25_3_6_2a  -6
    delta_6_1_2  c25_3_6_2b  5
    delta_6_1_2  c25_4_6_2b  5
    delta_6_1_2  c25_5_6_2b  5
    delta_6_1_2  c25_6_0_2a  5
    delta_6_1_2  c25_6_0_2b  -6
    delta_6_1_2  c25_6_1_2a  5
    delta_6_1_2  c25_6_1_2b  -6
    delta_6_1_2  c25_6_4_2b  -6
    delta_6_1_2  c25_6_5_2b  -6
    delta_6_1_2  c25_6_7_2a  5
    delta_6_1_2  c25_6_7_2b  -6
    delta_6_1_2  c25_6_9_2a  5
    delta_6_1_2  c25_6_10_2b  -6
    delta_6_1_2  c25_8_6_2a  -6
    delta_6_1_2  c25_8_6_2b  5
    delta_6_1_2  c25_9_6_2a  -6
    delta_6_1_2  c25_10_6_2b  5
    delta_6_2_0  c23_1a_6a  1
    delta_6_2_0  c23_1a_6g1  1
    delta_6_2_0  c23_2_6_1a  -1
    delta_6_2_0  c23_2_6_2a  -1
    delta_6_2_0  c24_6_0_0a1  5
    delta_6_2_0  c24_6_0_0b1  -6
    delta_6_2_0  c25_0_6_0b  5
    delta_6_2_0  c25_1_6_0a  -6
    delta_6_2_0  c25_1_6_0b  5
    delta_6_2_0  c25_2_6_0a  -6
    delta_6_2_0  c25_3_6_0a  -6
    delta_6_2_0  c25_4_6_0a  -6
    delta_6_2_0  c25_5_6_0b  5
    delta_6_2_0  c25_6_0_0b  -6
    delta_6_2_0  c25_6_2_0a  5
    delta_6_2_0  c25_6_3_0a  5
    delta_6_2_0  c25_6_4_0a  5
    delta_6_2_0  c25_6_5_0b  -6
    delta_6_2_0  c25_6_7_0b  -6
    delta_6_2_0  c25_6_8_0b  -6
    delta_6_2_0  c25_6_9_0a  5
    delta_6_2_0  c25_7_6_0b  5
    delta_6_2_0  c25_8_6_0b  5
    delta_6_2_0  c25_9_6_0a  -6
    delta_6_2_0  c25_10_6_0a  -6
    delta_6_2_0  c25_10_6_0b  5
    delta_6_2_1  c23_1a_6a  1
    delta_6_2_1  c23_1a_6g1  -1
    delta_6_2_1  c23_2_6_0a  -1
    delta_6_2_1  c23_2_6_2a  -1
    delta_6_2_1  c24_6_0_1a1  5
    delta_6_2_1  c24_6_0_1b1  -95
    delta_6_2_1  c25_1_6_1a  -95
    delta_6_2_1  c25_1_6_1b  5
    delta_6_2_1  c25_4_6_1a  -95
    delta_6_2_1  c25_4_6_1b  5
    delta_6_2_1  c25_5_6_1a  -95
    delta_6_2_1  c25_5_6_1b  5
    delta_6_2_1  c25_6_0_1a  5
    delta_6_2_1  c25_6_0_1b  -95
    delta_6_2_1  c25_6_2_1a  5
    delta_6_2_1  c25_6_2_1b  -95
    delta_6_2_1  c25_6_3_1a  5
    delta_6_2_1  c25_6_3_1b  -95
    delta_6_2_1  c25_6_7_1a  5
    delta_6_2_1  c25_6_8_1a  5
    delta_6_2_1  c25_6_8_1b  -95
    delta_6_2_1  c25_6_10_1a  5
    delta_6_2_1  c25_7_6_1a  -95
    delta_6_2_1  c25_9_6_1a  -95
    delta_6_2_1  c25_9_6_1b  5
    delta_6_2_1  c25_10_6_1a  -95
    delta_6_2_2  c23_1a_6a  1
    delta_6_2_2  c23_2_6_0a  -1
    delta_6_2_2  c23_2_6_1a  -1
    delta_6_2_2  c24_6_0_2a1  5
    delta_6_2_2  c24_6_0_2b1  -6
    delta_6_2_2  c25_2_6_2a  -6
    delta_6_2_2  c25_2_6_2b  5
    delta_6_2_2  c25_3_6_2a  -6
    delta_6_2_2  c25_3_6_2b  5
    delta_6_2_2  c25_4_6_2b  5
    delta_6_2_2  c25_5_6_2b  5
    delta_6_2_2  c25_6_0_2a  5
    delta_6_2_2  c25_6_0_2b  -6
    delta_6_2_2  c25_6_1_2a  5
    delta_6_2_2  c25_6_1_2b  -6
    delta_6_2_2  c25_6_4_2b  -6
    delta_6_2_2  c25_6_5_2b  -6
    delta_6_2_2  c25_6_7_2a  5
    delta_6_2_2  c25_6_7_2b  -6
    delta_6_2_2  c25_6_9_2a  5
    delta_6_2_2  c25_6_10_2b  -6
    delta_6_2_2  c25_8_6_2a  -6
    delta_6_2_2  c25_8_6_2b  5
    delta_6_2_2  c25_9_6_2a  -6
    delta_6_2_2  c25_10_6_2b  5
    delta_7_0_0  OBJ       -1000
    delta_7_0_0  c23_1a_7a  -1
    delta_7_0_0  c23_1a_7g1  1
    delta_7_0_0  c23_2_7_0a  1
    delta_7_0_0  c24_7_0_0a1  5
    delta_7_0_0  c24_7_0_0b1  -6
    delta_7_0_0  c25_1_7_0a  -6
    delta_7_0_0  c25_1_7_0b  5
    delta_7_0_0  c25_3_7_0b  5
    delta_7_0_0  c25_4_7_0a  -6
    delta_7_0_0  c25_4_7_0b  5
    delta_7_0_0  c25_5_7_0b  5
    delta_7_0_0  c25_6_7_0b  5
    delta_7_0_0  c25_7_0_0a  5
    delta_7_0_0  c25_7_0_0b  -6
    delta_7_0_0  c25_7_2_0a  5
    delta_7_0_0  c25_7_2_0b  -6
    delta_7_0_0  c25_7_3_0b  -6
    delta_7_0_0  c25_7_5_0b  -6
    delta_7_0_0  c25_7_6_0b  -6
    delta_7_0_0  c25_7_8_0a  5
    delta_7_0_0  c25_7_8_0b  -6
    delta_7_0_0  c25_7_9_0a  5
    delta_7_0_0  c25_7_9_0b  -6
    delta_7_0_0  c25_7_10_0a  5
    delta_7_0_0  c25_10_7_0a  -6
    delta_7_0_0  c26_2_0_7a  -1
    delta_7_0_0  c26_3_0_7a  1
    delta_7_0_0  c26_3_3_7a  1
    delta_7_0_0  c26_2_4_7a  -1
    delta_7_0_0  c26_3_4_7a  1
    delta_7_0_0  c26_2_5_7a  -1
    delta_7_0_0  c26_1_7_1a  -1
    delta_7_0_0  c26_3_7_1a  1
    delta_7_0_0  c26_1_7_2a  -1
    delta_7_0_0  c26_3_7_2a  1
    delta_7_0_0  c26_1_7_3a  -1
    delta_7_0_0  c26_3_7_5a  1
    delta_7_0_0  c26_1_7_6a  -1
    delta_7_0_0  c26_3_7_6a  1
    delta_7_0_0  c26_3_7_8a  1
    delta_7_0_0  c26_3_7_9a  1
    delta_7_0_0  c26_2_8_7a  -1
    delta_7_0_0  c26_2_9_7a  -1
    delta_7_0_0  c26_2_10_7a  -1
    delta_7_0_0  c26_3_10_7a  1
    delta_7_0_0  R595751   1
    delta_7_0_1  OBJ       -1000
    delta_7_0_1  c23_1a_7a  -1
    delta_7_0_1  c23_1a_7g1  -1
    delta_7_0_1  c23_2_7_1a  1
    delta_7_0_1  c24_7_0_1a1  5
    delta_7_0_1  c24_7_0_1b1  -95
    delta_7_0_1  c25_0_7_1a  -95
    delta_7_0_1  c25_1_7_1a  -95
    delta_7_0_1  c25_1_7_1b  5
    delta_7_0_1  c25_2_7_1a  -95
    delta_7_0_1  c25_2_7_1b  5
    delta_7_0_1  c25_3_7_1a  -95
    delta_7_0_1  c25_3_7_1b  5
    delta_7_0_1  c25_5_7_1b  5
    delta_7_0_1  c25_6_7_1a  -95
    delta_7_0_1  c25_7_0_1a  5
    delta_7_0_1  c25_7_4_1a  5
    delta_7_0_1  c25_7_4_1b  -95
    delta_7_0_1  c25_7_5_1b  -95
    delta_7_0_1  c25_7_6_1a  5
    delta_7_0_1  c25_7_8_1a  5
    delta_7_0_1  c25_7_9_1b  -95
    delta_7_0_1  c25_8_7_1a  -95
    delta_7_0_1  c25_9_7_1b  5
    delta_7_0_1  c25_10_7_1a  -95
    delta_7_0_1  c25_10_7_1b  5
    delta_7_0_1  c26_2_0_7a  -1
    delta_7_0_1  c26_3_0_7a  1
    delta_7_0_1  c26_3_3_7a  1
    delta_7_0_1  c26_2_4_7a  -1
    delta_7_0_1  c26_3_4_7a  1
    delta_7_0_1  c26_2_5_7a  -1
    delta_7_0_1  c26_1_7_1a  -1
    delta_7_0_1  c26_3_7_1a  1
    delta_7_0_1  c26_1_7_2a  -1
    delta_7_0_1  c26_3_7_2a  1
    delta_7_0_1  c26_1_7_3a  -1
    delta_7_0_1  c26_3_7_5a  1
    delta_7_0_1  c26_1_7_6a  -1
    delta_7_0_1  c26_3_7_6a  1
    delta_7_0_1  c26_3_7_8a  1
    delta_7_0_1  c26_3_7_9a  1
    delta_7_0_1  c26_2_8_7a  -1
    delta_7_0_1  c26_2_9_7a  -1
    delta_7_0_1  c26_2_10_7a  -1
    delta_7_0_1  c26_3_10_7a  1
    delta_7_0_1  R595751   1
    delta_7_0_2  OBJ       -1000
    delta_7_0_2  c23_1a_7a  -1
    delta_7_0_2  c23_2_7_2a  1
    delta_7_0_2  c24_7_0_2a1  5
    delta_7_0_2  c24_7_0_2b1  -6
    delta_7_0_2  c25_0_7_2b  5
    delta_7_0_2  c25_1_7_2a  -6
    delta_7_0_2  c25_1_7_2b  5
    delta_7_0_2  c25_2_7_2b  5
    delta_7_0_2  c25_3_7_2b  5
    delta_7_0_2  c25_5_7_2a  -6
    delta_7_0_2  c25_6_7_2a  -6
    delta_7_0_2  c25_6_7_2b  5
    delta_7_0_2  c25_7_0_2b  -6
    delta_7_0_2  c25_7_2_2b  -6
    delta_7_0_2  c25_7_3_2b  -6
    delta_7_0_2  c25_7_4_2a  5
    delta_7_0_2  c25_7_4_2b  -6
    delta_7_0_2  c25_7_5_2a  5
    delta_7_0_2  c25_7_9_2a  5
    delta_7_0_2  c25_7_9_2b  -6
    delta_7_0_2  c25_7_10_2a  5
    delta_7_0_2  c25_8_7_2a  -6
    delta_7_0_2  c25_8_7_2b  5
    delta_7_0_2  c25_10_7_2a  -6
    delta_7_0_2  c26_2_0_7a  -1
    delta_7_0_2  c26_3_0_7a  1
    delta_7_0_2  c26_3_3_7a  1
    delta_7_0_2  c26_2_4_7a  -1
    delta_7_0_2  c26_3_4_7a  1
    delta_7_0_2  c26_2_5_7a  -1
    delta_7_0_2  c26_1_7_1a  -1
    delta_7_0_2  c26_3_7_1a  1
    delta_7_0_2  c26_1_7_2a  -1
    delta_7_0_2  c26_3_7_2a  1
    delta_7_0_2  c26_1_7_3a  -1
    delta_7_0_2  c26_3_7_5a  1
    delta_7_0_2  c26_1_7_6a  -1
    delta_7_0_2  c26_3_7_6a  1
    delta_7_0_2  c26_3_7_8a  1
    delta_7_0_2  c26_3_7_9a  1
    delta_7_0_2  c26_2_8_7a  -1
    delta_7_0_2  c26_2_9_7a  -1
    delta_7_0_2  c26_2_10_7a  -1
    delta_7_0_2  c26_3_10_7a  1
    delta_7_0_2  R595751   1
    delta_7_1_0  c23_1a_7g1  1
    delta_7_1_0  c23_2_7_0a  1
    delta_7_1_0  c24_7_0_0a1  5
    delta_7_1_0  c24_7_0_0b1  -6
    delta_7_1_0  c25_1_7_0a  -6
    delta_7_1_0  c25_1_7_0b  5
    delta_7_1_0  c25_3_7_0b  5
    delta_7_1_0  c25_4_7_0a  -6
    delta_7_1_0  c25_4_7_0b  5
    delta_7_1_0  c25_5_7_0b  5
    delta_7_1_0  c25_6_7_0b  5
    delta_7_1_0  c25_7_0_0a  5
    delta_7_1_0  c25_7_0_0b  -6
    delta_7_1_0  c25_7_2_0a  5
    delta_7_1_0  c25_7_2_0b  -6
    delta_7_1_0  c25_7_3_0b  -6
    delta_7_1_0  c25_7_5_0b  -6
    delta_7_1_0  c25_7_6_0b  -6
    delta_7_1_0  c25_7_8_0a  5
    delta_7_1_0  c25_7_8_0b  -6
    delta_7_1_0  c25_7_9_0a  5
    delta_7_1_0  c25_7_9_0b  -6
    delta_7_1_0  c25_7_10_0a  5
    delta_7_1_0  c25_10_7_0a  -6
    delta_7_1_1  c23_1a_7g1  -1
    delta_7_1_1  c23_2_7_1a  1
    delta_7_1_1  c24_7_0_1a1  5
    delta_7_1_1  c24_7_0_1b1  -95
    delta_7_1_1  c25_0_7_1a  -95
    delta_7_1_1  c25_1_7_1a  -95
    delta_7_1_1  c25_1_7_1b  5
    delta_7_1_1  c25_2_7_1a  -95
    delta_7_1_1  c25_2_7_1b  5
    delta_7_1_1  c25_3_7_1a  -95
    delta_7_1_1  c25_3_7_1b  5
    delta_7_1_1  c25_5_7_1b  5
    delta_7_1_1  c25_6_7_1a  -95
    delta_7_1_1  c25_7_0_1a  5
    delta_7_1_1  c25_7_4_1a  5
    delta_7_1_1  c25_7_4_1b  -95
    delta_7_1_1  c25_7_5_1b  -95
    delta_7_1_1  c25_7_6_1a  5
    delta_7_1_1  c25_7_8_1a  5
    delta_7_1_1  c25_7_9_1b  -95
    delta_7_1_1  c25_8_7_1a  -95
    delta_7_1_1  c25_9_7_1b  5
    delta_7_1_1  c25_10_7_1a  -95
    delta_7_1_1  c25_10_7_1b  5
    delta_7_1_2  c23_2_7_2a  1
    delta_7_1_2  c24_7_0_2a1  5
    delta_7_1_2  c24_7_0_2b1  -6
    delta_7_1_2  c25_0_7_2b  5
    delta_7_1_2  c25_1_7_2a  -6
    delta_7_1_2  c25_1_7_2b  5
    delta_7_1_2  c25_2_7_2b  5
    delta_7_1_2  c25_3_7_2b  5
    delta_7_1_2  c25_5_7_2a  -6
    delta_7_1_2  c25_6_7_2a  -6
    delta_7_1_2  c25_6_7_2b  5
    delta_7_1_2  c25_7_0_2b  -6
    delta_7_1_2  c25_7_2_2b  -6
    delta_7_1_2  c25_7_3_2b  -6
    delta_7_1_2  c25_7_4_2a  5
    delta_7_1_2  c25_7_4_2b  -6
    delta_7_1_2  c25_7_5_2a  5
    delta_7_1_2  c25_7_9_2a  5
    delta_7_1_2  c25_7_9_2b  -6
    delta_7_1_2  c25_7_10_2a  5
    delta_7_1_2  c25_8_7_2a  -6
    delta_7_1_2  c25_8_7_2b  5
    delta_7_1_2  c25_10_7_2a  -6
    delta_7_2_0  c23_1a_7a  1
    delta_7_2_0  c23_1a_7g1  1
    delta_7_2_0  c23_2_7_1a  -1
    delta_7_2_0  c23_2_7_2a  -1
    delta_7_2_0  c24_7_0_0a1  5
    delta_7_2_0  c24_7_0_0b1  -6
    delta_7_2_0  c25_1_7_0a  -6
    delta_7_2_0  c25_1_7_0b  5
    delta_7_2_0  c25_3_7_0b  5
    delta_7_2_0  c25_4_7_0a  -6
    delta_7_2_0  c25_4_7_0b  5
    delta_7_2_0  c25_5_7_0b  5
    delta_7_2_0  c25_6_7_0b  5
    delta_7_2_0  c25_7_0_0a  5
    delta_7_2_0  c25_7_0_0b  -6
    delta_7_2_0  c25_7_2_0a  5
    delta_7_2_0  c25_7_2_0b  -6
    delta_7_2_0  c25_7_3_0b  -6
    delta_7_2_0  c25_7_5_0b  -6
    delta_7_2_0  c25_7_6_0b  -6
    delta_7_2_0  c25_7_8_0a  5
    delta_7_2_0  c25_7_8_0b  -6
    delta_7_2_0  c25_7_9_0a  5
    delta_7_2_0  c25_7_9_0b  -6
    delta_7_2_0  c25_7_10_0a  5
    delta_7_2_0  c25_10_7_0a  -6
    delta_7_2_1  c23_1a_7a  1
    delta_7_2_1  c23_1a_7g1  -1
    delta_7_2_1  c23_2_7_0a  -1
    delta_7_2_1  c23_2_7_2a  -1
    delta_7_2_1  c24_7_0_1a1  5
    delta_7_2_1  c24_7_0_1b1  -95
    delta_7_2_1  c25_0_7_1a  -95
    delta_7_2_1  c25_1_7_1a  -95
    delta_7_2_1  c25_1_7_1b  5
    delta_7_2_1  c25_2_7_1a  -95
    delta_7_2_1  c25_2_7_1b  5
    delta_7_2_1  c25_3_7_1a  -95
    delta_7_2_1  c25_3_7_1b  5
    delta_7_2_1  c25_5_7_1b  5
    delta_7_2_1  c25_6_7_1a  -95
    delta_7_2_1  c25_7_0_1a  5
    delta_7_2_1  c25_7_4_1a  5
    delta_7_2_1  c25_7_4_1b  -95
    delta_7_2_1  c25_7_5_1b  -95
    delta_7_2_1  c25_7_6_1a  5
    delta_7_2_1  c25_7_8_1a  5
    delta_7_2_1  c25_7_9_1b  -95
    delta_7_2_1  c25_8_7_1a  -95
    delta_7_2_1  c25_9_7_1b  5
    delta_7_2_1  c25_10_7_1a  -95
    delta_7_2_1  c25_10_7_1b  5
    delta_7_2_2  c23_1a_7a  1
    delta_7_2_2  c23_2_7_0a  -1
    delta_7_2_2  c23_2_7_1a  -1
    delta_7_2_2  c24_7_0_2a1  5
    delta_7_2_2  c24_7_0_2b1  -6
    delta_7_2_2  c25_0_7_2b  5
    delta_7_2_2  c25_1_7_2a  -6
    delta_7_2_2  c25_1_7_2b  5
    delta_7_2_2  c25_2_7_2b  5
    delta_7_2_2  c25_3_7_2b  5
    delta_7_2_2  c25_5_7_2a  -6
    delta_7_2_2  c25_6_7_2a  -6
    delta_7_2_2  c25_6_7_2b  5
    delta_7_2_2  c25_7_0_2b  -6
    delta_7_2_2  c25_7_2_2b  -6
    delta_7_2_2  c25_7_3_2b  -6
    delta_7_2_2  c25_7_4_2a  5
    delta_7_2_2  c25_7_4_2b  -6
    delta_7_2_2  c25_7_5_2a  5
    delta_7_2_2  c25_7_9_2a  5
    delta_7_2_2  c25_7_9_2b  -6
    delta_7_2_2  c25_7_10_2a  5
    delta_7_2_2  c25_8_7_2a  -6
    delta_7_2_2  c25_8_7_2b  5
    delta_7_2_2  c25_10_7_2a  -6
    delta_8_0_0  OBJ       -1000
    delta_8_0_0  c23_1a_8a  -1
    delta_8_0_0  c23_1a_8g1  1
    delta_8_0_0  c23_2_8_0a  1
    delta_8_0_0  c24_8_0_0a1  5
    delta_8_0_0  c24_8_0_0b1  -6
    delta_8_0_0  c25_0_8_0a  -6
    delta_8_0_0  c25_0_8_0b  5
    delta_8_0_0  c25_2_8_0a  -6
    delta_8_0_0  c25_2_8_0b  5
    delta_8_0_0  c25_3_8_0a  -6
    delta_8_0_0  c25_5_8_0a  -6
    delta_8_0_0  c25_6_8_0b  5
    delta_8_0_0  c25_7_8_0a  -6
    delta_8_0_0  c25_7_8_0b  5
    delta_8_0_0  c25_8_1_0a  5
    delta_8_0_0  c25_8_1_0b  -6
    delta_8_0_0  c25_8_3_0a  5
    delta_8_0_0  c25_8_4_0a  5
    delta_8_0_0  c25_8_4_0b  -6
    delta_8_0_0  c25_8_5_0a  5
    delta_8_0_0  c25_8_6_0b  -6
    delta_8_0_0  c25_8_9_0a  5
    delta_8_0_0  c25_8_10_0b  -6
    delta_8_0_0  c25_9_8_0a  -6
    delta_8_0_0  c25_10_8_0b  5
    delta_8_0_0  c26_2_0_8a  -1
    delta_8_0_0  c26_3_1_8a  1
    delta_8_0_0  c26_3_2_8a  1
    delta_8_0_0  c26_2_4_8a  -1
    delta_8_0_0  c26_2_6_8a  -1
    delta_8_0_0  c26_2_7_8a  -1
    delta_8_0_0  c26_3_7_8a  1
    delta_8_0_0  c26_3_8_0a  1
    delta_8_0_0  c26_1_8_1a  -1
    delta_8_0_0  c26_1_8_2a  -1
    delta_8_0_0  c26_1_8_3a  -1
    delta_8_0_0  c26_3_8_3a  1
    delta_8_0_0  c26_3_8_4a  1
    delta_8_0_0  c26_1_8_5a  -1
    delta_8_0_0  c26_3_8_5a  1
    delta_8_0_0  c26_3_8_6a  1
    delta_8_0_0  c26_3_8_9a  1
    delta_8_0_0  c26_1_8_10a  -1
    delta_8_0_0  c26_2_9_8a  -1
    delta_8_0_0  c26_3_10_8a  1
    delta_8_0_0  R595760   1
    delta_8_0_1  OBJ       -1000
    delta_8_0_1  c23_1a_8a  -1
    delta_8_0_1  c23_1a_8g1  -1
    delta_8_0_1  c23_2_8_1a  1
    delta_8_0_1  c24_8_0_1a1  5
    delta_8_0_1  c24_8_0_1b1  -95
    delta_8_0_1  c25_0_8_1a  -95
    delta_8_0_1  c25_0_8_1b  5
    delta_8_0_1  c25_1_8_1b  5
    delta_8_0_1  c25_3_8_1b  5
    delta_8_0_1  c25_4_8_1a  -95
    delta_8_0_1  c25_5_8_1a  -95
    delta_8_0_1  c25_5_8_1b  5
    delta_8_0_1  c25_6_8_1a  -95
    delta_8_0_1  c25_6_8_1b  5
    delta_8_0_1  c25_7_8_1a  -95
    delta_8_0_1  c25_8_1_1b  -95
    delta_8_0_1  c25_8_2_1a  5
    delta_8_0_1  c25_8_2_1b  -95
    delta_8_0_1  c25_8_3_1b  -95
    delta_8_0_1  c25_8_4_1a  5
    delta_8_0_1  c25_8_7_1a  5
    delta_8_0_1  c25_8_10_1a  5
    delta_8_0_1  c25_9_8_1a  -95
    delta_8_0_1  c25_9_8_1b  5
    delta_8_0_1  c25_10_8_1a  -95
    delta_8_0_1  c26_2_0_8a  -1
    delta_8_0_1  c26_3_1_8a  1
    delta_8_0_1  c26_3_2_8a  1
    delta_8_0_1  c26_2_4_8a  -1
    delta_8_0_1  c26_2_6_8a  -1
    delta_8_0_1  c26_2_7_8a  -1
    delta_8_0_1  c26_3_7_8a  1
    delta_8_0_1  c26_3_8_0a  1
    delta_8_0_1  c26_1_8_1a  -1
    delta_8_0_1  c26_1_8_2a  -1
    delta_8_0_1  c26_1_8_3a  -1
    delta_8_0_1  c26_3_8_3a  1
    delta_8_0_1  c26_3_8_4a  1
    delta_8_0_1  c26_1_8_5a  -1
    delta_8_0_1  c26_3_8_5a  1
    delta_8_0_1  c26_3_8_6a  1
    delta_8_0_1  c26_3_8_9a  1
    delta_8_0_1  c26_1_8_10a  -1
    delta_8_0_1  c26_2_9_8a  -1
    delta_8_0_1  c26_3_10_8a  1
    delta_8_0_1  R595760   1
    delta_8_0_2  OBJ       -1000
    delta_8_0_2  c23_1a_8a  -1
    delta_8_0_2  c23_2_8_2a  1
    delta_8_0_2  c24_8_0_2a1  5
    delta_8_0_2  c24_8_0_2b1  -6
    delta_8_0_2  c25_0_8_2a  -6
    delta_8_0_2  c25_0_8_2b  5
    delta_8_0_2  c25_1_8_2a  -6
    delta_8_0_2  c25_2_8_2a  -6
    delta_8_0_2  c25_3_8_2a  -6
    delta_8_0_2  c25_3_8_2b  5
    delta_8_0_2  c25_4_8_2a  -6
    delta_8_0_2  c25_4_8_2b  5
    delta_8_0_2  c25_5_8_2a  -6
    delta_8_0_2  c25_8_1_2a  5
    delta_8_0_2  c25_8_2_2a  5
    delta_8_0_2  c25_8_5_2a  5
    delta_8_0_2  c25_8_6_2a  5
    delta_8_0_2  c25_8_6_2b  -6
    delta_8_0_2  c25_8_7_2a  5
    delta_8_0_2  c25_8_7_2b  -6
    delta_8_0_2  c25_8_10_2b  -6
    delta_8_0_2  c25_9_8_2a  -6
    delta_8_0_2  c25_9_8_2b  5
    delta_8_0_2  c25_10_8_2b  5
    delta_8_0_2  c26_2_0_8a  -1
    delta_8_0_2  c26_3_1_8a  1
    delta_8_0_2  c26_3_2_8a  1
    delta_8_0_2  c26_2_4_8a  -1
    delta_8_0_2  c26_2_6_8a  -1
    delta_8_0_2  c26_2_7_8a  -1
    delta_8_0_2  c26_3_7_8a  1
    delta_8_0_2  c26_3_8_0a  1
    delta_8_0_2  c26_1_8_1a  -1
    delta_8_0_2  c26_1_8_2a  -1
    delta_8_0_2  c26_1_8_3a  -1
    delta_8_0_2  c26_3_8_3a  1
    delta_8_0_2  c26_3_8_4a  1
    delta_8_0_2  c26_1_8_5a  -1
    delta_8_0_2  c26_3_8_5a  1
    delta_8_0_2  c26_3_8_6a  1
    delta_8_0_2  c26_3_8_9a  1
    delta_8_0_2  c26_1_8_10a  -1
    delta_8_0_2  c26_2_9_8a  -1
    delta_8_0_2  c26_3_10_8a  1
    delta_8_0_2  R595760   1
    delta_8_1_0  c23_1a_8g1  1
    delta_8_1_0  c23_2_8_0a  1
    delta_8_1_0  c24_8_0_0a1  5
    delta_8_1_0  c24_8_0_0b1  -6
    delta_8_1_0  c25_0_8_0a  -6
    delta_8_1_0  c25_0_8_0b  5
    delta_8_1_0  c25_2_8_0a  -6
    delta_8_1_0  c25_2_8_0b  5
    delta_8_1_0  c25_3_8_0a  -6
    delta_8_1_0  c25_5_8_0a  -6
    delta_8_1_0  c25_6_8_0b  5
    delta_8_1_0  c25_7_8_0a  -6
    delta_8_1_0  c25_7_8_0b  5
    delta_8_1_0  c25_8_1_0a  5
    delta_8_1_0  c25_8_1_0b  -6
    delta_8_1_0  c25_8_3_0a  5
    delta_8_1_0  c25_8_4_0a  5
    delta_8_1_0  c25_8_4_0b  -6
    delta_8_1_0  c25_8_5_0a  5
    delta_8_1_0  c25_8_6_0b  -6
    delta_8_1_0  c25_8_9_0a  5
    delta_8_1_0  c25_8_10_0b  -6
    delta_8_1_0  c25_9_8_0a  -6
    delta_8_1_0  c25_10_8_0b  5
    delta_8_1_1  c23_1a_8g1  -1
    delta_8_1_1  c23_2_8_1a  1
    delta_8_1_1  c24_8_0_1a1  5
    delta_8_1_1  c24_8_0_1b1  -95
    delta_8_1_1  c25_0_8_1a  -95
    delta_8_1_1  c25_0_8_1b  5
    delta_8_1_1  c25_1_8_1b  5
    delta_8_1_1  c25_3_8_1b  5
    delta_8_1_1  c25_4_8_1a  -95
    delta_8_1_1  c25_5_8_1a  -95
    delta_8_1_1  c25_5_8_1b  5
    delta_8_1_1  c25_6_8_1a  -95
    delta_8_1_1  c25_6_8_1b  5
    delta_8_1_1  c25_7_8_1a  -95
    delta_8_1_1  c25_8_1_1b  -95
    delta_8_1_1  c25_8_2_1a  5
    delta_8_1_1  c25_8_2_1b  -95
    delta_8_1_1  c25_8_3_1b  -95
    delta_8_1_1  c25_8_4_1a  5
    delta_8_1_1  c25_8_7_1a  5
    delta_8_1_1  c25_8_10_1a  5
    delta_8_1_1  c25_9_8_1a  -95
    delta_8_1_1  c25_9_8_1b  5
    delta_8_1_1  c25_10_8_1a  -95
    delta_8_1_2  c23_2_8_2a  1
    delta_8_1_2  c24_8_0_2a1  5
    delta_8_1_2  c24_8_0_2b1  -6
    delta_8_1_2  c25_0_8_2a  -6
    delta_8_1_2  c25_0_8_2b  5
    delta_8_1_2  c25_1_8_2a  -6
    delta_8_1_2  c25_2_8_2a  -6
    delta_8_1_2  c25_3_8_2a  -6
    delta_8_1_2  c25_3_8_2b  5
    delta_8_1_2  c25_4_8_2a  -6
    delta_8_1_2  c25_4_8_2b  5
    delta_8_1_2  c25_5_8_2a  -6
    delta_8_1_2  c25_8_1_2a  5
    delta_8_1_2  c25_8_2_2a  5
    delta_8_1_2  c25_8_5_2a  5
    delta_8_1_2  c25_8_6_2a  5
    delta_8_1_2  c25_8_6_2b  -6
    delta_8_1_2  c25_8_7_2a  5
    delta_8_1_2  c25_8_7_2b  -6
    delta_8_1_2  c25_8_10_2b  -6
    delta_8_1_2  c25_9_8_2a  -6
    delta_8_1_2  c25_9_8_2b  5
    delta_8_1_2  c25_10_8_2b  5
    delta_8_2_0  c23_1a_8a  1
    delta_8_2_0  c23_1a_8g1  1
    delta_8_2_0  c23_2_8_1a  -1
    delta_8_2_0  c23_2_8_2a  -1
    delta_8_2_0  c24_8_0_0a1  5
    delta_8_2_0  c24_8_0_0b1  -6
    delta_8_2_0  c25_0_8_0a  -6
    delta_8_2_0  c25_0_8_0b  5
    delta_8_2_0  c25_2_8_0a  -6
    delta_8_2_0  c25_2_8_0b  5
    delta_8_2_0  c25_3_8_0a  -6
    delta_8_2_0  c25_5_8_0a  -6
    delta_8_2_0  c25_6_8_0b  5
    delta_8_2_0  c25_7_8_0a  -6
    delta_8_2_0  c25_7_8_0b  5
    delta_8_2_0  c25_8_1_0a  5
    delta_8_2_0  c25_8_1_0b  -6
    delta_8_2_0  c25_8_3_0a  5
    delta_8_2_0  c25_8_4_0a  5
    delta_8_2_0  c25_8_4_0b  -6
    delta_8_2_0  c25_8_5_0a  5
    delta_8_2_0  c25_8_6_0b  -6
    delta_8_2_0  c25_8_9_0a  5
    delta_8_2_0  c25_8_10_0b  -6
    delta_8_2_0  c25_9_8_0a  -6
    delta_8_2_0  c25_10_8_0b  5
    delta_8_2_1  c23_1a_8a  1
    delta_8_2_1  c23_1a_8g1  -1
    delta_8_2_1  c23_2_8_0a  -1
    delta_8_2_1  c23_2_8_2a  -1
    delta_8_2_1  c24_8_0_1a1  5
    delta_8_2_1  c24_8_0_1b1  -95
    delta_8_2_1  c25_0_8_1a  -95
    delta_8_2_1  c25_0_8_1b  5
    delta_8_2_1  c25_1_8_1b  5
    delta_8_2_1  c25_3_8_1b  5
    delta_8_2_1  c25_4_8_1a  -95
    delta_8_2_1  c25_5_8_1a  -95
    delta_8_2_1  c25_5_8_1b  5
    delta_8_2_1  c25_6_8_1a  -95
    delta_8_2_1  c25_6_8_1b  5
    delta_8_2_1  c25_7_8_1a  -95
    delta_8_2_1  c25_8_1_1b  -95
    delta_8_2_1  c25_8_2_1a  5
    delta_8_2_1  c25_8_2_1b  -95
    delta_8_2_1  c25_8_3_1b  -95
    delta_8_2_1  c25_8_4_1a  5
    delta_8_2_1  c25_8_7_1a  5
    delta_8_2_1  c25_8_10_1a  5
    delta_8_2_1  c25_9_8_1a  -95
    delta_8_2_1  c25_9_8_1b  5
    delta_8_2_1  c25_10_8_1a  -95
    delta_8_2_2  c23_1a_8a  1
    delta_8_2_2  c23_2_8_0a  -1
    delta_8_2_2  c23_2_8_1a  -1
    delta_8_2_2  c24_8_0_2a1  5
    delta_8_2_2  c24_8_0_2b1  -6
    delta_8_2_2  c25_0_8_2a  -6
    delta_8_2_2  c25_0_8_2b  5
    delta_8_2_2  c25_1_8_2a  -6
    delta_8_2_2  c25_2_8_2a  -6
    delta_8_2_2  c25_3_8_2a  -6
    delta_8_2_2  c25_3_8_2b  5
    delta_8_2_2  c25_4_8_2a  -6
    delta_8_2_2  c25_4_8_2b  5
    delta_8_2_2  c25_5_8_2a  -6
    delta_8_2_2  c25_8_1_2a  5
    delta_8_2_2  c25_8_2_2a  5
    delta_8_2_2  c25_8_5_2a  5
    delta_8_2_2  c25_8_6_2a  5
    delta_8_2_2  c25_8_6_2b  -6
    delta_8_2_2  c25_8_7_2a  5
    delta_8_2_2  c25_8_7_2b  -6
    delta_8_2_2  c25_8_10_2b  -6
    delta_8_2_2  c25_9_8_2a  -6
    delta_8_2_2  c25_9_8_2b  5
    delta_8_2_2  c25_10_8_2b  5
    delta_9_0_0  OBJ       -1000
    delta_9_0_0  c23_1a_9a  -1
    delta_9_0_0  c23_1a_9g1  1
    delta_9_0_0  c23_2_9_0a  1
    delta_9_0_0  c24_9_0_0a1  5
    delta_9_0_0  c24_9_0_0b1  -6
    delta_9_0_0  c25_0_9_0a  -6
    delta_9_0_0  c25_0_9_0b  5
    delta_9_0_0  c25_2_9_0b  5
    delta_9_0_0  c25_3_9_0b  5
    delta_9_0_0  c25_4_9_0a  -6
    delta_9_0_0  c25_6_9_0a  -6
    delta_9_0_0  c25_7_9_0a  -6
    delta_9_0_0  c25_7_9_0b  5
    delta_9_0_0  c25_8_9_0a  -6
    delta_9_0_0  c25_9_1_0a  5
    delta_9_0_0  c25_9_1_0b  -6
    delta_9_0_0  c25_9_2_0b  -6
    delta_9_0_0  c25_9_3_0b  -6
    delta_9_0_0  c25_9_4_0a  5
    delta_9_0_0  c25_9_5_0a  5
    delta_9_0_0  c25_9_5_0b  -6
    delta_9_0_0  c25_9_6_0a  5
    delta_9_0_0  c25_9_8_0a  5
    delta_9_0_0  c25_9_10_0a  5
    delta_9_0_0  c25_10_9_0a  -6
    delta_9_0_0  c26_3_0_9a  1
    delta_9_0_0  c26_2_1_9a  -1
    delta_9_0_0  c26_2_3_9a  -1
    delta_9_0_0  c26_3_3_9a  1
    delta_9_0_0  c26_2_4_9a  -1
    delta_9_0_0  c26_3_4_9a  1
    delta_9_0_0  c26_3_5_9a  1
    delta_9_0_0  c26_3_6_9a  1
    delta_9_0_0  c26_2_7_9a  -1
    delta_9_0_0  c26_3_7_9a  1
    delta_9_0_0  c26_3_8_9a  1
    delta_9_0_0  c26_1_9_0a  -1
    delta_9_0_0  c26_3_9_1a  1
    delta_9_0_0  c26_1_9_2a  -1
    delta_9_0_0  c26_3_9_2a  1
    delta_9_0_0  c26_1_9_5a  -1
    delta_9_0_0  c26_1_9_6a  -1
    delta_9_0_0  c26_1_9_8a  -1
    delta_9_0_0  c26_1_9_10a  -1
    delta_9_0_0  c26_3_9_10a  1
    delta_9_0_0  R595770   1
    delta_9_0_1  OBJ       -1000
    delta_9_0_1  c23_1a_9a  -1
    delta_9_0_1  c23_1a_9g1  -1
    delta_9_0_1  c23_2_9_1a  1
    delta_9_0_1  c24_9_0_1a1  5
    delta_9_0_1  c24_9_0_1b1  -95
    delta_9_0_1  c25_7_9_1b  5
    delta_9_0_1  c25_9_0_1a  5
    delta_9_0_1  c25_9_0_1b  -95
    delta_9_0_1  c25_9_1_1a  5
    delta_9_0_1  c25_9_1_1b  -95
    delta_9_0_1  c25_9_2_1a  5
    delta_9_0_1  c25_9_2_1b  -95
    delta_9_0_1  c25_9_3_1a  5
    delta_9_0_1  c25_9_3_1b  -95
    delta_9_0_1  c25_9_4_1a  5
    delta_9_0_1  c25_9_4_1b  -95
    delta_9_0_1  c25_9_5_1a  5
    delta_9_0_1  c25_9_5_1b  -95
    delta_9_0_1  c25_9_6_1a  5
    delta_9_0_1  c25_9_6_1b  -95
    delta_9_0_1  c25_9_7_1b  -95
    delta_9_0_1  c25_9_8_1a  5
    delta_9_0_1  c25_9_8_1b  -95
    delta_9_0_1  c25_10_9_1a  -95
    delta_9_0_1  c25_10_9_1b  5
    delta_9_0_1  c26_3_0_9a  1
    delta_9_0_1  c26_2_1_9a  -1
    delta_9_0_1  c26_2_3_9a  -1
    delta_9_0_1  c26_3_3_9a  1
    delta_9_0_1  c26_2_4_9a  -1
    delta_9_0_1  c26_3_4_9a  1
    delta_9_0_1  c26_3_5_9a  1
    delta_9_0_1  c26_3_6_9a  1
    delta_9_0_1  c26_2_7_9a  -1
    delta_9_0_1  c26_3_7_9a  1
    delta_9_0_1  c26_3_8_9a  1
    delta_9_0_1  c26_1_9_0a  -1
    delta_9_0_1  c26_3_9_1a  1
    delta_9_0_1  c26_1_9_2a  -1
    delta_9_0_1  c26_3_9_2a  1
    delta_9_0_1  c26_1_9_5a  -1
    delta_9_0_1  c26_1_9_6a  -1
    delta_9_0_1  c26_1_9_8a  -1
    delta_9_0_1  c26_1_9_10a  -1
    delta_9_0_1  c26_3_9_10a  1
    delta_9_0_1  R595770   1
    delta_9_0_2  OBJ       -1000
    delta_9_0_2  c23_1a_9a  -1
    delta_9_0_2  c23_2_9_2a  1
    delta_9_0_2  c24_9_0_2a1  5
    delta_9_0_2  c24_9_0_2b1  -6
    delta_9_0_2  c25_0_9_2a  -6
    delta_9_0_2  c25_0_9_2b  5
    delta_9_0_2  c25_1_9_2b  5
    delta_9_0_2  c25_2_9_2b  5
    delta_9_0_2  c25_3_9_2a  -6
    delta_9_0_2  c25_5_9_2a  -6
    delta_9_0_2  c25_6_9_2a  -6
    delta_9_0_2  c25_7_9_2a  -6
    delta_9_0_2  c25_7_9_2b  5
    delta_9_0_2  c25_9_1_2b  -6
    delta_9_0_2  c25_9_2_2b  -6
    delta_9_0_2  c25_9_3_2a  5
    delta_9_0_2  c25_9_4_2a  5
    delta_9_0_2  c25_9_4_2b  -6
    delta_9_0_2  c25_9_5_2a  5
    delta_9_0_2  c25_9_6_2a  5
    delta_9_0_2  c25_9_8_2a  5
    delta_9_0_2  c25_9_8_2b  -6
    delta_9_0_2  c25_9_10_2a  5
    delta_9_0_2  c25_9_10_2b  -6
    delta_9_0_2  c26_3_0_9a  1
    delta_9_0_2  c26_2_1_9a  -1
    delta_9_0_2  c26_2_3_9a  -1
    delta_9_0_2  c26_3_3_9a  1
    delta_9_0_2  c26_2_4_9a  -1
    delta_9_0_2  c26_3_4_9a  1
    delta_9_0_2  c26_3_5_9a  1
    delta_9_0_2  c26_3_6_9a  1
    delta_9_0_2  c26_2_7_9a  -1
    delta_9_0_2  c26_3_7_9a  1
    delta_9_0_2  c26_3_8_9a  1
    delta_9_0_2  c26_1_9_0a  -1
    delta_9_0_2  c26_3_9_1a  1
    delta_9_0_2  c26_1_9_2a  -1
    delta_9_0_2  c26_3_9_2a  1
    delta_9_0_2  c26_1_9_5a  -1
    delta_9_0_2  c26_1_9_6a  -1
    delta_9_0_2  c26_1_9_8a  -1
    delta_9_0_2  c26_1_9_10a  -1
    delta_9_0_2  c26_3_9_10a  1
    delta_9_0_2  R595770   1
    delta_9_1_0  c23_1a_9g1  1
    delta_9_1_0  c23_2_9_0a  1
    delta_9_1_0  c24_9_0_0a1  5
    delta_9_1_0  c24_9_0_0b1  -6
    delta_9_1_0  c25_0_9_0a  -6
    delta_9_1_0  c25_0_9_0b  5
    delta_9_1_0  c25_2_9_0b  5
    delta_9_1_0  c25_3_9_0b  5
    delta_9_1_0  c25_4_9_0a  -6
    delta_9_1_0  c25_6_9_0a  -6
    delta_9_1_0  c25_7_9_0a  -6
    delta_9_1_0  c25_7_9_0b  5
    delta_9_1_0  c25_8_9_0a  -6
    delta_9_1_0  c25_9_1_0a  5
    delta_9_1_0  c25_9_1_0b  -6
    delta_9_1_0  c25_9_2_0b  -6
    delta_9_1_0  c25_9_3_0b  -6
    delta_9_1_0  c25_9_4_0a  5
    delta_9_1_0  c25_9_5_0a  5
    delta_9_1_0  c25_9_5_0b  -6
    delta_9_1_0  c25_9_6_0a  5
    delta_9_1_0  c25_9_8_0a  5
    delta_9_1_0  c25_9_10_0a  5
    delta_9_1_0  c25_10_9_0a  -6
    delta_9_1_1  c23_1a_9g1  -1
    delta_9_1_1  c23_2_9_1a  1
    delta_9_1_1  c24_9_0_1a1  5
    delta_9_1_1  c24_9_0_1b1  -95
    delta_9_1_1  c25_7_9_1b  5
    delta_9_1_1  c25_9_0_1a  5
    delta_9_1_1  c25_9_0_1b  -95
    delta_9_1_1  c25_9_1_1a  5
    delta_9_1_1  c25_9_1_1b  -95
    delta_9_1_1  c25_9_2_1a  5
    delta_9_1_1  c25_9_2_1b  -95
    delta_9_1_1  c25_9_3_1a  5
    delta_9_1_1  c25_9_3_1b  -95
    delta_9_1_1  c25_9_4_1a  5
    delta_9_1_1  c25_9_4_1b  -95
    delta_9_1_1  c25_9_5_1a  5
    delta_9_1_1  c25_9_5_1b  -95
    delta_9_1_1  c25_9_6_1a  5
    delta_9_1_1  c25_9_6_1b  -95
    delta_9_1_1  c25_9_7_1b  -95
    delta_9_1_1  c25_9_8_1a  5
    delta_9_1_1  c25_9_8_1b  -95
    delta_9_1_1  c25_10_9_1a  -95
    delta_9_1_1  c25_10_9_1b  5
    delta_9_1_2  c23_2_9_2a  1
    delta_9_1_2  c24_9_0_2a1  5
    delta_9_1_2  c24_9_0_2b1  -6
    delta_9_1_2  c25_0_9_2a  -6
    delta_9_1_2  c25_0_9_2b  5
    delta_9_1_2  c25_1_9_2b  5
    delta_9_1_2  c25_2_9_2b  5
    delta_9_1_2  c25_3_9_2a  -6
    delta_9_1_2  c25_5_9_2a  -6
    delta_9_1_2  c25_6_9_2a  -6
    delta_9_1_2  c25_7_9_2a  -6
    delta_9_1_2  c25_7_9_2b  5
    delta_9_1_2  c25_9_1_2b  -6
    delta_9_1_2  c25_9_2_2b  -6
    delta_9_1_2  c25_9_3_2a  5
    delta_9_1_2  c25_9_4_2a  5
    delta_9_1_2  c25_9_4_2b  -6
    delta_9_1_2  c25_9_5_2a  5
    delta_9_1_2  c25_9_6_2a  5
    delta_9_1_2  c25_9_8_2a  5
    delta_9_1_2  c25_9_8_2b  -6
    delta_9_1_2  c25_9_10_2a  5
    delta_9_1_2  c25_9_10_2b  -6
    delta_9_2_0  c23_1a_9a  1
    delta_9_2_0  c23_1a_9g1  1
    delta_9_2_0  c23_2_9_1a  -1
    delta_9_2_0  c23_2_9_2a  -1
    delta_9_2_0  c24_9_0_0a1  5
    delta_9_2_0  c24_9_0_0b1  -6
    delta_9_2_0  c25_0_9_0a  -6
    delta_9_2_0  c25_0_9_0b  5
    delta_9_2_0  c25_2_9_0b  5
    delta_9_2_0  c25_3_9_0b  5
    delta_9_2_0  c25_4_9_0a  -6
    delta_9_2_0  c25_6_9_0a  -6
    delta_9_2_0  c25_7_9_0a  -6
    delta_9_2_0  c25_7_9_0b  5
    delta_9_2_0  c25_8_9_0a  -6
    delta_9_2_0  c25_9_1_0a  5
    delta_9_2_0  c25_9_1_0b  -6
    delta_9_2_0  c25_9_2_0b  -6
    delta_9_2_0  c25_9_3_0b  -6
    delta_9_2_0  c25_9_4_0a  5
    delta_9_2_0  c25_9_5_0a  5
    delta_9_2_0  c25_9_5_0b  -6
    delta_9_2_0  c25_9_6_0a  5
    delta_9_2_0  c25_9_8_0a  5
    delta_9_2_0  c25_9_10_0a  5
    delta_9_2_0  c25_10_9_0a  -6
    delta_9_2_1  c23_1a_9a  1
    delta_9_2_1  c23_1a_9g1  -1
    delta_9_2_1  c23_2_9_0a  -1
    delta_9_2_1  c23_2_9_2a  -1
    delta_9_2_1  c24_9_0_1a1  5
    delta_9_2_1  c24_9_0_1b1  -95
    delta_9_2_1  c25_7_9_1b  5
    delta_9_2_1  c25_9_0_1a  5
    delta_9_2_1  c25_9_0_1b  -95
    delta_9_2_1  c25_9_1_1a  5
    delta_9_2_1  c25_9_1_1b  -95
    delta_9_2_1  c25_9_2_1a  5
    delta_9_2_1  c25_9_2_1b  -95
    delta_9_2_1  c25_9_3_1a  5
    delta_9_2_1  c25_9_3_1b  -95
    delta_9_2_1  c25_9_4_1a  5
    delta_9_2_1  c25_9_4_1b  -95
    delta_9_2_1  c25_9_5_1a  5
    delta_9_2_1  c25_9_5_1b  -95
    delta_9_2_1  c25_9_6_1a  5
    delta_9_2_1  c25_9_6_1b  -95
    delta_9_2_1  c25_9_7_1b  -95
    delta_9_2_1  c25_9_8_1a  5
    delta_9_2_1  c25_9_8_1b  -95
    delta_9_2_1  c25_10_9_1a  -95
    delta_9_2_1  c25_10_9_1b  5
    delta_9_2_2  c23_1a_9a  1
    delta_9_2_2  c23_2_9_0a  -1
    delta_9_2_2  c23_2_9_1a  -1
    delta_9_2_2  c24_9_0_2a1  5
    delta_9_2_2  c24_9_0_2b1  -6
    delta_9_2_2  c25_0_9_2a  -6
    delta_9_2_2  c25_0_9_2b  5
    delta_9_2_2  c25_1_9_2b  5
    delta_9_2_2  c25_2_9_2b  5
    delta_9_2_2  c25_3_9_2a  -6
    delta_9_2_2  c25_5_9_2a  -6
    delta_9_2_2  c25_6_9_2a  -6
    delta_9_2_2  c25_7_9_2a  -6
    delta_9_2_2  c25_7_9_2b  5
    delta_9_2_2  c25_9_1_2b  -6
    delta_9_2_2  c25_9_2_2b  -6
    delta_9_2_2  c25_9_3_2a  5
    delta_9_2_2  c25_9_4_2a  5
    delta_9_2_2  c25_9_4_2b  -6
    delta_9_2_2  c25_9_5_2a  5
    delta_9_2_2  c25_9_6_2a  5
    delta_9_2_2  c25_9_8_2a  5
    delta_9_2_2  c25_9_8_2b  -6
    delta_9_2_2  c25_9_10_2a  5
    delta_9_2_2  c25_9_10_2b  -6
    delta_10_0_0  OBJ       -1000
    delta_10_0_0  c23_1a_10a  -1
    delta_10_0_0  c23_1a_10g1  1
    delta_10_0_0  c23_2_10_0a  1
    delta_10_0_0  c24_10_0_0a1  5
    delta_10_0_0  c24_10_0_0b1  -6
    delta_10_0_0  c25_1_10_0a  -6
    delta_10_0_0  c25_2_10_0a  -6
    delta_10_0_0  c25_2_10_0b  5
    delta_10_0_0  c25_3_10_0a  -6
    delta_10_0_0  c25_4_10_0b  5
    delta_10_0_0  c25_5_10_0a  -6
    delta_10_0_0  c25_7_10_0a  -6
    delta_10_0_0  c25_8_10_0b  5
    delta_10_0_0  c25_9_10_0a  -6
    delta_10_0_0  c25_10_0_0a  5
    delta_10_0_0  c25_10_0_0b  -6
    delta_10_0_0  c25_10_1_0a  5
    delta_10_0_0  c25_10_3_0a  5
    delta_10_0_0  c25_10_4_0b  -6
    delta_10_0_0  c25_10_5_0a  5
    delta_10_0_0  c25_10_6_0a  5
    delta_10_0_0  c25_10_6_0b  -6
    delta_10_0_0  c25_10_7_0a  5
    delta_10_0_0  c25_10_8_0b  -6
    delta_10_0_0  c25_10_9_0a  5
    delta_10_0_0  c26_2_0_10a  -1
    delta_10_0_0  c26_3_0_10a  1
    delta_10_0_0  c26_2_2_10a  -1
    delta_10_0_0  c26_3_2_10a  1
    delta_10_0_0  c26_3_3_10a  1
    delta_10_0_0  c26_2_4_10a  -1
    delta_10_0_0  c26_3_5_10a  1
    delta_10_0_0  c26_2_6_10a  -1
    delta_10_0_0  c26_2_7_10a  -1
    delta_10_0_0  c26_3_9_10a  1
    delta_10_0_0  c26_1_10_1a  -1
    delta_10_0_0  c26_3_10_1a  1
    delta_10_0_0  c26_1_10_3a  -1
    delta_10_0_0  c26_3_10_4a  1
    delta_10_0_0  c26_1_10_5a  -1
    delta_10_0_0  c26_3_10_6a  1
    delta_10_0_0  c26_3_10_7a  1
    delta_10_0_0  c26_1_10_8a  -1
    delta_10_0_0  c26_3_10_8a  1
    delta_10_0_0  c26_1_10_9a  -1
    delta_10_0_0  R595781   1
    delta_10_0_1  OBJ       -1000
    delta_10_0_1  c23_1a_10a  -1
    delta_10_0_1  c23_1a_10g1  -1
    delta_10_0_1  c23_2_10_1a  1
    delta_10_0_1  c24_10_0_1a1  5
    delta_10_0_1  c24_10_0_1b1  -95
    delta_10_0_1  c25_0_10_1a  -95
    delta_10_0_1  c25_1_10_1b  5
    delta_10_0_1  c25_2_10_1b  5
    delta_10_0_1  c25_4_10_1a  -95
    delta_10_0_1  c25_5_10_1a  -95
    delta_10_0_1  c25_6_10_1a  -95
    delta_10_0_1  c25_8_10_1a  -95
    delta_10_0_1  c25_10_0_1a  5
    delta_10_0_1  c25_10_1_1b  -95
    delta_10_0_1  c25_10_2_1b  -95
    delta_10_0_1  c25_10_3_1a  5
    delta_10_0_1  c25_10_3_1b  -95
    delta_10_0_1  c25_10_4_1a  5
    delta_10_0_1  c25_10_5_1a  5
    delta_10_0_1  c25_10_6_1a  5
    delta_10_0_1  c25_10_7_1a  5
    delta_10_0_1  c25_10_7_1b  -95
    delta_10_0_1  c25_10_8_1a  5
    delta_10_0_1  c25_10_9_1a  5
    delta_10_0_1  c25_10_9_1b  -95
    delta_10_0_1  c26_2_0_10a  -1
    delta_10_0_1  c26_3_0_10a  1
    delta_10_0_1  c26_2_2_10a  -1
    delta_10_0_1  c26_3_2_10a  1
    delta_10_0_1  c26_3_3_10a  1
    delta_10_0_1  c26_2_4_10a  -1
    delta_10_0_1  c26_3_5_10a  1
    delta_10_0_1  c26_2_6_10a  -1
    delta_10_0_1  c26_2_7_10a  -1
    delta_10_0_1  c26_3_9_10a  1
    delta_10_0_1  c26_1_10_1a  -1
    delta_10_0_1  c26_3_10_1a  1
    delta_10_0_1  c26_1_10_3a  -1
    delta_10_0_1  c26_3_10_4a  1
    delta_10_0_1  c26_1_10_5a  -1
    delta_10_0_1  c26_3_10_6a  1
    delta_10_0_1  c26_3_10_7a  1
    delta_10_0_1  c26_1_10_8a  -1
    delta_10_0_1  c26_3_10_8a  1
    delta_10_0_1  c26_1_10_9a  -1
    delta_10_0_1  R595781   1
    delta_10_0_2  OBJ       -1000
    delta_10_0_2  c23_1a_10a  -1
    delta_10_0_2  c23_2_10_2a  1
    delta_10_0_2  c24_10_0_2a1  5
    delta_10_0_2  c24_10_0_2b1  -6
    delta_10_0_2  c25_0_10_2a  -6
    delta_10_0_2  c25_0_10_2b  5
    delta_10_0_2  c25_1_10_2a  -6
    delta_10_0_2  c25_2_10_2b  5
    delta_10_0_2  c25_4_10_2b  5
    delta_10_0_2  c25_5_10_2a  -6
    delta_10_0_2  c25_5_10_2b  5
    delta_10_0_2  c25_6_10_2b  5
    delta_10_0_2  c25_7_10_2a  -6
    delta_10_0_2  c25_8_10_2b  5
    delta_10_0_2  c25_9_10_2a  -6
    delta_10_0_2  c25_9_10_2b  5
    delta_10_0_2  c25_10_1_2a  5
    delta_10_0_2  c25_10_2_2b  -6
    delta_10_0_2  c25_10_3_2a  5
    delta_10_0_2  c25_10_3_2b  -6
    delta_10_0_2  c25_10_4_2b  -6
    delta_10_0_2  c25_10_6_2b  -6
    delta_10_0_2  c25_10_7_2a  5
    delta_10_0_2  c25_10_8_2b  -6
    delta_10_0_2  c26_2_0_10a  -1
    delta_10_0_2  c26_3_0_10a  1
    delta_10_0_2  c26_2_2_10a  -1
    delta_10_0_2  c26_3_2_10a  1
    delta_10_0_2  c26_3_3_10a  1
    delta_10_0_2  c26_2_4_10a  -1
    delta_10_0_2  c26_3_5_10a  1
    delta_10_0_2  c26_2_6_10a  -1
    delta_10_0_2  c26_2_7_10a  -1
    delta_10_0_2  c26_3_9_10a  1
    delta_10_0_2  c26_1_10_1a  -1
    delta_10_0_2  c26_3_10_1a  1
    delta_10_0_2  c26_1_10_3a  -1
    delta_10_0_2  c26_3_10_4a  1
    delta_10_0_2  c26_1_10_5a  -1
    delta_10_0_2  c26_3_10_6a  1
    delta_10_0_2  c26_3_10_7a  1
    delta_10_0_2  c26_1_10_8a  -1
    delta_10_0_2  c26_3_10_8a  1
    delta_10_0_2  c26_1_10_9a  -1
    delta_10_0_2  R595781   1
    delta_10_1_0  c23_1a_10g1  1
    delta_10_1_0  c23_2_10_0a  1
    delta_10_1_0  c24_10_0_0a1  5
    delta_10_1_0  c24_10_0_0b1  -6
    delta_10_1_0  c25_1_10_0a  -6
    delta_10_1_0  c25_2_10_0a  -6
    delta_10_1_0  c25_2_10_0b  5
    delta_10_1_0  c25_3_10_0a  -6
    delta_10_1_0  c25_4_10_0b  5
    delta_10_1_0  c25_5_10_0a  -6
    delta_10_1_0  c25_7_10_0a  -6
    delta_10_1_0  c25_8_10_0b  5
    delta_10_1_0  c25_9_10_0a  -6
    delta_10_1_0  c25_10_0_0a  5
    delta_10_1_0  c25_10_0_0b  -6
    delta_10_1_0  c25_10_1_0a  5
    delta_10_1_0  c25_10_3_0a  5
    delta_10_1_0  c25_10_4_0b  -6
    delta_10_1_0  c25_10_5_0a  5
    delta_10_1_0  c25_10_6_0a  5
    delta_10_1_0  c25_10_6_0b  -6
    delta_10_1_0  c25_10_7_0a  5
    delta_10_1_0  c25_10_8_0b  -6
    delta_10_1_0  c25_10_9_0a  5
    delta_10_1_1  c23_1a_10g1  -1
    delta_10_1_1  c23_2_10_1a  1
    delta_10_1_1  c24_10_0_1a1  5
    delta_10_1_1  c24_10_0_1b1  -95
    delta_10_1_1  c25_0_10_1a  -95
    delta_10_1_1  c25_1_10_1b  5
    delta_10_1_1  c25_2_10_1b  5
    delta_10_1_1  c25_4_10_1a  -95
    delta_10_1_1  c25_5_10_1a  -95
    delta_10_1_1  c25_6_10_1a  -95
    delta_10_1_1  c25_8_10_1a  -95
    delta_10_1_1  c25_10_0_1a  5
    delta_10_1_1  c25_10_1_1b  -95
    delta_10_1_1  c25_10_2_1b  -95
    delta_10_1_1  c25_10_3_1a  5
    delta_10_1_1  c25_10_3_1b  -95
    delta_10_1_1  c25_10_4_1a  5
    delta_10_1_1  c25_10_5_1a  5
    delta_10_1_1  c25_10_6_1a  5
    delta_10_1_1  c25_10_7_1a  5
    delta_10_1_1  c25_10_7_1b  -95
    delta_10_1_1  c25_10_8_1a  5
    delta_10_1_1  c25_10_9_1a  5
    delta_10_1_1  c25_10_9_1b  -95
    delta_10_1_2  c23_2_10_2a  1
    delta_10_1_2  c24_10_0_2a1  5
    delta_10_1_2  c24_10_0_2b1  -6
    delta_10_1_2  c25_0_10_2a  -6
    delta_10_1_2  c25_0_10_2b  5
    delta_10_1_2  c25_1_10_2a  -6
    delta_10_1_2  c25_2_10_2b  5
    delta_10_1_2  c25_4_10_2b  5
    delta_10_1_2  c25_5_10_2a  -6
    delta_10_1_2  c25_5_10_2b  5
    delta_10_1_2  c25_6_10_2b  5
    delta_10_1_2  c25_7_10_2a  -6
    delta_10_1_2  c25_8_10_2b  5
    delta_10_1_2  c25_9_10_2a  -6
    delta_10_1_2  c25_9_10_2b  5
    delta_10_1_2  c25_10_1_2a  5
    delta_10_1_2  c25_10_2_2b  -6
    delta_10_1_2  c25_10_3_2a  5
    delta_10_1_2  c25_10_3_2b  -6
    delta_10_1_2  c25_10_4_2b  -6
    delta_10_1_2  c25_10_6_2b  -6
    delta_10_1_2  c25_10_7_2a  5
    delta_10_1_2  c25_10_8_2b  -6
    delta_10_2_0  c23_1a_10a  1
    delta_10_2_0  c23_1a_10g1  1
    delta_10_2_0  c23_2_10_1a  -1
    delta_10_2_0  c23_2_10_2a  -1
    delta_10_2_0  c24_10_0_0a1  5
    delta_10_2_0  c24_10_0_0b1  -6
    delta_10_2_0  c25_1_10_0a  -6
    delta_10_2_0  c25_2_10_0a  -6
    delta_10_2_0  c25_2_10_0b  5
    delta_10_2_0  c25_3_10_0a  -6
    delta_10_2_0  c25_4_10_0b  5
    delta_10_2_0  c25_5_10_0a  -6
    delta_10_2_0  c25_7_10_0a  -6
    delta_10_2_0  c25_8_10_0b  5
    delta_10_2_0  c25_9_10_0a  -6
    delta_10_2_0  c25_10_0_0a  5
    delta_10_2_0  c25_10_0_0b  -6
    delta_10_2_0  c25_10_1_0a  5
    delta_10_2_0  c25_10_3_0a  5
    delta_10_2_0  c25_10_4_0b  -6
    delta_10_2_0  c25_10_5_0a  5
    delta_10_2_0  c25_10_6_0a  5
    delta_10_2_0  c25_10_6_0b  -6
    delta_10_2_0  c25_10_7_0a  5
    delta_10_2_0  c25_10_8_0b  -6
    delta_10_2_0  c25_10_9_0a  5
    delta_10_2_1  c23_1a_10a  1
    delta_10_2_1  c23_1a_10g1  -1
    delta_10_2_1  c23_2_10_0a  -1
    delta_10_2_1  c23_2_10_2a  -1
    delta_10_2_1  c24_10_0_1a1  5
    delta_10_2_1  c24_10_0_1b1  -95
    delta_10_2_1  c25_0_10_1a  -95
    delta_10_2_1  c25_1_10_1b  5
    delta_10_2_1  c25_2_10_1b  5
    delta_10_2_1  c25_4_10_1a  -95
    delta_10_2_1  c25_5_10_1a  -95
    delta_10_2_1  c25_6_10_1a  -95
    delta_10_2_1  c25_8_10_1a  -95
    delta_10_2_1  c25_10_0_1a  5
    delta_10_2_1  c25_10_1_1b  -95
    delta_10_2_1  c25_10_2_1b  -95
    delta_10_2_1  c25_10_3_1a  5
    delta_10_2_1  c25_10_3_1b  -95
    delta_10_2_1  c25_10_4_1a  5
    delta_10_2_1  c25_10_5_1a  5
    delta_10_2_1  c25_10_6_1a  5
    delta_10_2_1  c25_10_7_1a  5
    delta_10_2_1  c25_10_7_1b  -95
    delta_10_2_1  c25_10_8_1a  5
    delta_10_2_1  c25_10_9_1a  5
    delta_10_2_1  c25_10_9_1b  -95
    delta_10_2_2  c23_1a_10a  1
    delta_10_2_2  c23_2_10_0a  -1
    delta_10_2_2  c23_2_10_1a  -1
    delta_10_2_2  c24_10_0_2a1  5
    delta_10_2_2  c24_10_0_2b1  -6
    delta_10_2_2  c25_0_10_2a  -6
    delta_10_2_2  c25_0_10_2b  5
    delta_10_2_2  c25_1_10_2a  -6
    delta_10_2_2  c25_2_10_2b  5
    delta_10_2_2  c25_4_10_2b  5
    delta_10_2_2  c25_5_10_2a  -6
    delta_10_2_2  c25_5_10_2b  5
    delta_10_2_2  c25_6_10_2b  5
    delta_10_2_2  c25_7_10_2a  -6
    delta_10_2_2  c25_8_10_2b  5
    delta_10_2_2  c25_9_10_2a  -6
    delta_10_2_2  c25_9_10_2b  5
    delta_10_2_2  c25_10_1_2a  5
    delta_10_2_2  c25_10_2_2b  -6
    delta_10_2_2  c25_10_3_2a  5
    delta_10_2_2  c25_10_3_2b  -6
    delta_10_2_2  c25_10_4_2b  -6
    delta_10_2_2  c25_10_6_2b  -6
    delta_10_2_2  c25_10_7_2a  5
    delta_10_2_2  c25_10_8_2b  -6
    lambda_0_1_1  c24_0_1_1a1  10
    lambda_0_1_1  c24_1_0_1b1  10
    lambda_0_1_1  c25_0_1_1a  100
    lambda_0_1_1  c26_1_0_1a  1
    lambda_0_1_1  c26_2_0_1a  1
    lambda_0_1_1  c26_3_1_0a  -1
    lambda_0_2_1  c24_2_0_1b1  10
    lambda_0_2_1  c25_0_2_1a  100
    lambda_0_2_1  c26_2_0_2a  1
    lambda_0_2_1  c26_2_2_0a  1
    lambda_0_2_1  c26_3_2_0a  -1
    lambda_0_3_1  c24_3_0_1b1  10
    lambda_0_3_1  c25_0_3_1a  100
    lambda_0_3_1  c26_1_0_3a  1
    lambda_0_3_1  c26_2_0_3a  1
    lambda_0_3_1  c26_3_0_3a  -1
    lambda_0_4_1  c24_4_0_1b1  10
    lambda_0_4_1  c25_4_0_1b  100
    lambda_0_4_1  c26_1_0_4a  1
    lambda_0_4_1  c26_2_0_4a  1
    lambda_0_4_1  c26_3_0_4a  -1
    lambda_0_5_1  c24_5_0_1b1  10
    lambda_0_5_1  c25_0_5_1a  100
    lambda_0_5_1  c26_1_0_5a  1
    lambda_0_5_1  c26_2_0_5a  1
    lambda_0_5_1  c26_3_5_0a  -1
    lambda_0_6_1  c24_6_0_1b1  10
    lambda_0_6_1  c25_6_0_1b  100
    lambda_0_6_1  c26_1_0_6a  1
    lambda_0_6_1  c26_2_0_6a  1
    lambda_0_6_1  c26_3_6_0a  -1
    lambda_0_7_1  c24_7_0_1b1  10
    lambda_0_7_1  c25_0_7_1a  100
    lambda_0_7_1  c26_2_0_7a  1
    lambda_0_7_1  c26_3_0_7a  -1
    lambda_0_7_1  c26_2_7_0a  1
    lambda_0_8_1  c24_8_0_1b1  10
    lambda_0_8_1  c25_0_8_1a  100
    lambda_0_8_1  c26_2_0_8a  1
    lambda_0_8_1  c26_2_8_0a  1
    lambda_0_8_1  c26_3_8_0a  -1
    lambda_0_9_1  c24_9_0_1b1  10
    lambda_0_9_1  c25_9_0_1b  100
    lambda_0_9_1  c26_1_0_9a  1
    lambda_0_9_1  c26_3_0_9a  -1
    lambda_0_9_1  c26_1_9_0a  1
    lambda_0_10_1  c24_10_0_1b1  10
    lambda_0_10_1  c25_0_10_1a  100
    lambda_0_10_1  c26_2_0_10a  1
    lambda_0_10_1  c26_3_0_10a  -1
    lambda_0_10_1  c26_2_10_0a  1
    lambda_1_0_1  c24_0_1_1b1  10
    lambda_1_0_1  c24_1_0_1a1  10
    lambda_1_0_1  c25_0_1_1b  100
    lambda_1_0_1  c26_1_0_1a  1
    lambda_1_0_1  c26_2_0_1a  1
    lambda_1_0_1  c26_3_1_0a  -1
    lambda_1_2_1  c25_2_1_1b  100
    lambda_1_2_1  c26_1_1_2a  1
    lambda_1_2_1  c26_2_1_2a  1
    lambda_1_2_1  c26_3_2_1a  -1
    lambda_1_3_1  c25_3_1_1b  100
    lambda_1_3_1  c26_2_1_3a  1
    lambda_1_3_1  c26_2_3_1a  1
    lambda_1_3_1  c26_3_3_1a  -1
    lambda_1_4_1  c25_1_4_1a  100
    lambda_1_4_1  c26_3_1_4a  -1
    lambda_1_4_1  c26_1_4_1a  1
    lambda_1_4_1  c26_2_4_1a  1
    lambda_1_5_1  c25_5_1_1b  100
    lambda_1_5_1  c26_1_5_1a  1
    lambda_1_5_1  c26_2_5_1a  1
    lambda_1_5_1  c26_3_5_1a  -1
    lambda_1_6_1  c25_1_6_1a  100
    lambda_1_6_1  c26_1_1_6a  1
    lambda_1_6_1  c26_3_1_6a  -1
    lambda_1_6_1  c26_1_6_1a  1
    lambda_1_7_1  c25_1_7_1a  100
    lambda_1_7_1  c26_1_1_7a  1
    lambda_1_7_1  c26_1_7_1a  1
    lambda_1_7_1  c26_3_7_1a  -1
    lambda_1_8_1  c25_8_1_1b  100
    lambda_1_8_1  c26_1_1_8a  1
    lambda_1_8_1  c26_3_1_8a  -1
    lambda_1_8_1  c26_1_8_1a  1
    lambda_1_9_1  c25_9_1_1b  100
    lambda_1_9_1  c26_2_1_9a  1
    lambda_1_9_1  c26_2_9_1a  1
    lambda_1_9_1  c26_3_9_1a  -1
    lambda_1_10_1  c25_10_1_1b  100
    lambda_1_10_1  c26_1_1_10a  1
    lambda_1_10_1  c26_1_10_1a  1
    lambda_1_10_1  c26_3_10_1a  -1
    lambda_2_0_1  c24_2_0_1a1  10
    lambda_2_0_1  c25_2_0_1a  100
    lambda_2_0_1  c26_2_0_2a  1
    lambda_2_0_1  c26_2_2_0a  1
    lambda_2_0_1  c26_3_2_0a  -1
    lambda_2_1_1  c25_2_1_1a  100
    lambda_2_1_1  c26_1_1_2a  1
    lambda_2_1_1  c26_2_1_2a  1
    lambda_2_1_1  c26_3_2_1a  -1
    lambda_2_3_1  c25_2_3_1a  100
    lambda_2_3_1  c26_2_2_3a  1
    lambda_2_3_1  c26_3_2_3a  -1
    lambda_2_3_1  c26_2_3_2a  1
    lambda_2_4_1  c25_2_4_1a  100
    lambda_2_4_1  c26_2_2_4a  1
    lambda_2_4_1  c26_3_2_4a  -1
    lambda_2_4_1  c26_2_4_2a  1
    lambda_2_5_1  c25_2_5_1a  100
    lambda_2_5_1  c26_1_2_5a  1
    lambda_2_5_1  c26_1_5_2a  1
    lambda_2_5_1  c26_3_5_2a  -1
    lambda_2_6_1  c25_6_2_1b  100
    lambda_2_6_1  c26_1_2_6a  1
    lambda_2_6_1  c26_1_6_2a  1
    lambda_2_6_1  c26_3_6_2a  -1
    lambda_2_7_1  c25_2_7_1a  100
    lambda_2_7_1  c26_1_7_2a  1
    lambda_2_7_1  c26_2_7_2a  1
    lambda_2_7_1  c26_3_7_2a  -1
    lambda_2_8_1  c25_8_2_1b  100
    lambda_2_8_1  c26_3_2_8a  -1
    lambda_2_8_1  c26_1_8_2a  1
    lambda_2_8_1  c26_2_8_2a  1
    lambda_2_9_1  c25_9_2_1b  100
    lambda_2_9_1  c26_1_9_2a  1
    lambda_2_9_1  c26_2_9_2a  1
    lambda_2_9_1  c26_3_9_2a  -1
    lambda_2_10_1  c25_10_2_1b  100
    lambda_2_10_1  c26_1_2_10a  1
    lambda_2_10_1  c26_2_2_10a  1
    lambda_2_10_1  c26_3_2_10a  -1
    lambda_3_0_1  c24_3_0_1a1  10
    lambda_3_0_1  c25_3_0_1a  100
    lambda_3_0_1  c26_1_0_3a  1
    lambda_3_0_1  c26_2_0_3a  1
    lambda_3_0_1  c26_3_0_3a  -1
    lambda_3_1_1  c25_1_3_1b  100
    lambda_3_1_1  c26_2_1_3a  1
    lambda_3_1_1  c26_2_3_1a  1
    lambda_3_1_1  c26_3_3_1a  -1
    lambda_3_2_1  c25_2_3_1b  100
    lambda_3_2_1  c26_2_2_3a  1
    lambda_3_2_1  c26_3_2_3a  -1
    lambda_3_2_1  c26_2_3_2a  1
    lambda_3_4_1  c25_3_4_1a  100
    lambda_3_4_1  c26_1_3_4a  1
    lambda_3_4_1  c26_2_3_4a  1
    lambda_3_4_1  c26_3_3_4a  -1
    lambda_3_5_1  c25_3_5_1a  100
    lambda_3_5_1  c26_3_3_5a  -1
    lambda_3_5_1  c26_1_5_3a  1
    lambda_3_5_1  c26_2_5_3a  1
    lambda_3_6_1  c25_6_3_1b  100
    lambda_3_6_1  c26_2_3_6a  1
    lambda_3_6_1  c26_2_6_3a  1
    lambda_3_6_1  c26_3_6_3a  -1
    lambda_3_7_1  c25_3_7_1a  100
    lambda_3_7_1  c26_1_3_7a  1
    lambda_3_7_1  c26_3_3_7a  -1
    lambda_3_7_1  c26_1_7_3a  1
    lambda_3_8_1  c25_8_3_1b  100
    lambda_3_8_1  c26_1_3_8a  1
    lambda_3_8_1  c26_1_8_3a  1
    lambda_3_8_1  c26_3_8_3a  -1
    lambda_3_9_1  c25_9_3_1b  100
    lambda_3_9_1  c26_1_3_9a  1
    lambda_3_9_1  c26_2_3_9a  1
    lambda_3_9_1  c26_3_3_9a  -1
    lambda_3_10_1  c25_10_3_1b  100
    lambda_3_10_1  c26_1_3_10a  1
    lambda_3_10_1  c26_3_3_10a  -1
    lambda_3_10_1  c26_1_10_3a  1
    lambda_4_0_1  c24_4_0_1a1  10
    lambda_4_0_1  c25_4_0_1a  100
    lambda_4_0_1  c26_1_0_4a  1
    lambda_4_0_1  c26_2_0_4a  1
    lambda_4_0_1  c26_3_0_4a  -1
    lambda_4_1_1  c25_4_1_1a  100
    lambda_4_1_1  c26_3_1_4a  -1
    lambda_4_1_1  c26_1_4_1a  1
    lambda_4_1_1  c26_2_4_1a  1
    lambda_4_2_1  c25_4_2_1a  100
    lambda_4_2_1  c26_2_2_4a  1
    lambda_4_2_1  c26_3_2_4a  -1
    lambda_4_2_1  c26_2_4_2a  1
    lambda_4_3_1  c25_4_3_1a  100
    lambda_4_3_1  c26_1_3_4a  1
    lambda_4_3_1  c26_2_3_4a  1
    lambda_4_3_1  c26_3_3_4a  -1
    lambda_4_5_1  c25_5_4_1b  100
    lambda_4_5_1  c26_1_4_5a  1
    lambda_4_5_1  c26_2_4_5a  1
    lambda_4_5_1  c26_3_5_4a  -1
    lambda_4_6_1  c25_4_6_1a  100
    lambda_4_6_1  c26_1_6_4a  1
    lambda_4_6_1  c26_2_6_4a  1
    lambda_4_6_1  c26_3_6_4a  -1
    lambda_4_7_1  c25_7_4_1b  100
    lambda_4_7_1  c26_2_4_7a  1
    lambda_4_7_1  c26_3_4_7a  -1
    lambda_4_7_1  c26_2_7_4a  1
    lambda_4_8_1  c25_4_8_1a  100
    lambda_4_8_1  c26_2_4_8a  1
    lambda_4_8_1  c26_2_8_4a  1
    lambda_4_8_1  c26_3_8_4a  -1
    lambda_4_9_1  c25_9_4_1b  100
    lambda_4_9_1  c26_1_4_9a  1
    lambda_4_9_1  c26_2_4_9a  1
    lambda_4_9_1  c26_3_4_9a  -1
    lambda_4_10_1  c25_4_10_1a  100
    lambda_4_10_1  c26_2_4_10a  1
    lambda_4_10_1  c26_2_10_4a  1
    lambda_4_10_1  c26_3_10_4a  -1
    lambda_5_0_1  c24_5_0_1a1  10
    lambda_5_0_1  c25_0_5_1b  100
    lambda_5_0_1  c26_1_0_5a  1
    lambda_5_0_1  c26_2_0_5a  1
    lambda_5_0_1  c26_3_5_0a  -1
    lambda_5_1_1  c25_5_1_1a  100
    lambda_5_1_1  c26_1_5_1a  1
    lambda_5_1_1  c26_2_5_1a  1
    lambda_5_1_1  c26_3_5_1a  -1
    lambda_5_2_1  c25_2_5_1b  100
    lambda_5_2_1  c26_1_2_5a  1
    lambda_5_2_1  c26_1_5_2a  1
    lambda_5_2_1  c26_3_5_2a  -1
    lambda_5_3_1  c25_3_5_1b  100
    lambda_5_3_1  c26_3_3_5a  -1
    lambda_5_3_1  c26_1_5_3a  1
    lambda_5_3_1  c26_2_5_3a  1
    lambda_5_4_1  c25_5_4_1a  100
    lambda_5_4_1  c26_1_4_5a  1
    lambda_5_4_1  c26_2_4_5a  1
    lambda_5_4_1  c26_3_5_4a  -1
    lambda_5_6_1  c25_5_6_1a  100
    lambda_5_6_1  c26_2_5_6a  1
    lambda_5_6_1  c26_3_5_6a  -1
    lambda_5_6_1  c26_2_6_5a  1
    lambda_5_7_1  c25_7_5_1b  100
    lambda_5_7_1  c26_1_5_7a  1
    lambda_5_7_1  c26_2_5_7a  1
    lambda_5_7_1  c26_3_7_5a  -1
    lambda_5_8_1  c25_5_8_1a  100
    lambda_5_8_1  c26_1_8_5a  1
    lambda_5_8_1  c26_2_8_5a  1
    lambda_5_8_1  c26_3_8_5a  -1
    lambda_5_9_1  c25_9_5_1b  100
    lambda_5_9_1  c26_3_5_9a  -1
    lambda_5_9_1  c26_1_9_5a  1
    lambda_5_9_1  c26_2_9_5a  1
    lambda_5_10_1  c25_5_10_1a  100
    lambda_5_10_1  c26_1_5_10a  1
    lambda_5_10_1  c26_3_5_10a  -1
    lambda_5_10_1  c26_1_10_5a  1
    lambda_6_0_1  c24_6_0_1a1  10
    lambda_6_0_1  c25_6_0_1a  100
    lambda_6_0_1  c26_1_0_6a  1
    lambda_6_0_1  c26_2_0_6a  1
    lambda_6_0_1  c26_3_6_0a  -1
    lambda_6_1_1  c25_1_6_1b  100
    lambda_6_1_1  c26_1_1_6a  1
    lambda_6_1_1  c26_3_1_6a  -1
    lambda_6_1_1  c26_1_6_1a  1
    lambda_6_2_1  c25_6_2_1a  100
    lambda_6_2_1  c26_1_2_6a  1
    lambda_6_2_1  c26_1_6_2a  1
    lambda_6_2_1  c26_3_6_2a  -1
    lambda_6_3_1  c25_6_3_1a  100
    lambda_6_3_1  c26_2_3_6a  1
    lambda_6_3_1  c26_2_6_3a  1
    lambda_6_3_1  c26_3_6_3a  -1
    lambda_6_4_1  c25_4_6_1b  100
    lambda_6_4_1  c26_1_6_4a  1
    lambda_6_4_1  c26_2_6_4a  1
    lambda_6_4_1  c26_3_6_4a  -1
    lambda_6_5_1  c25_5_6_1b  100
    lambda_6_5_1  c26_2_5_6a  1
    lambda_6_5_1  c26_3_5_6a  -1
    lambda_6_5_1  c26_2_6_5a  1
    lambda_6_7_1  c25_6_7_1a  100
    lambda_6_7_1  c26_1_6_7a  1
    lambda_6_7_1  c26_1_7_6a  1
    lambda_6_7_1  c26_3_7_6a  -1
    lambda_6_8_1  c25_6_8_1a  100
    lambda_6_8_1  c26_1_6_8a  1
    lambda_6_8_1  c26_2_6_8a  1
    lambda_6_8_1  c26_3_8_6a  -1
    lambda_6_9_1  c25_9_6_1b  100
    lambda_6_9_1  c26_3_6_9a  -1
    lambda_6_9_1  c26_1_9_6a  1
    lambda_6_9_1  c26_2_9_6a  1
    lambda_6_10_1  c25_6_10_1a  100
    lambda_6_10_1  c26_2_6_10a  1
    lambda_6_10_1  c26_2_10_6a  1
    lambda_6_10_1  c26_3_10_6a  -1
    lambda_7_0_1  c24_7_0_1a1  10
    lambda_7_0_1  c25_7_0_1a  100
    lambda_7_0_1  c26_2_0_7a  1
    lambda_7_0_1  c26_3_0_7a  -1
    lambda_7_0_1  c26_2_7_0a  1
    lambda_7_1_1  c25_1_7_1b  100
    lambda_7_1_1  c26_1_1_7a  1
    lambda_7_1_1  c26_1_7_1a  1
    lambda_7_1_1  c26_3_7_1a  -1
    lambda_7_2_1  c25_2_7_1b  100
    lambda_7_2_1  c26_1_7_2a  1
    lambda_7_2_1  c26_2_7_2a  1
    lambda_7_2_1  c26_3_7_2a  -1
    lambda_7_3_1  c25_3_7_1b  100
    lambda_7_3_1  c26_1_3_7a  1
    lambda_7_3_1  c26_3_3_7a  -1
    lambda_7_3_1  c26_1_7_3a  1
    lambda_7_4_1  c25_7_4_1a  100
    lambda_7_4_1  c26_2_4_7a  1
    lambda_7_4_1  c26_3_4_7a  -1
    lambda_7_4_1  c26_2_7_4a  1
    lambda_7_5_1  c25_5_7_1b  100
    lambda_7_5_1  c26_1_5_7a  1
    lambda_7_5_1  c26_2_5_7a  1
    lambda_7_5_1  c26_3_7_5a  -1
    lambda_7_6_1  c25_7_6_1a  100
    lambda_7_6_1  c26_1_6_7a  1
    lambda_7_6_1  c26_1_7_6a  1
    lambda_7_6_1  c26_3_7_6a  -1
    lambda_7_8_1  c25_7_8_1a  100
    lambda_7_8_1  c26_2_7_8a  1
    lambda_7_8_1  c26_3_7_8a  -1
    lambda_7_8_1  c26_2_8_7a  1
    lambda_7_9_1  c25_9_7_1b  100
    lambda_7_9_1  c26_2_7_9a  1
    lambda_7_9_1  c26_3_7_9a  -1
    lambda_7_9_1  c26_2_9_7a  1
    lambda_7_10_1  c25_10_7_1b  100
    lambda_7_10_1  c26_2_7_10a  1
    lambda_7_10_1  c26_2_10_7a  1
    lambda_7_10_1  c26_3_10_7a  -1
    lambda_8_0_1  c24_8_0_1a1  10
    lambda_8_0_1  c25_0_8_1b  100
    lambda_8_0_1  c26_2_0_8a  1
    lambda_8_0_1  c26_2_8_0a  1
    lambda_8_0_1  c26_3_8_0a  -1
    lambda_8_1_1  c25_1_8_1b  100
    lambda_8_1_1  c26_1_1_8a  1
    lambda_8_1_1  c26_3_1_8a  -1
    lambda_8_1_1  c26_1_8_1a  1
    lambda_8_2_1  c25_8_2_1a  100
    lambda_8_2_1  c26_3_2_8a  -1
    lambda_8_2_1  c26_1_8_2a  1
    lambda_8_2_1  c26_2_8_2a  1
    lambda_8_3_1  c25_3_8_1b  100
    lambda_8_3_1  c26_1_3_8a  1
    lambda_8_3_1  c26_1_8_3a  1
    lambda_8_3_1  c26_3_8_3a  -1
    lambda_8_4_1  c25_8_4_1a  100
    lambda_8_4_1  c26_2_4_8a  1
    lambda_8_4_1  c26_2_8_4a  1
    lambda_8_4_1  c26_3_8_4a  -1
    lambda_8_5_1  c25_5_8_1b  100
    lambda_8_5_1  c26_1_8_5a  1
    lambda_8_5_1  c26_2_8_5a  1
    lambda_8_5_1  c26_3_8_5a  -1
    lambda_8_6_1  c25_6_8_1b  100
    lambda_8_6_1  c26_1_6_8a  1
    lambda_8_6_1  c26_2_6_8a  1
    lambda_8_6_1  c26_3_8_6a  -1
    lambda_8_7_1  c25_8_7_1a  100
    lambda_8_7_1  c26_2_7_8a  1
    lambda_8_7_1  c26_3_7_8a  -1
    lambda_8_7_1  c26_2_8_7a  1
    lambda_8_9_1  c25_9_8_1b  100
    lambda_8_9_1  c26_3_8_9a  -1
    lambda_8_9_1  c26_1_9_8a  1
    lambda_8_9_1  c26_2_9_8a  1
    lambda_8_10_1  c25_8_10_1a  100
    lambda_8_10_1  c26_1_8_10a  1
    lambda_8_10_1  c26_1_10_8a  1
    lambda_8_10_1  c26_3_10_8a  -1
    lambda_9_0_1  c24_9_0_1a1  10
    lambda_9_0_1  c25_9_0_1a  100
    lambda_9_0_1  c26_1_0_9a  1
    lambda_9_0_1  c26_3_0_9a  -1
    lambda_9_0_1  c26_1_9_0a  1
    lambda_9_1_1  c25_9_1_1a  100
    lambda_9_1_1  c26_2_1_9a  1
    lambda_9_1_1  c26_2_9_1a  1
    lambda_9_1_1  c26_3_9_1a  -1
    lambda_9_2_1  c25_9_2_1a  100
    lambda_9_2_1  c26_1_9_2a  1
    lambda_9_2_1  c26_2_9_2a  1
    lambda_9_2_1  c26_3_9_2a  -1
    lambda_9_3_1  c25_9_3_1a  100
    lambda_9_3_1  c26_1_3_9a  1
    lambda_9_3_1  c26_2_3_9a  1
    lambda_9_3_1  c26_3_3_9a  -1
    lambda_9_4_1  c25_9_4_1a  100
    lambda_9_4_1  c26_1_4_9a  1
    lambda_9_4_1  c26_2_4_9a  1
    lambda_9_4_1  c26_3_4_9a  -1
    lambda_9_5_1  c25_9_5_1a  100
    lambda_9_5_1  c26_3_5_9a  -1
    lambda_9_5_1  c26_1_9_5a  1
    lambda_9_5_1  c26_2_9_5a  1
    lambda_9_6_1  c25_9_6_1a  100
    lambda_9_6_1  c26_3_6_9a  -1
    lambda_9_6_1  c26_1_9_6a  1
    lambda_9_6_1  c26_2_9_6a  1
    lambda_9_7_1  c25_7_9_1b  100
    lambda_9_7_1  c26_2_7_9a  1
    lambda_9_7_1  c26_3_7_9a  -1
    lambda_9_7_1  c26_2_9_7a  1
    lambda_9_8_1  c25_9_8_1a  100
    lambda_9_8_1  c26_3_8_9a  -1
    lambda_9_8_1  c26_1_9_8a  1
    lambda_9_8_1  c26_2_9_8a  1
    lambda_9_10_1  c25_10_9_1b  100
    lambda_9_10_1  c26_1_9_10a  1
    lambda_9_10_1  c26_3_9_10a  -1
    lambda_9_10_1  c26_1_10_9a  1
    lambda_10_0_1  c24_10_0_1a1  10
    lambda_10_0_1  c25_10_0_1a  100
    lambda_10_0_1  c26_2_0_10a  1
    lambda_10_0_1  c26_3_0_10a  -1
    lambda_10_0_1  c26_2_10_0a  1
    lambda_10_1_1  c25_1_10_1b  100
    lambda_10_1_1  c26_1_1_10a  1
    lambda_10_1_1  c26_1_10_1a  1
    lambda_10_1_1  c26_3_10_1a  -1
    lambda_10_2_1  c25_2_10_1b  100
    lambda_10_2_1  c26_1_2_10a  1
    lambda_10_2_1  c26_2_2_10a  1
    lambda_10_2_1  c26_3_2_10a  -1
    lambda_10_3_1  c25_10_3_1a  100
    lambda_10_3_1  c26_1_3_10a  1
    lambda_10_3_1  c26_3_3_10a  -1
    lambda_10_3_1  c26_1_10_3a  1
    lambda_10_4_1  c25_10_4_1a  100
    lambda_10_4_1  c26_2_4_10a  1
    lambda_10_4_1  c26_2_10_4a  1
    lambda_10_4_1  c26_3_10_4a  -1
    lambda_10_5_1  c25_10_5_1a  100
    lambda_10_5_1  c26_1_5_10a  1
    lambda_10_5_1  c26_3_5_10a  -1
    lambda_10_5_1  c26_1_10_5a  1
    lambda_10_6_1  c25_10_6_1a  100
    lambda_10_6_1  c26_2_6_10a  1
    lambda_10_6_1  c26_2_10_6a  1
    lambda_10_6_1  c26_3_10_6a  -1
    lambda_10_7_1  c25_10_7_1a  100
    lambda_10_7_1  c26_2_7_10a  1
    lambda_10_7_1  c26_2_10_7a  1
    lambda_10_7_1  c26_3_10_7a  -1
    lambda_10_8_1  c25_10_8_1a  100
    lambda_10_8_1  c26_1_8_10a  1
    lambda_10_8_1  c26_1_10_8a  1
    lambda_10_8_1  c26_3_10_8a  -1
    lambda_10_9_1  c25_10_9_1a  100
    lambda_10_9_1  c26_1_9_10a  1
    lambda_10_9_1  c26_3_9_10a  -1
    lambda_10_9_1  c26_1_10_9a  1
    MARKER    'MARKER'                 'INTEND'
RHS
    RHS1      c26_3_0_3a  1
    RHS1      c26_3_0_4a  1
    RHS1      c26_3_0_7a  1
    RHS1      c26_3_0_9a  1
    RHS1      c26_3_0_10a  1
    RHS1      c26_3_1_0a  1
    RHS1      c26_3_1_4a  1
    RHS1      c26_3_1_6a  1
    RHS1      c26_3_1_8a  1
    RHS1      c26_3_2_0a  1
    RHS1      c26_3_2_1a  1
    RHS1      c26_3_2_3a  1
    RHS1      c26_3_2_4a  1
    RHS1      c26_3_2_8a  1
    RHS1      c26_3_2_10a  1
    RHS1      c26_3_3_1a  1
    RHS1      c26_3_3_4a  1
    RHS1      c26_3_3_5a  1
    RHS1      c26_3_3_7a  1
    RHS1      c26_3_3_9a  1
    RHS1      c26_3_3_10a  1
    RHS1      c26_3_4_7a  1
    RHS1      c26_3_4_9a  1
    RHS1      c26_3_5_0a  1
    RHS1      c26_3_5_1a  1
    RHS1      c26_3_5_2a  1
    RHS1      c26_3_5_4a  1
    RHS1      c26_3_5_6a  1
    RHS1      c26_3_5_9a  1
    RHS1      c26_3_5_10a  1
    RHS1      c26_3_6_0a  1
    RHS1      c26_3_6_2a  1
    RHS1      c26_3_6_3a  1
    RHS1      c26_3_6_4a  1
    RHS1      c26_3_6_9a  1
    RHS1      c26_3_7_1a  1
    RHS1      c26_3_7_2a  1
    RHS1      c26_3_7_5a  1
    RHS1      c26_3_7_6a  1
    RHS1      c26_3_7_8a  1
    RHS1      c26_3_7_9a  1
    RHS1      c26_3_8_0a  1
    RHS1      c26_3_8_3a  1
    RHS1      c26_3_8_4a  1
    RHS1      c26_3_8_5a  1
    RHS1      c26_3_8_6a  1
    RHS1      c26_3_8_9a  1
    RHS1      c26_3_9_1a  1
    RHS1      c26_3_9_2a  1
    RHS1      c26_3_9_10a  1
    RHS1      c26_3_10_1a  1
    RHS1      c26_3_10_4a  1
    RHS1      c26_3_10_6a  1
    RHS1      c26_3_10_7a  1
    RHS1      c26_3_10_8a  1
    RHS1      R595716   1
    RHS1      R595718   1
    RHS1      R595721   1
    RHS1      R595725   1
    RHS1      R595730   1
    RHS1      R595736   1
    RHS1      R595743   1
    RHS1      R595751   1
    RHS1      R595760   1
    RHS1      R595770   1
    RHS1      R595781   1
BOUNDS
 UP BND1      pse_X_0_x  18
 UP BND1      pse_X_0_y  285
 UP BND1      pse_X_0_z  18
 UP BND1      pse_X_1_x  18
 UP BND1      pse_X_1_y  285
 UP BND1      pse_X_1_z  18
 UP BND1      pse_X_2_x  18
 UP BND1      pse_X_2_y  285
 UP BND1      pse_X_2_z  18
 UP BND1      C9        18
 UP BND1      C10       285
 UP BND1      C11       18
 UP BND1      C12       18
 UP BND1      C13       285
 UP BND1      C14       18
 UP BND1      C15       18
 UP BND1      C16       285
 UP BND1      C17       18
 UP BND1      C18       18
 UP BND1      C19       285
 UP BND1      C20       18
 UP BND1      C21       18
 UP BND1      C22       285
 UP BND1      C23       18
 UP BND1      C24       18
 UP BND1      C25       285
 UP BND1      C26       18
 UP BND1      C27       18
 UP BND1      C28       285
 UP BND1      C29       18
 UP BND1      C30       18
 UP BND1      C31       285
 UP BND1      C32       18
 BV BND1      delta_0_0_0
 BV BND1      delta_0_0_1
 BV BND1      delta_0_0_2
 BV BND1      delta_0_1_0
 BV BND1      delta_0_1_1
 BV BND1      delta_0_1_2
 BV BND1      delta_0_2_0
 BV BND1      delta_0_2_1
 BV BND1      delta_0_2_2
 BV BND1      delta_1_0_0
 BV BND1      delta_1_0_1
 BV BND1      delta_1_0_2
 BV BND1      delta_1_1_0
 BV BND1      delta_1_1_1
 BV BND1      delta_1_1_2
 BV BND1      delta_1_2_0
 BV BND1      delta_1_2_1
 BV BND1      delta_1_2_2
 BV BND1      delta_2_0_0
 BV BND1      delta_2_0_1
 BV BND1      delta_2_0_2
 BV BND1      delta_2_1_0
 BV BND1      delta_2_1_1
 BV BND1      delta_2_1_2
 BV BND1      delta_2_2_0
 BV BND1      delta_2_2_1
 BV BND1      delta_2_2_2
 BV BND1      delta_3_0_0
 BV BND1      delta_3_0_1
 BV BND1      delta_3_0_2
 BV BND1      delta_3_1_0
 BV BND1      delta_3_1_1
 BV BND1      delta_3_1_2
 BV BND1      delta_3_2_0
 BV BND1      delta_3_2_1
 BV BND1      delta_3_2_2
 BV BND1      delta_4_0_0
 BV BND1      delta_4_0_1
 BV BND1      delta_4_0_2
 BV BND1      delta_4_1_0
 BV BND1      delta_4_1_1
 BV BND1      delta_4_1_2
 BV BND1      delta_4_2_0
 BV BND1      delta_4_2_1
 BV BND1      delta_4_2_2
 BV BND1      delta_5_0_0
 BV BND1      delta_5_0_1
 BV BND1      delta_5_0_2
 BV BND1      delta_5_1_0
 BV BND1      delta_5_1_1
 BV BND1      delta_5_1_2
 BV BND1      delta_5_2_0
 BV BND1      delta_5_2_1
 BV BND1      delta_5_2_2
 BV BND1      delta_6_0_0
 BV BND1      delta_6_0_1
 BV BND1      delta_6_0_2
 BV BND1      delta_6_1_0
 BV BND1      delta_6_1_1
 BV BND1      delta_6_1_2
 BV BND1      delta_6_2_0
 BV BND1      delta_6_2_1
 BV BND1      delta_6_2_2
 BV BND1      delta_7_0_0
 BV BND1      delta_7_0_1
 BV BND1      delta_7_0_2
 BV BND1      delta_7_1_0
 BV BND1      delta_7_1_1
 BV BND1      delta_7_1_2
 BV BND1      delta_7_2_0
 BV BND1      delta_7_2_1
 BV BND1      delta_7_2_2
 BV BND1      delta_8_0_0
 BV BND1      delta_8_0_1
 BV BND1      delta_8_0_2
 BV BND1      delta_8_1_0
 BV BND1      delta_8_1_1
 BV BND1      delta_8_1_2
 BV BND1      delta_8_2_0
 BV BND1      delta_8_2_1
 BV BND1      delta_8_2_2
 BV BND1      delta_9_0_0
 BV BND1      delta_9_0_1
 BV BND1      delta_9_0_2
 BV BND1      delta_9_1_0
 BV BND1      delta_9_1_1
 BV BND1      delta_9_1_2
 BV BND1      delta_9_2_0
 BV BND1      delta_9_2_1
 BV BND1      delta_9_2_2
 BV BND1      delta_10_0_0
 BV BND1      delta_10_0_1
 BV BND1      delta_10_0_2
 BV BND1      delta_10_1_0
 BV BND1      delta_10_1_1
 BV BND1      delta_10_1_2
 BV BND1      delta_10_2_0
 BV BND1      delta_10_2_1
 BV BND1      delta_10_2_2
 BV BND1      lambda_0_1_1
 BV BND1      lambda_0_2_1
 BV BND1      lambda_0_3_1
 BV BND1      lambda_0_4_1
 BV BND1      lambda_0_5_1
 BV BND1      lambda_0_6_1
 BV BND1      lambda_0_7_1
 BV BND1      lambda_0_8_1
 BV BND1      lambda_0_9_1
 BV BND1      lambda_0_10_1
 BV BND1      lambda_1_0_1
 BV BND1      lambda_1_2_1
 BV BND1      lambda_1_3_1
 BV BND1      lambda_1_4_1
 BV BND1      lambda_1_5_1
 BV BND1      lambda_1_6_1
 BV BND1      lambda_1_7_1
 BV BND1      lambda_1_8_1
 BV BND1      lambda_1_9_1
 BV BND1      lambda_1_10_1
 BV BND1      lambda_2_0_1
 BV BND1      lambda_2_1_1
 BV BND1      lambda_2_3_1
 BV BND1      lambda_2_4_1
 BV BND1      lambda_2_5_1
 BV BND1      lambda_2_6_1
 BV BND1      lambda_2_7_1
 BV BND1      lambda_2_8_1
 BV BND1      lambda_2_9_1
 BV BND1      lambda_2_10_1
 BV BND1      lambda_3_0_1
 BV BND1      lambda_3_1_1
 BV BND1      lambda_3_2_1
 BV BND1      lambda_3_4_1
 BV BND1      lambda_3_5_1
 BV BND1      lambda_3_6_1
 BV BND1      lambda_3_7_1
 BV BND1      lambda_3_8_1
 BV BND1      lambda_3_9_1
 BV BND1      lambda_3_10_1
 BV BND1      lambda_4_0_1
 BV BND1      lambda_4_1_1
 BV BND1      lambda_4_2_1
 BV BND1      lambda_4_3_1
 BV BND1      lambda_4_5_1
 BV BND1      lambda_4_6_1
 BV BND1      lambda_4_7_1
 BV BND1      lambda_4_8_1
 BV BND1      lambda_4_9_1
 BV BND1      lambda_4_10_1
 BV BND1      lambda_5_0_1
 BV BND1      lambda_5_1_1
 BV BND1      lambda_5_2_1
 BV BND1      lambda_5_3_1
 BV BND1      lambda_5_4_1
 BV BND1      lambda_5_6_1
 BV BND1      lambda_5_7_1
 BV BND1      lambda_5_8_1
 BV BND1      lambda_5_9_1
 BV BND1      lambda_5_10_1
 BV BND1      lambda_6_0_1
 BV BND1      lambda_6_1_1
 BV BND1      lambda_6_2_1
 BV BND1      lambda_6_3_1
 BV BND1      lambda_6_4_1
 BV BND1      lambda_6_5_1
 BV BND1      lambda_6_7_1
 BV BND1      lambda_6_8_1
 BV BND1      lambda_6_9_1
 BV BND1      lambda_6_10_1
 BV BND1      lambda_7_0_1
 BV BND1      lambda_7_1_1
 BV BND1      lambda_7_2_1
 BV BND1      lambda_7_3_1
 BV BND1      lambda_7_4_1
 BV BND1      lambda_7_5_1
 BV BND1      lambda_7_6_1
 BV BND1      lambda_7_8_1
 BV BND1      lambda_7_9_1
 BV BND1      lambda_7_10_1
 BV BND1      lambda_8_0_1
 BV BND1      lambda_8_1_1
 BV BND1      lambda_8_2_1
 BV BND1      lambda_8_3_1
 BV BND1      lambda_8_4_1
 BV BND1      lambda_8_5_1
 BV BND1      lambda_8_6_1
 BV BND1      lambda_8_7_1
 BV BND1      lambda_8_9_1
 BV BND1      lambda_8_10_1
 BV BND1      lambda_9_0_1
 BV BND1      lambda_9_1_1
 BV BND1      lambda_9_2_1
 BV BND1      lambda_9_3_1
 BV BND1      lambda_9_4_1
 BV BND1      lambda_9_5_1
 BV BND1      lambda_9_6_1
 BV BND1      lambda_9_7_1
 BV BND1      lambda_9_8_1
 BV BND1      lambda_9_10_1
 BV BND1      lambda_10_0_1
 BV BND1      lambda_10_1_1
 BV BND1      lambda_10_2_1
 BV BND1      lambda_10_3_1
 BV BND1      lambda_10_4_1
 BV BND1      lambda_10_5_1
 BV BND1      lambda_10_6_1
 BV BND1      lambda_10_7_1
 BV BND1      lambda_10_8_1
 BV BND1      lambda_10_9_1
ENDATA
